Generated by VASPKIT code               
   1.00000000000000     
     9.4983997344999995    0.0000000000000000    0.0000000000000000
     0.0000000000000000    9.4983997344999995    0.0000000000000000
     0.0000000000000000    0.0000000000000000   24.5028991699000009
   Mo   Nb
    61     1
Selective dynamics
Direct
  0.0000000000000000  0.0000000000000000  0.0000000000000000   F   F   F
  0.0163982644139530  0.9836263510359365  0.3832902488756272   T   T   T
  0.1666700000000034  0.1666700000000034  0.0646399999999971   F   F   F
  0.3333299999999966  0.0000000000000000  0.0000000000000000   F   F   F
  0.3185006345445003 -0.0008313867934248  0.3818245545485778   T   T   T
  0.5000000000000000  0.1666700000000034  0.0646399999999971   F   F   F
  0.6666700000000034  0.0000000000000000  0.0000000000000000   F   F   F
  0.6683719769979977  0.0067279858684242  0.3797706908483895   T   T   T
  0.8333299999999966  0.1666700000000034  0.0646399999999971   F   F   F
  0.0000000000000000  0.3333299999999966  0.0000000000000000   F   F   F
  0.1666700000000034  0.5000000000000000  0.0646399999999971   F   F   F
  0.3333299999999966  0.3333299999999966  0.0000000000000000   F   F   F
  0.3415767323843393  0.3308408435593061  0.3793352323490845   T   T   T
  0.5000000000000000  0.5000000000000000  0.0646399999999971   F   F   F
  0.6666700000000034  0.3333299999999966  0.0000000000000000   F   F   F
  0.8333299999999966  0.5000000000000000  0.0646399999999971   F   F   F
  0.0000000000000000  0.6666700000000034  0.0000000000000000   F   F   F
  0.0008215256194182  0.6814742018968264  0.3818214804510360   T   T   T
  0.1666700000000034  0.8333299999999966  0.0646399999999971   F   F   F
  0.3333299999999966  0.6666700000000034  0.0000000000000000   F   F   F
  0.5000000000000000  0.8333299999999966  0.0646399999999971   F   F   F
  0.6666700000000034  0.6666700000000034  0.0000000000000000   F   F   F
  0.6691506477030702  0.6584166355616130  0.3793352694704729   T   T   T
  0.8333299999999966  0.8333299999999966  0.0646399999999971   F   F   F
  0.0000000000000000  0.0000000000000000  0.1292800000000014   F   F   F
  0.1666700000000034  0.1666700000000034  0.1939100000000025   F   F   F
  0.3333299999999966  0.0000000000000000  0.1292800000000014   F   F   F
  0.5000000000000000  0.1666700000000034  0.1939100000000025   F   F   F
  0.6666700000000034  0.0000000000000000  0.1292800000000014   F   F   F
  0.8333299999999966  0.1666700000000034  0.1939100000000025   F   F   F
  0.0000000000000000  0.3333299999999966  0.1292800000000014   F   F   F
  0.1666700000000034  0.5000000000000000  0.1939100000000025   F   F   F
  0.3333299999999966  0.3333299999999966  0.1292800000000014   F   F   F
  0.5000000000000000  0.5000000000000000  0.1939100000000025   F   F   F
  0.6666700000000034  0.3333299999999966  0.1292800000000014   F   F   F
  0.8333299999999966  0.5000000000000000  0.1939100000000025   F   F   F
  0.0000000000000000  0.6666700000000034  0.1292800000000014   F   F   F
  0.1666700000000034  0.8333299999999966  0.1939100000000025   F   F   F
  0.3333299999999966  0.6666700000000034  0.1292800000000014   F   F   F
  0.5000000000000000  0.8333299999999966  0.1939100000000025   F   F   F
  0.6666700000000034  0.6666700000000034  0.1292800000000014   F   F   F
  0.8333299999999966  0.8333299999999966  0.1939100000000025   F   F   F
  0.0000000000000000  0.0000000000000000  0.2585499999999996   F   F   F
  0.1653916666551434  0.1678900515498070  0.3242630420937782   T   T   T
  0.3333299999999966  0.0000000000000000  0.2585499999999996   F   F   F
  0.5007368353223868  0.1669050696158012  0.3247323784417561   T   T   T
  0.6666700000000034  0.0000000000000000  0.2585499999999996   F   F   F
  0.8330660289963687  0.1669329389966704  0.3243724093275627   T   T   T
  0.0000000000000000  0.3333299999999966  0.2585499999999996   F   F   F
  0.1658221936981138  0.4987751624453858  0.3243129377712720   T   T   T
  0.3333299999999966  0.3333299999999966  0.2585499999999996   F   F   F
  0.5003218936657838  0.4996765945191382  0.3246093229826843   T   T   T
  0.6666700000000034  0.3333299999999966  0.2585499999999996   F   F   F
  0.8330959167931178  0.4992623449638185  0.3247333687945841   T   T   T
  0.0000000000000000  0.6666700000000034  0.2585499999999996   F   F   F
  0.1673812150268509  0.8326152670404893  0.3213422149876974   T   T   T
  0.3333299999999966  0.6666700000000034  0.2585499999999996   F   F   F
  0.5012265472989350  0.8341784808253035  0.3243118837606221   T   T   T
  0.6666700000000034  0.6666700000000034  0.2585499999999996   F   F   F
  0.8321138194150078  0.8346071763843259  0.3242651016526922   T   T   T
  0.9932749294309313  0.3316205156245352  0.3797703869040739   T   T   T
  0.3252147144087453  0.6748089414080816  0.3863764825785814   T   T   T
 
  0.00000000E+00  0.00000000E+00  0.00000000E+00
  0.00000000E+00  0.00000000E+00  0.00000000E+00
  0.00000000E+00  0.00000000E+00  0.00000000E+00
  0.00000000E+00  0.00000000E+00  0.00000000E+00
  0.00000000E+00  0.00000000E+00  0.00000000E+00
  0.00000000E+00  0.00000000E+00  0.00000000E+00
  0.00000000E+00  0.00000000E+00  0.00000000E+00
  0.00000000E+00  0.00000000E+00  0.00000000E+00
  0.00000000E+00  0.00000000E+00  0.00000000E+00
  0.00000000E+00  0.00000000E+00  0.00000000E+00
  0.00000000E+00  0.00000000E+00  0.00000000E+00
  0.00000000E+00  0.00000000E+00  0.00000000E+00
  0.00000000E+00  0.00000000E+00  0.00000000E+00
  0.00000000E+00  0.00000000E+00  0.00000000E+00
  0.00000000E+00  0.00000000E+00  0.00000000E+00
  0.00000000E+00  0.00000000E+00  0.00000000E+00
  0.00000000E+00  0.00000000E+00  0.00000000E+00
  0.00000000E+00  0.00000000E+00  0.00000000E+00
  0.00000000E+00  0.00000000E+00  0.00000000E+00
  0.00000000E+00  0.00000000E+00  0.00000000E+00
  0.00000000E+00  0.00000000E+00  0.00000000E+00
  0.00000000E+00  0.00000000E+00  0.00000000E+00
  0.00000000E+00  0.00000000E+00  0.00000000E+00
  0.00000000E+00  0.00000000E+00  0.00000000E+00
  0.00000000E+00  0.00000000E+00  0.00000000E+00
  0.00000000E+00  0.00000000E+00  0.00000000E+00
  0.00000000E+00  0.00000000E+00  0.00000000E+00
  0.00000000E+00  0.00000000E+00  0.00000000E+00
  0.00000000E+00  0.00000000E+00  0.00000000E+00
  0.00000000E+00  0.00000000E+00  0.00000000E+00
  0.00000000E+00  0.00000000E+00  0.00000000E+00
  0.00000000E+00  0.00000000E+00  0.00000000E+00
  0.00000000E+00  0.00000000E+00  0.00000000E+00
  0.00000000E+00  0.00000000E+00  0.00000000E+00
  0.00000000E+00  0.00000000E+00  0.00000000E+00
  0.00000000E+00  0.00000000E+00  0.00000000E+00
  0.00000000E+00  0.00000000E+00  0.00000000E+00
  0.00000000E+00  0.00000000E+00  0.00000000E+00
  0.00000000E+00  0.00000000E+00  0.00000000E+00
  0.00000000E+00  0.00000000E+00  0.00000000E+00
  0.00000000E+00  0.00000000E+00  0.00000000E+00
  0.00000000E+00  0.00000000E+00  0.00000000E+00
  0.00000000E+00  0.00000000E+00  0.00000000E+00
  0.00000000E+00  0.00000000E+00  0.00000000E+00
  0.00000000E+00  0.00000000E+00  0.00000000E+00
  0.00000000E+00  0.00000000E+00  0.00000000E+00
  0.00000000E+00  0.00000000E+00  0.00000000E+00
  0.00000000E+00  0.00000000E+00  0.00000000E+00
  0.00000000E+00  0.00000000E+00  0.00000000E+00
  0.00000000E+00  0.00000000E+00  0.00000000E+00
  0.00000000E+00  0.00000000E+00  0.00000000E+00
  0.00000000E+00  0.00000000E+00  0.00000000E+00
  0.00000000E+00  0.00000000E+00  0.00000000E+00
  0.00000000E+00  0.00000000E+00  0.00000000E+00
  0.00000000E+00  0.00000000E+00  0.00000000E+00
  0.00000000E+00  0.00000000E+00  0.00000000E+00
  0.00000000E+00  0.00000000E+00  0.00000000E+00
  0.00000000E+00  0.00000000E+00  0.00000000E+00
  0.00000000E+00  0.00000000E+00  0.00000000E+00
  0.00000000E+00  0.00000000E+00  0.00000000E+00
  0.00000000E+00  0.00000000E+00  0.00000000E+00
  0.00000000E+00  0.00000000E+00  0.00000000E+00
