  62  62   0   0
  0.3565551E+02  0.9498400E-09  0.9498400E-09  0.2450290E-08  0.5000000E-15
  1.000000000000000E-004
  CAR 
 ni3al                                   
      8.66801169    -60.96580387  301      3.40323158      1.00000000
    -60.966  0.0000E+00  0.0000E+00
    -60.734  0.0000E+00  0.0000E+00
    -60.502  0.0000E+00  0.0000E+00
    -60.269  0.0000E+00  0.0000E+00
    -60.037  0.0000E+00  0.0000E+00
    -59.805  0.0000E+00  0.0000E+00
    -59.573  0.0000E+00  0.0000E+00
    -59.341  0.0000E+00  0.0000E+00
    -59.109  0.0000E+00  0.0000E+00
    -58.877  0.0000E+00  0.0000E+00
    -58.645 -0.1291E-32 -0.2997E-33
    -58.413 -0.6183E-18 -0.1435E-18
    -58.180 -0.5895E-08 -0.1368E-08
    -57.948 -0.1136E-02 -0.2636E-03
    -57.716  0.1147E+00  0.2635E-01
    -57.484  0.8888E+00  0.2327E+00
    -57.252  0.6705E+00  0.3883E+00
    -57.020  0.7959E-01  0.4068E+00
    -56.788 -0.3976E-03  0.4067E+00
    -56.556 -0.1866E-09  0.4067E+00
    -56.324  0.0000E+00  0.4067E+00
    -56.091  0.0000E+00  0.4067E+00
    -55.859  0.0000E+00  0.4067E+00
    -55.627  0.0000E+00  0.4067E+00
    -55.395  0.0000E+00  0.4067E+00
    -55.163  0.0000E+00  0.4067E+00
    -54.931  0.0000E+00  0.4067E+00
    -54.699  0.0000E+00  0.4067E+00
    -54.467  0.0000E+00  0.4067E+00
    -54.235  0.0000E+00  0.4067E+00
    -54.002  0.0000E+00  0.4067E+00
    -53.770  0.0000E+00  0.4067E+00
    -53.538  0.0000E+00  0.4067E+00
    -53.306  0.0000E+00  0.4067E+00
    -53.074  0.0000E+00  0.4067E+00
    -52.842  0.0000E+00  0.4067E+00
    -52.610 -0.5450E-47  0.4067E+00
    -52.378 -0.1193E-28  0.4067E+00
    -52.146 -0.4844E-15  0.4067E+00
    -51.913 -0.3339E-06  0.4067E+00
    -51.681 -0.7978E-03  0.4065E+00
    -51.449  0.3052E-01  0.4136E+00
    -51.217 -0.9995E-03  0.4133E+00
    -50.985 -0.5753E-07  0.4133E+00
    -50.753  0.0000E+00  0.4133E+00
    -50.521  0.0000E+00  0.4133E+00
    -50.289  0.0000E+00  0.4133E+00
    -50.057  0.0000E+00  0.4133E+00
    -49.824  0.0000E+00  0.4133E+00
    -49.592  0.0000E+00  0.4133E+00
    -49.360  0.0000E+00  0.4133E+00
    -49.128  0.0000E+00  0.4133E+00
    -48.896  0.0000E+00  0.4133E+00
    -48.664  0.0000E+00  0.4133E+00
    -48.432  0.0000E+00  0.4133E+00
    -48.200  0.0000E+00  0.4133E+00
    -47.967  0.0000E+00  0.4133E+00
    -47.735  0.0000E+00  0.4133E+00
    -47.503  0.0000E+00  0.4133E+00
    -47.271  0.0000E+00  0.4133E+00
    -47.039  0.0000E+00  0.4133E+00
    -46.807  0.0000E+00  0.4133E+00
    -46.575  0.0000E+00  0.4133E+00
    -46.343  0.0000E+00  0.4133E+00
    -46.111  0.0000E+00  0.4133E+00
    -45.878  0.0000E+00  0.4133E+00
    -45.646  0.0000E+00  0.4133E+00
    -45.414  0.0000E+00  0.4133E+00
    -45.182  0.0000E+00  0.4133E+00
    -44.950  0.0000E+00  0.4133E+00
    -44.718  0.0000E+00  0.4133E+00
    -44.486  0.0000E+00  0.4133E+00
    -44.254  0.0000E+00  0.4133E+00
    -44.022  0.0000E+00  0.4133E+00
    -43.789  0.0000E+00  0.4133E+00
    -43.557  0.0000E+00  0.4133E+00
    -43.325  0.0000E+00  0.4133E+00
    -43.093  0.0000E+00  0.4133E+00
    -42.861  0.0000E+00  0.4133E+00
    -42.629  0.0000E+00  0.4133E+00
    -42.397  0.0000E+00  0.4133E+00
    -42.165  0.0000E+00  0.4133E+00
    -41.933  0.0000E+00  0.4133E+00
    -41.700  0.0000E+00  0.4133E+00
    -41.468  0.0000E+00  0.4133E+00
    -41.236  0.0000E+00  0.4133E+00
    -41.004  0.0000E+00  0.4133E+00
    -40.772  0.0000E+00  0.4133E+00
    -40.540  0.0000E+00  0.4133E+00
    -40.308  0.0000E+00  0.4133E+00
    -40.076  0.0000E+00  0.4133E+00
    -39.844  0.0000E+00  0.4133E+00
    -39.611  0.0000E+00  0.4133E+00
    -39.379  0.0000E+00  0.4133E+00
    -39.147  0.0000E+00  0.4133E+00
    -38.915  0.0000E+00  0.4133E+00
    -38.683  0.0000E+00  0.4133E+00
    -38.451  0.0000E+00  0.4133E+00
    -38.219  0.0000E+00  0.4133E+00
    -37.987  0.0000E+00  0.4133E+00
    -37.755  0.0000E+00  0.4133E+00
    -37.522  0.0000E+00  0.4133E+00
    -37.290  0.0000E+00  0.4133E+00
    -37.058  0.0000E+00  0.4133E+00
    -36.826  0.0000E+00  0.4133E+00
    -36.594  0.0000E+00  0.4133E+00
    -36.362  0.0000E+00  0.4133E+00
    -36.130  0.0000E+00  0.4133E+00
    -35.898  0.0000E+00  0.4133E+00
    -35.666  0.0000E+00  0.4133E+00
    -35.433  0.0000E+00  0.4133E+00
    -35.201  0.0000E+00  0.4133E+00
    -34.969  0.0000E+00  0.4133E+00
    -34.737  0.0000E+00  0.4133E+00
    -34.505  0.0000E+00  0.4133E+00
    -34.273  0.0000E+00  0.4133E+00
    -34.041  0.0000E+00  0.4133E+00
    -33.809  0.0000E+00  0.4133E+00
    -33.577  0.0000E+00  0.4133E+00
    -33.344 -0.1025E-39  0.4133E+00
    -33.112 -0.3649E-23  0.4133E+00
    -32.880 -0.2726E-11  0.4133E+00
    -32.648 -0.4364E-04  0.4133E+00
    -32.416  0.8555E-02  0.4153E+00
    -32.184  0.5437E+00  0.5415E+00
    -31.952  0.7021E+00  0.7045E+00
    -31.720  0.7406E+00  0.8764E+00
    -31.487  0.9363E+00  0.1094E+01
    -31.255  0.1030E+01  0.1333E+01
    -31.023  0.1121E+01  0.1593E+01
    -30.791  0.1763E+00  0.1634E+01
    -30.559 -0.2826E-02  0.1633E+01
    -30.327 -0.1992E-07  0.1633E+01
    -30.095  0.0000E+00  0.1633E+01
    -29.863  0.0000E+00  0.1633E+01
    -29.631  0.0000E+00  0.1633E+01
    -29.398  0.0000E+00  0.1633E+01
    -29.166  0.0000E+00  0.1633E+01
    -28.934  0.0000E+00  0.1633E+01
    -28.702 -0.2401E-41  0.1633E+01
    -28.470 -0.2475E-24  0.1633E+01
    -28.238 -0.4614E-12  0.1633E+01
    -28.006 -0.1332E-04  0.1633E+01
    -27.774  0.5486E-02  0.1635E+01
    -27.542  0.6713E-01  0.1650E+01
    -27.309  0.1360E-01  0.1653E+01
    -27.077 -0.3402E-04  0.1653E+01
    -26.845 -0.1529E-11  0.1653E+01
    -26.613  0.0000E+00  0.1653E+01
    -26.381  0.0000E+00  0.1653E+01
    -26.149  0.0000E+00  0.1653E+01
    -25.917  0.0000E+00  0.1653E+01
    -25.685  0.0000E+00  0.1653E+01
    -25.453  0.0000E+00  0.1653E+01
    -25.220  0.0000E+00  0.1653E+01
    -24.988  0.0000E+00  0.1653E+01
    -24.756  0.0000E+00  0.1653E+01
    -24.524  0.0000E+00  0.1653E+01
    -24.292  0.0000E+00  0.1653E+01
    -24.060  0.0000E+00  0.1653E+01
    -23.828  0.0000E+00  0.1653E+01
    -23.596  0.0000E+00  0.1653E+01
    -23.364  0.0000E+00  0.1653E+01
    -23.131  0.0000E+00  0.1653E+01
    -22.899  0.0000E+00  0.1653E+01
    -22.667  0.0000E+00  0.1653E+01
    -22.435  0.0000E+00  0.1653E+01
    -22.203  0.0000E+00  0.1653E+01
    -21.971  0.0000E+00  0.1653E+01
    -21.739  0.0000E+00  0.1653E+01
    -21.507  0.0000E+00  0.1653E+01
    -21.275  0.0000E+00  0.1653E+01
    -21.042  0.0000E+00  0.1653E+01
    -20.810  0.0000E+00  0.1653E+01
    -20.578  0.0000E+00  0.1653E+01
    -20.346  0.0000E+00  0.1653E+01
    -20.114  0.0000E+00  0.1653E+01
    -19.882  0.0000E+00  0.1653E+01
    -19.650  0.0000E+00  0.1653E+01
    -19.418  0.0000E+00  0.1653E+01
    -19.186  0.0000E+00  0.1653E+01
    -18.953  0.0000E+00  0.1653E+01
    -18.721  0.0000E+00  0.1653E+01
    -18.489  0.0000E+00  0.1653E+01
    -18.257  0.0000E+00  0.1653E+01
    -18.025  0.0000E+00  0.1653E+01
    -17.793  0.0000E+00  0.1653E+01
    -17.561  0.0000E+00  0.1653E+01
    -17.329  0.0000E+00  0.1653E+01
    -17.097  0.0000E+00  0.1653E+01
    -16.864  0.0000E+00  0.1653E+01
    -16.632  0.0000E+00  0.1653E+01
    -16.400  0.0000E+00  0.1653E+01
    -16.168  0.0000E+00  0.1653E+01
    -15.936  0.0000E+00  0.1653E+01
    -15.704  0.0000E+00  0.1653E+01
    -15.472  0.0000E+00  0.1653E+01
    -15.240  0.0000E+00  0.1653E+01
    -15.007  0.0000E+00  0.1653E+01
    -14.775  0.0000E+00  0.1653E+01
    -14.543  0.0000E+00  0.1653E+01
    -14.311  0.0000E+00  0.1653E+01
    -14.079  0.0000E+00  0.1653E+01
    -13.847  0.0000E+00  0.1653E+01
    -13.615  0.0000E+00  0.1653E+01
    -13.383  0.0000E+00  0.1653E+01
    -13.151  0.0000E+00  0.1653E+01
    -12.918  0.0000E+00  0.1653E+01
    -12.686  0.0000E+00  0.1653E+01
    -12.454  0.0000E+00  0.1653E+01
    -12.222  0.0000E+00  0.1653E+01
    -11.990  0.0000E+00  0.1653E+01
    -11.758  0.0000E+00  0.1653E+01
    -11.526  0.0000E+00  0.1653E+01
    -11.294  0.0000E+00  0.1653E+01
    -11.062  0.0000E+00  0.1653E+01
    -10.829  0.0000E+00  0.1653E+01
    -10.597  0.0000E+00  0.1653E+01
    -10.365  0.0000E+00  0.1653E+01
    -10.133  0.0000E+00  0.1653E+01
     -9.901  0.0000E+00  0.1653E+01
     -9.669  0.0000E+00  0.1653E+01
     -9.437  0.0000E+00  0.1653E+01
     -9.205  0.0000E+00  0.1653E+01
     -8.973  0.0000E+00  0.1653E+01
     -8.740  0.0000E+00  0.1653E+01
     -8.508  0.0000E+00  0.1653E+01
     -8.276  0.0000E+00  0.1653E+01
     -8.044  0.0000E+00  0.1653E+01
     -7.812  0.0000E+00  0.1653E+01
     -7.580  0.0000E+00  0.1653E+01
     -7.348  0.0000E+00  0.1653E+01
     -7.116  0.0000E+00  0.1653E+01
     -6.884  0.0000E+00  0.1653E+01
     -6.651  0.0000E+00  0.1653E+01
     -6.419  0.0000E+00  0.1653E+01
     -6.187  0.0000E+00  0.1653E+01
     -5.955  0.0000E+00  0.1653E+01
     -5.723  0.0000E+00  0.1653E+01
     -5.491  0.0000E+00  0.1653E+01
     -5.259  0.0000E+00  0.1653E+01
     -5.027  0.0000E+00  0.1653E+01
     -4.795  0.0000E+00  0.1653E+01
     -4.562  0.0000E+00  0.1653E+01
     -4.330 -0.3823E-46  0.1653E+01
     -4.098 -0.2824E-28  0.1653E+01
     -3.866 -0.3840E-15  0.1653E+01
     -3.634 -0.8615E-07  0.1653E+01
     -3.402 -0.5707E-05  0.1653E+01
     -3.170  0.5762E-02  0.1655E+01
     -2.938  0.1045E-01  0.1657E+01
     -2.706  0.7650E-02  0.1659E+01
     -2.473  0.1400E-01  0.1662E+01
     -2.241  0.9039E-02  0.1664E+01
     -2.009  0.3310E-01  0.1672E+01
     -1.777  0.2335E-01  0.1677E+01
     -1.545  0.3292E-01  0.1685E+01
     -1.313  0.1548E+00  0.1721E+01
     -1.081  0.1442E+00  0.1754E+01
     -0.849  0.2628E+00  0.1815E+01
     -0.616  0.1801E+00  0.1857E+01
     -0.384  0.2251E+00  0.1909E+01
     -0.152  0.2681E+00  0.1972E+01
      0.080  0.2463E+00  0.2029E+01
      0.312  0.2520E+00  0.2087E+01
      0.544  0.4009E+00  0.2180E+01
      0.776  0.3233E+00  0.2255E+01
      1.008  0.2803E+00  0.2320E+01
      1.240  0.2424E+00  0.2377E+01
      1.473  0.2835E+00  0.2443E+01
      1.705  0.2672E+00  0.2505E+01
      1.937  0.2869E+00  0.2571E+01
      2.169  0.2664E+00  0.2633E+01
      2.401  0.2277E+00  0.2686E+01
      2.633  0.1618E+00  0.2723E+01
      2.865  0.2168E+00  0.2774E+01
      3.097  0.2316E+00  0.2827E+01
      3.329  0.2221E+00  0.2879E+01
      3.562  0.1796E+00  0.2921E+01
      3.794  0.1805E+00  0.2963E+01
      4.026  0.2477E+00  0.3020E+01
      4.258  0.2104E+00  0.3069E+01
      4.490  0.2492E+00  0.3127E+01
      4.722  0.3446E+00  0.3207E+01
      4.954  0.3573E+00  0.3290E+01
      5.186  0.3575E+00  0.3373E+01
      5.418  0.3404E+00  0.3452E+01
      5.651  0.6529E-01  0.3467E+01
      5.883 -0.6450E-03  0.3467E+01
      6.115 -0.2270E-08  0.3467E+01
      6.347  0.0000E+00  0.3467E+01
      6.579  0.0000E+00  0.3467E+01
      6.811  0.0000E+00  0.3467E+01
      7.043  0.0000E+00  0.3467E+01
      7.275  0.0000E+00  0.3467E+01
      7.507  0.0000E+00  0.3467E+01
      7.740  0.0000E+00  0.3467E+01
      7.972  0.0000E+00  0.3467E+01
      8.204  0.0000E+00  0.3467E+01
      8.436  0.0000E+00  0.3467E+01
      8.668  0.0000E+00  0.3467E+01
