       N       E                     dE             d eps       ncg     rms          rms(c)
DAV:   1     0.955218702847E+04    0.95522E+04   -0.52199E+05 12840   0.141E+03
DAV:   2    -0.229005094392E+03   -0.97812E+04   -0.94954E+04 11408   0.471E+02
DAV:   3    -0.671033227020E+03   -0.44203E+03   -0.41670E+03 14784   0.889E+01
DAV:   4    -0.696110315503E+03   -0.25077E+02   -0.23989E+02 14040   0.164E+01
DAV:   5    -0.698171352143E+03   -0.20610E+01   -0.20175E+01 18536   0.405E+00    0.101E+02
DAV:   6    -0.699984822397E+03   -0.18135E+01   -0.39045E+02 13832   0.285E+01    0.632E+01
DAV:   7    -0.733642846409E+03   -0.33658E+02   -0.87530E+02 13320   0.404E+01    0.531E+01
DAV:   8    -0.653560576959E+03    0.80082E+02   -0.19484E+02 13448   0.220E+01    0.266E+01
DAV:   9    -0.642444463084E+03    0.11116E+02   -0.34116E+01 13888   0.934E+00    0.152E+01
DAV:  10    -0.641881374013E+03    0.56309E+00   -0.52316E+00 14832   0.279E+00    0.122E+01
DAV:  11    -0.641662773277E+03    0.21860E+00   -0.97187E-01 13872   0.192E+00    0.111E+01
DAV:  12    -0.641228428561E+03    0.43434E+00   -0.16781E+00 13544   0.257E+00    0.921E+00
DAV:  13    -0.640418278650E+03    0.81015E+00   -0.31366E+00 13240   0.305E+00    0.601E+00
DAV:  14    -0.640171226434E+03    0.24705E+00   -0.16282E+00 14128   0.282E+00    0.447E+00
DAV:  15    -0.640056660981E+03    0.11457E+00   -0.60466E-01 13464   0.164E+00    0.329E+00
DAV:  16    -0.639945967707E+03    0.11069E+00   -0.20401E-01 13552   0.105E+00    0.211E+00
DAV:  17    -0.639897477387E+03    0.48490E-01   -0.13174E-01 13784   0.829E-01    0.123E+00
DAV:  18    -0.639834030267E+03    0.63447E-01   -0.98213E-02 11616   0.634E-01    0.863E-01
DAV:  19    -0.639797101924E+03    0.36928E-01   -0.36597E-02 14056   0.410E-01    0.989E-01
DAV:  20    -0.639748703101E+03    0.48399E-01   -0.31385E-02 13472   0.381E-01    0.921E-01
DAV:  21    -0.639684016104E+03    0.64687E-01   -0.49905E-02 13328   0.460E-01    0.666E-01
DAV:  22    -0.639636885016E+03    0.47131E-01   -0.33438E-02 13360   0.400E-01    0.594E-01
DAV:  23    -0.639604873082E+03    0.32012E-01   -0.21088E-02 13352   0.305E-01    0.553E-01
DAV:  24    -0.639552485805E+03    0.52387E-01   -0.29942E-02 11944   0.295E-01    0.335E-01
DAV:  25    -0.639543321214E+03    0.91646E-02   -0.16684E-02 13368   0.273E-01    0.370E-01
DAV:  26    -0.639550486260E+03   -0.71650E-02   -0.91113E-03 13344   0.200E-01    0.296E-01
DAV:  27    -0.639571614233E+03   -0.21128E-01   -0.87439E-03 12960   0.167E-01    0.231E-01
DAV:  28    -0.639585906682E+03   -0.14292E-01   -0.54921E-03 13296   0.143E-01    0.178E-01
DAV:  29    -0.639603460977E+03   -0.17554E-01   -0.63855E-03 12912   0.129E-01    0.149E-01
DAV:  30    -0.639610418844E+03   -0.69579E-02   -0.22334E-03 13464   0.925E-02    0.100E-01
DAV:  31    -0.639616828631E+03   -0.64098E-02   -0.14060E-03 13080   0.644E-02    0.687E-02
DAV:  32    -0.639621403461E+03   -0.45748E-02   -0.97371E-04 13152   0.472E-02    0.355E-02
DAV:  33    -0.639622909239E+03   -0.15058E-02   -0.27113E-04 13216   0.284E-02    0.317E-02
DAV:  34    -0.639624477583E+03   -0.15683E-02   -0.25125E-04 11864   0.188E-02    0.159E-02
DAV:  35    -0.639625111274E+03   -0.63369E-03   -0.88183E-05 10840   0.106E-02    0.899E-03
DAV:  36    -0.639625636924E+03   -0.52565E-03   -0.85286E-05 10136   0.876E-03    0.965E-03
DAV:  37    -0.639625815408E+03   -0.17848E-03   -0.21288E-05 10032   0.583E-03    0.662E-03
DAV:  38    -0.639625918370E+03   -0.10296E-03   -0.10347E-05  8864   0.345E-03    0.334E-03
DAV:  39    -0.639625959250E+03   -0.40880E-04   -0.30822E-06  8344   0.239E-03    0.215E-03
DAV:  40    -0.639625987275E+03   -0.28025E-04   -0.20223E-06  7896   0.171E-03    0.135E-03
DAV:  41    -0.639626010105E+03   -0.22830E-04   -0.20232E-06  7984   0.123E-03    0.122E-03
DAV:  42    -0.639626019834E+03   -0.97284E-05   -0.74309E-07  7712   0.961E-04    0.996E-04
DAV:  43    -0.639626027140E+03   -0.73064E-05   -0.67360E-07  7600   0.754E-04    0.799E-04
DAV:  44    -0.639626030634E+03   -0.34938E-05   -0.31579E-07  7344   0.651E-04    0.650E-04
DAV:  45    -0.639626033846E+03   -0.32120E-05   -0.52277E-07  7576   0.591E-04    0.469E-04
DAV:  46    -0.639626035652E+03   -0.18060E-05   -0.30122E-07  7320   0.513E-04    0.371E-04
DAV:  47    -0.639626036770E+03   -0.11186E-05   -0.16125E-07  6584   0.415E-04    0.324E-04
DAV:  48    -0.639626037627E+03   -0.85669E-06   -0.15521E-07  7024   0.379E-04
   1 F= -.63962604E+03 E0= -.63962975E+03  d E =-.639626E+03
       N       E                     dE             d eps       ncg     rms          rms(c)
DAV:   1    -0.639565671635E+03    0.60365E-01   -0.47933E+01 10400   0.140E+01    0.125E+00
DAV:   2    -0.639733037197E+03   -0.16737E+00   -0.16911E+00 11080   0.244E+00    0.899E-01
DAV:   3    -0.639740305253E+03   -0.72681E-02   -0.13367E-01 14720   0.853E-01    0.822E-01
DAV:   4    -0.639731565280E+03    0.87400E-02   -0.50841E-02 13512   0.518E-01    0.419E-01
DAV:   5    -0.639733468196E+03   -0.19029E-02   -0.20039E-02 14224   0.299E-01    0.471E-01
DAV:   6    -0.639730724270E+03    0.27439E-02   -0.12103E-02 13472   0.256E-01    0.168E-01
DAV:   7    -0.639730594565E+03    0.12971E-03   -0.43805E-03 14120   0.161E-01    0.114E-01
DAV:   8    -0.639730446814E+03    0.14775E-03   -0.13964E-03 13408   0.932E-02    0.767E-02
DAV:   9    -0.639730359432E+03    0.87382E-04   -0.43268E-04 14064   0.491E-02    0.310E-02
DAV:  10    -0.639730367750E+03   -0.83177E-05   -0.11141E-04 13824   0.251E-02    0.321E-02
DAV:  11    -0.639730352371E+03    0.15379E-04   -0.51472E-05 13696   0.178E-02    0.115E-02
DAV:  12    -0.639730351936E+03    0.43516E-06   -0.12307E-05 11824   0.842E-03    0.658E-03
DAV:  13    -0.639730352146E+03   -0.21028E-06   -0.44455E-06  9984   0.543E-03
   2 F= -.63973035E+03 E0= -.63973433E+03  d E =-.104315E+00
       N       E                     dE             d eps       ncg     rms          rms(c)
DAV:   1    -0.639601976504E+03    0.12838E+00   -0.47871E+01 10400   0.139E+01    0.130E+00
DAV:   2    -0.639770347283E+03   -0.16837E+00   -0.16938E+00 11248   0.245E+00    0.933E-01
DAV:   3    -0.639777223107E+03   -0.68758E-02   -0.14310E-01 14664   0.887E-01    0.837E-01
DAV:   4    -0.639767665809E+03    0.95573E-02   -0.52630E-02 13512   0.528E-01    0.416E-01
DAV:   5    -0.639769981851E+03   -0.23160E-02   -0.21463E-02 14232   0.306E-01    0.492E-01
DAV:   6    -0.639766831638E+03    0.31502E-02   -0.12458E-02 13536   0.260E-01    0.160E-01
DAV:   7    -0.639766806333E+03    0.25305E-04   -0.41880E-03 14024   0.155E-01    0.125E-01
DAV:   8    -0.639766623170E+03    0.18316E-03   -0.15147E-03 13232   0.937E-02    0.798E-02
DAV:   9    -0.639766530548E+03    0.92622E-04   -0.44548E-04 13560   0.508E-02    0.319E-02
DAV:  10    -0.639766541786E+03   -0.11238E-04   -0.12542E-04 13912   0.266E-02    0.342E-02
DAV:  11    -0.639766524804E+03    0.16982E-04   -0.55863E-05 13456   0.187E-02    0.116E-02
DAV:  12    -0.639766525569E+03   -0.76559E-06   -0.13368E-05 11816   0.869E-03    0.755E-03
DAV:  13    -0.639766526741E+03   -0.11713E-05   -0.49051E-06 10008   0.544E-03    0.533E-03
DAV:  14    -0.639766527811E+03   -0.10707E-05   -0.21312E-06  8192   0.390E-03    0.336E-03
DAV:  15    -0.639766529344E+03   -0.15327E-05   -0.55212E-07  6480   0.225E-03    0.214E-03
DAV:  16    -0.639766530700E+03   -0.13562E-05   -0.21802E-07  6320   0.135E-03    0.169E-03
DAV:  17    -0.639766533028E+03   -0.23282E-05   -0.26106E-07  6984   0.136E-03    0.182E-03
DAV:  18    -0.639766535606E+03   -0.25780E-05   -0.30344E-07  6712   0.123E-03    0.133E-03
DAV:  19    -0.639766537940E+03   -0.23333E-05   -0.17871E-07  6768   0.888E-04    0.106E-03
DAV:  20    -0.639766542973E+03   -0.50332E-05   -0.46369E-07  7208   0.807E-04    0.901E-04
DAV:  21    -0.639766547471E+03   -0.44977E-05   -0.33070E-07  7208   0.805E-04    0.726E-04
DAV:  22    -0.639766550698E+03   -0.32273E-05   -0.24378E-07  7104   0.746E-04    0.680E-04
DAV:  23    -0.639766553236E+03   -0.25381E-05   -0.16968E-07  6712   0.671E-04    0.517E-04
DAV:  24    -0.639766555355E+03   -0.21191E-05   -0.19753E-07  6808   0.538E-04    0.454E-04
DAV:  25    -0.639766557545E+03   -0.21904E-05   -0.18451E-07  6960   0.474E-04    0.381E-04
DAV:  26    -0.639766558756E+03   -0.12108E-05   -0.73515E-08  6040   0.386E-04    0.360E-04
DAV:  27    -0.639766559747E+03   -0.99040E-06   -0.71893E-08  6360   0.343E-04
   3 F= -.63976656E+03 E0= -.63977082E+03  d E =-.140522E+00
       N       E                     dE             d eps       ncg     rms          rms(c)
DAV:   1    -0.639689594966E+03    0.76964E-01   -0.37162E+01 10400   0.119E+01    0.107E+00
DAV:   2    -0.639817145277E+03   -0.12755E+00   -0.12781E+00 10912   0.208E+00    0.808E-01
DAV:   3    -0.639821017164E+03   -0.38719E-02   -0.10509E-01 15008   0.755E-01    0.717E-01
DAV:   4    -0.639813940817E+03    0.70763E-02   -0.30231E-02 13936   0.366E-01    0.330E-01
DAV:   5    -0.639815758241E+03   -0.18174E-02   -0.17403E-02 13656   0.288E-01    0.401E-01
DAV:   6    -0.639813477486E+03    0.22808E-02   -0.10594E-02 13504   0.243E-01    0.145E-01
DAV:   7    -0.639813258668E+03    0.21882E-03   -0.23219E-03 13976   0.111E-01    0.724E-02
DAV:   8    -0.639813256637E+03    0.20308E-05   -0.70396E-04 13576   0.620E-02    0.663E-02
DAV:   9    -0.639813197245E+03    0.59391E-04   -0.30723E-04 13528   0.444E-02    0.335E-02
DAV:  10    -0.639813190026E+03    0.72193E-05   -0.10470E-04 13776   0.240E-02    0.240E-02
DAV:  11    -0.639813183832E+03    0.61942E-05   -0.42794E-05 13408   0.158E-02    0.114E-02
DAV:  12    -0.639813181792E+03    0.20405E-05   -0.13190E-05 12384   0.837E-03    0.400E-03
DAV:  13    -0.639813182018E+03   -0.22633E-06   -0.18041E-06  7912   0.324E-03
   4 F= -.63981318E+03 E0= -.63981770E+03  d E =-.466223E-01
       N       E                     dE             d eps       ncg     rms          rms(c)
DAV:   1    -0.639658142977E+03    0.15504E+00   -0.51252E+01 10400   0.140E+01    0.125E+00
DAV:   2    -0.639835146091E+03   -0.17700E+00   -0.17853E+00 10800   0.245E+00    0.911E-01
DAV:   3    -0.639842158086E+03   -0.70120E-02   -0.13942E-01 15056   0.867E-01    0.834E-01
DAV:   4    -0.639832231314E+03    0.99268E-02   -0.40951E-02 13896   0.427E-01    0.381E-01
DAV:   5    -0.639834735608E+03   -0.25043E-02   -0.22613E-02 13944   0.320E-01    0.462E-01
DAV:   6    -0.639831691651E+03    0.30440E-02   -0.14246E-02 13464   0.281E-01    0.165E-01
DAV:   7    -0.639831444314E+03    0.24734E-03   -0.33804E-03 14136   0.130E-01    0.882E-02
DAV:   8    -0.639831412785E+03    0.31529E-04   -0.10237E-03 13888   0.743E-02    0.793E-02
DAV:   9    -0.639831328693E+03    0.84092E-04   -0.43270E-04 13576   0.514E-02    0.383E-02
DAV:  10    -0.639831319546E+03    0.91472E-05   -0.13340E-04 14176   0.265E-02    0.266E-02
DAV:  11    -0.639831315689E+03    0.38570E-05   -0.58720E-05 13480   0.184E-02    0.152E-02
DAV:  12    -0.639831313376E+03    0.23134E-05   -0.21855E-05 13224   0.109E-02    0.508E-03
DAV:  13    -0.639831315079E+03   -0.17031E-05   -0.32518E-06  9504   0.407E-03    0.427E-03
DAV:  14    -0.639831316643E+03   -0.15640E-05   -0.91144E-07  6888   0.305E-03    0.310E-03
DAV:  15    -0.639831318180E+03   -0.15369E-05   -0.37332E-07  6304   0.180E-03    0.243E-03
DAV:  16    -0.639831321292E+03   -0.31120E-05   -0.34543E-07  7176   0.139E-03    0.196E-03
DAV:  17    -0.639831324467E+03   -0.31752E-05   -0.33129E-07  6896   0.136E-03    0.184E-03
DAV:  18    -0.639831327972E+03   -0.35050E-05   -0.33666E-07  7104   0.122E-03    0.138E-03
DAV:  19    -0.639831332114E+03   -0.41422E-05   -0.38699E-07  7240   0.106E-03    0.112E-03
DAV:  20    -0.639831337406E+03   -0.52918E-05   -0.45088E-07  7304   0.102E-03    0.994E-04
DAV:  21    -0.639831341848E+03   -0.44426E-05   -0.44226E-07  7328   0.885E-04    0.627E-04
DAV:  22    -0.639831344245E+03   -0.23968E-05   -0.16771E-07  6688   0.677E-04    0.600E-04
DAV:  23    -0.639831346409E+03   -0.21638E-05   -0.16883E-07  6856   0.555E-04    0.467E-04
DAV:  24    -0.639831348056E+03   -0.16467E-05   -0.14038E-07  6560   0.483E-04    0.456E-04
DAV:  25    -0.639831349426E+03   -0.13707E-05   -0.90648E-08  6112   0.405E-04    0.400E-04
DAV:  26    -0.639831350963E+03   -0.15363E-05   -0.14327E-07  6968   0.384E-04    0.313E-04
DAV:  27    -0.639831351938E+03   -0.97581E-06   -0.72631E-08  6160   0.333E-04
   5 F= -.63983135E+03 E0= -.63983628E+03  d E =-.647922E-01
       N       E                     dE             d eps       ncg     rms          rms(c)
DAV:   1    -0.639729554121E+03    0.10180E+00   -0.40297E+01 10400   0.127E+01    0.105E+00
DAV:   2    -0.639865517490E+03   -0.13596E+00   -0.13963E+00 10568   0.221E+00    0.670E-01
DAV:   3    -0.639874016761E+03   -0.84993E-02   -0.10236E-01 15208   0.693E-01    0.672E-01
DAV:   4    -0.639867085654E+03    0.69311E-02   -0.28281E-02 13656   0.365E-01    0.319E-01
DAV:   5    -0.639868666405E+03   -0.15808E-02   -0.13716E-02 14224   0.258E-01    0.352E-01
DAV:   6    -0.639866891269E+03    0.17751E-02   -0.91707E-03 13528   0.230E-01    0.130E-01
DAV:   7    -0.639866899461E+03   -0.81922E-05   -0.26582E-03 14136   0.113E-01    0.946E-02
DAV:   8    -0.639866811767E+03    0.87694E-04   -0.89895E-04 13696   0.726E-02    0.693E-02
DAV:   9    -0.639866741905E+03    0.69862E-04   -0.29063E-04 14192   0.400E-02    0.265E-02
DAV:  10    -0.639866745779E+03   -0.38743E-05   -0.78331E-05 14776   0.202E-02    0.238E-02
DAV:  11    -0.639866738064E+03    0.77157E-05   -0.47572E-05 13264   0.166E-02    0.116E-02
DAV:  12    -0.639866737434E+03    0.62997E-06   -0.18854E-05 11648   0.920E-03    0.731E-03
DAV:  13    -0.639866736668E+03    0.76601E-06   -0.43763E-06 10040   0.503E-03
   6 F= -.63986674E+03 E0= -.63987170E+03  d E =-.353847E-01
       N       E                     dE             d eps       ncg     rms          rms(c)
DAV:   1    -0.639752565966E+03    0.11417E+00   -0.36892E+01 10400   0.121E+01    0.101E+00
DAV:   2    -0.639876671881E+03   -0.12411E+00   -0.12748E+00 10704   0.212E+00    0.645E-01
DAV:   3    -0.639884555355E+03   -0.78835E-02   -0.94969E-02 15208   0.670E-01    0.650E-01
DAV:   4    -0.639878017030E+03    0.65383E-02   -0.26474E-02 13632   0.352E-01    0.306E-01
DAV:   5    -0.639879470759E+03   -0.14537E-02   -0.12909E-02 14232   0.250E-01    0.339E-01
DAV:   6    -0.639877833532E+03    0.16372E-02   -0.84768E-03 13552   0.220E-01    0.126E-01
DAV:   7    -0.639877834093E+03   -0.56163E-06   -0.24337E-03 14136   0.109E-01    0.895E-02
DAV:   8    -0.639877766147E+03    0.67946E-04   -0.84004E-04 13768   0.697E-02    0.696E-02
DAV:   9    -0.639877693886E+03    0.72261E-04   -0.27878E-04 14128   0.392E-02    0.249E-02
DAV:  10    -0.639877698819E+03   -0.49334E-05   -0.71432E-05 15256   0.189E-02    0.219E-02
DAV:  11    -0.639877694182E+03    0.46370E-05   -0.42516E-05 13416   0.154E-02    0.112E-02
DAV:  12    -0.639877694873E+03   -0.69065E-06   -0.17675E-05 11664   0.892E-03    0.723E-03
DAV:  13    -0.639877695429E+03   -0.55636E-06   -0.38404E-06  9736   0.478E-03
   7 F= -.63987770E+03 E0= -.63988248E+03  d E =-.463435E-01
       N       E                     dE             d eps       ncg     rms          rms(c)
DAV:   1    -0.639841052239E+03    0.36643E-01   -0.12749E+01 10480   0.714E+00    0.602E-01
DAV:   2    -0.639884574696E+03   -0.43522E-01   -0.44867E-01 10640   0.124E+00    0.352E-01
DAV:   3    -0.639887037792E+03   -0.24631E-02   -0.28922E-02 15048   0.332E-01    0.323E-01
DAV:   4    -0.639886177645E+03    0.86015E-03   -0.10678E-02 13616   0.220E-01    0.222E-01
DAV:   5    -0.639886326227E+03   -0.14858E-03   -0.35539E-03 14440   0.136E-01    0.197E-01
DAV:   6    -0.639885746094E+03    0.58013E-03   -0.24948E-03 13648   0.116E-01    0.689E-02
DAV:   7    -0.639885777646E+03   -0.31553E-04   -0.82983E-04 14264   0.645E-02    0.646E-02
DAV:   8    -0.639885716240E+03    0.61406E-04   -0.32918E-04 13416   0.432E-02    0.288E-02
DAV:   9    -0.639885705695E+03    0.10545E-04   -0.67676E-05 14104   0.201E-02    0.127E-02
DAV:  10    -0.639885709155E+03   -0.34597E-05   -0.18797E-05 12720   0.102E-02    0.123E-02
DAV:  11    -0.639885708492E+03    0.66277E-06   -0.10705E-05 10968   0.806E-03    0.646E-03
DAV:  12    -0.639885709523E+03   -0.10304E-05   -0.31062E-06  9208   0.448E-03    0.385E-03
DAV:  13    -0.639885711210E+03   -0.16876E-05   -0.11253E-06  7192   0.318E-03    0.283E-03
DAV:  14    -0.639885712380E+03   -0.11699E-05   -0.37774E-07  6240   0.195E-03    0.169E-03
DAV:  15    -0.639885714753E+03   -0.23724E-05   -0.18640E-07  6512   0.114E-03    0.143E-03
DAV:  16    -0.639885717644E+03   -0.28918E-05   -0.17749E-07  6728   0.106E-03    0.117E-03
DAV:  17    -0.639885721169E+03   -0.35244E-05   -0.19871E-07  6992   0.883E-04    0.116E-03
DAV:  18    -0.639885726529E+03   -0.53604E-05   -0.40242E-07  7288   0.105E-03    0.130E-03
DAV:  19    -0.639885730615E+03   -0.40855E-05   -0.24737E-07  7096   0.101E-03    0.105E-03
DAV:  20    -0.639885735057E+03   -0.44429E-05   -0.38900E-07  7224   0.785E-04    0.792E-04
DAV:  21    -0.639885737870E+03   -0.28122E-05   -0.18134E-07  7048   0.691E-04    0.715E-04
DAV:  22    -0.639885740070E+03   -0.22007E-05   -0.14597E-07  6616   0.618E-04    0.490E-04
DAV:  23    -0.639885741334E+03   -0.12638E-05   -0.98113E-08  6072   0.474E-04    0.390E-04
DAV:  24    -0.639885742090E+03   -0.75552E-06   -0.71563E-08  5872   0.333E-04
   8 F= -.63988574E+03 E0= -.63989059E+03  d E =-.804666E-02
       N       E                     dE             d eps       ncg     rms          rms(c)
DAV:   1    -0.639883949862E+03    0.17915E-02   -0.59403E-01 10480   0.154E+00    0.129E-01
DAV:   2    -0.639885958628E+03   -0.20088E-02   -0.20696E-02 10752   0.267E-01    0.763E-02
DAV:   3    -0.639886089308E+03   -0.13068E-03   -0.13956E-03 15096   0.733E-02    0.752E-02
DAV:   4    -0.639886018185E+03    0.71123E-04   -0.43962E-04 13488   0.458E-02    0.421E-02
DAV:   5    -0.639886045931E+03   -0.27746E-04   -0.20008E-04 14424   0.309E-02    0.472E-02
DAV:   6    -0.639886010028E+03    0.35903E-04   -0.13535E-04 13560   0.269E-02    0.137E-02
DAV:   7    -0.639886011730E+03   -0.17019E-05   -0.32863E-05 13536   0.126E-02    0.120E-02
DAV:   8    -0.639886009888E+03    0.18428E-05   -0.12472E-05 11176   0.861E-03    0.632E-03
DAV:   9    -0.639886009360E+03    0.52796E-06   -0.29270E-06  9032   0.471E-03
   9 F= -.63988601E+03 E0= -.63989087E+03  d E =-.831393E-02
       N       E                     dE             d eps       ncg     rms          rms(c)
DAV:   1    -0.639866940165E+03    0.19070E-01   -0.62110E+00 10408   0.492E+00    0.452E-01
DAV:   2    -0.639889516568E+03   -0.22576E-01   -0.23230E-01 10504   0.876E-01    0.265E-01
DAV:   3    -0.639891343892E+03   -0.18273E-02   -0.16799E-02 15000   0.269E-01    0.313E-01
DAV:   4    -0.639889826390E+03    0.15175E-02   -0.49824E-03 13752   0.158E-01    0.133E-01
DAV:   5    -0.639890132192E+03   -0.30580E-03   -0.22650E-03 14032   0.107E-01    0.145E-01
DAV:   6    -0.639889844906E+03    0.28729E-03   -0.16103E-03 13648   0.963E-02    0.622E-02
DAV:   7    -0.639889830857E+03    0.14049E-04   -0.48162E-04 13816   0.520E-02    0.416E-02
DAV:   8    -0.639889806087E+03    0.24771E-04   -0.15470E-04 13440   0.342E-02    0.250E-02
DAV:   9    -0.639889802123E+03    0.39642E-05   -0.65286E-05 13656   0.196E-02    0.186E-02
DAV:  10    -0.639889798848E+03    0.32747E-05   -0.26342E-05 12336   0.130E-02    0.118E-02
DAV:  11    -0.639889796804E+03    0.20438E-05   -0.93091E-06 11288   0.772E-03    0.408E-03
DAV:  12    -0.639889796887E+03   -0.82378E-07   -0.17347E-06  8040   0.345E-03
  10 F= -.63988980E+03 E0= -.63989462E+03  d E =-.378753E-02
       N       E                     dE             d eps       ncg     rms          rms(c)
DAV:   1    -0.639887842065E+03    0.19547E-02   -0.59003E-01 10472   0.152E+00    0.137E-01
DAV:   2    -0.639889969539E+03   -0.21275E-02   -0.21963E-02 10584   0.269E-01    0.797E-02
DAV:   3    -0.639890138801E+03   -0.16926E-03   -0.15513E-03 15000   0.807E-02    0.936E-02
DAV:   4    -0.639890001790E+03    0.13701E-03   -0.45515E-04 13672   0.480E-02    0.394E-02
DAV:   5    -0.639890031325E+03   -0.29535E-04   -0.22222E-04 13856   0.333E-02    0.438E-02
DAV:   6    -0.639890003635E+03    0.27690E-04   -0.15079E-04 13568   0.291E-02    0.180E-02
DAV:   7    -0.639890002319E+03    0.13166E-05   -0.38089E-05 13152   0.142E-02    0.112E-02
DAV:   8    -0.639890001422E+03    0.89672E-06   -0.11396E-05 11104   0.922E-03    0.764E-03
DAV:   9    -0.639890001284E+03    0.13789E-06   -0.56180E-06 10112   0.595E-03
  11 F= -.63989000E+03 E0= -.63989481E+03  d E =-.399192E-02
       N       E                     dE             d eps       ncg     rms          rms(c)
DAV:   1    -0.639877319910E+03    0.12682E-01   -0.36885E+00 10400   0.362E+00    0.339E-01
DAV:   2    -0.639891935670E+03   -0.14616E-01   -0.15049E-01 10696   0.669E-01    0.219E-01
DAV:   3    -0.639892874997E+03   -0.93933E-03   -0.11441E-02 14976   0.227E-01    0.230E-01
DAV:   4    -0.639892085991E+03    0.78901E-03   -0.31224E-03 13416   0.127E-01    0.111E-01
DAV:   5    -0.639892288516E+03   -0.20252E-03   -0.16252E-03 14344   0.879E-02    0.129E-01
DAV:   6    -0.639892047219E+03    0.24130E-03   -0.10792E-03 13392   0.790E-02    0.505E-02
DAV:   7    -0.639892034806E+03    0.12413E-04   -0.33953E-04 14200   0.409E-02    0.312E-02
DAV:   8    -0.639892023942E+03    0.10865E-04   -0.98127E-05 13296   0.230E-02    0.196E-02
DAV:   9    -0.639892019287E+03    0.46550E-05   -0.33577E-05 12768   0.143E-02    0.107E-02
DAV:  10    -0.639892021022E+03   -0.17351E-05   -0.15862E-05 11480   0.960E-03    0.126E-02
DAV:  11    -0.639892018640E+03    0.23811E-05   -0.79196E-06 10728   0.708E-03    0.407E-03
DAV:  12    -0.639892018622E+03    0.18845E-07   -0.12206E-06  7360   0.316E-03
  12 F= -.63989202E+03 E0= -.63989698E+03  d E =-.201734E-02
       N       E                     dE             d eps       ncg     rms          rms(c)
DAV:   1    -0.639890650997E+03    0.13676E-02   -0.37700E-01 10400   0.116E+00    0.106E-01
DAV:   2    -0.639892141516E+03   -0.14905E-02   -0.15338E-02 10824   0.213E-01    0.702E-02
DAV:   3    -0.639892229175E+03   -0.87659E-04   -0.11399E-03 14880   0.715E-02    0.718E-02
DAV:   4    -0.639892153905E+03    0.75270E-04   -0.30534E-04 13360   0.395E-02    0.350E-02
DAV:   5    -0.639892175259E+03   -0.21353E-04   -0.17129E-04 14040   0.287E-02    0.409E-02
DAV:   6    -0.639892150341E+03    0.24918E-04   -0.11015E-04 13416   0.254E-02    0.156E-02
DAV:   7    -0.639892148760E+03    0.15813E-05   -0.30875E-05 13424   0.121E-02    0.888E-03
DAV:   8    -0.639892148221E+03    0.53849E-06   -0.82561E-06 10832   0.664E-03
  13 F= -.63989215E+03 E0= -.63989716E+03  d E =-.214694E-02
       N       E                     dE             d eps       ncg     rms          rms(c)
DAV:   1    -0.639885822789E+03    0.63260E-02   -0.17378E+00 10400   0.250E+00    0.219E-01
DAV:   2    -0.639892879532E+03   -0.70567E-02   -0.72182E-02 10960   0.459E-01    0.149E-01
DAV:   3    -0.639893319414E+03   -0.43988E-03   -0.55207E-03 15168   0.144E-01    0.155E-01
DAV:   4    -0.639892969698E+03    0.34972E-03   -0.11605E-03 13760   0.758E-02    0.732E-02
DAV:   5    -0.639893039394E+03   -0.69696E-04   -0.59455E-04 14208   0.550E-02    0.746E-02
DAV:   6    -0.639892969604E+03    0.69790E-04   -0.43272E-04 13712   0.509E-02    0.345E-02
DAV:   7    -0.639892959570E+03    0.10034E-04   -0.14234E-04 13864   0.277E-02    0.213E-02
DAV:   8    -0.639892953778E+03    0.57921E-05   -0.34994E-05 13160   0.153E-02    0.136E-02
DAV:   9    -0.639892952605E+03    0.11730E-05   -0.15971E-05 11544   0.969E-03    0.935E-03
DAV:  10    -0.639892952759E+03   -0.15355E-06   -0.84763E-06 11216   0.697E-03
  14 F= -.63989295E+03 E0= -.63989807E+03  d E =-.804538E-03
       N       E                     dE             d eps       ncg     rms          rms(c)
DAV:   1    -0.639892946150E+03    0.64554E-05   -0.15517E-03 10784   0.749E-02    0.715E-03
DAV:   2    -0.639892953059E+03   -0.69094E-05   -0.66220E-05 11376   0.144E-02    0.587E-03
DAV:   3    -0.639892953461E+03   -0.40157E-06   -0.64824E-06 11128   0.553E-03
  15 F= -.63989295E+03 E0= -.63989807E+03  d E =-.805240E-03
       N       E                     dE             d eps       ncg     rms          rms(c)
DAV:   1    -0.639891250823E+03    0.17022E-02   -0.51123E-01 10400   0.134E+00    0.118E-01
DAV:   2    -0.639893287607E+03   -0.20368E-02   -0.21068E-02 10592   0.247E-01    0.783E-02
DAV:   3    -0.639893400092E+03   -0.11249E-03   -0.14661E-03 15016   0.770E-02    0.762E-02
DAV:   4    -0.639893322223E+03    0.77870E-04   -0.34466E-04 13432   0.404E-02    0.414E-02
DAV:   5    -0.639893351506E+03   -0.29284E-04   -0.22403E-04 14008   0.318E-02    0.483E-02
DAV:   6    -0.639893317220E+03    0.34286E-04   -0.17685E-04 13320   0.298E-02    0.163E-02
DAV:   7    -0.639893316228E+03    0.99250E-06   -0.37183E-05 13400   0.135E-02    0.102E-02
DAV:   8    -0.639893314821E+03    0.14070E-05   -0.83353E-06 11072   0.780E-03    0.619E-03
DAV:   9    -0.639893314581E+03    0.24046E-06   -0.27942E-06  9136   0.443E-03
  16 F= -.63989331E+03 E0= -.63989844E+03  d E =-.361120E-03
       N       E                     dE             d eps       ncg     rms          rms(c)
DAV:   1    -0.639891909502E+03    0.14053E-02   -0.37344E-01 10456   0.114E+00    0.101E-01
DAV:   2    -0.639893400100E+03   -0.14906E-02   -0.15399E-02 10600   0.211E-01    0.674E-02
DAV:   3    -0.639893483244E+03   -0.83144E-04   -0.10823E-03 15024   0.670E-02    0.659E-02
DAV:   4    -0.639893424240E+03    0.59004E-04   -0.25647E-04 13400   0.351E-02    0.354E-02
DAV:   5    -0.639893445160E+03   -0.20919E-04   -0.16680E-04 13952   0.276E-02    0.409E-02
DAV:   6    -0.639893420476E+03    0.24683E-04   -0.12561E-04 13296   0.254E-02    0.130E-02
DAV:   7    -0.639893420012E+03    0.46393E-06   -0.24709E-05 12696   0.108E-02    0.832E-03
DAV:   8    -0.639893419156E+03    0.85670E-06   -0.54162E-06 10016   0.630E-03
  17 F= -.63989342E+03 E0= -.63989856E+03  d E =-.465695E-03
       N       E                     dE             d eps       ncg     rms          rms(c)
DAV:   1    -0.639892027763E+03    0.13922E-02   -0.41391E-01 10440   0.126E+00    0.104E-01
DAV:   2    -0.639893524726E+03   -0.14970E-02   -0.15513E-02 10536   0.225E-01    0.603E-02
DAV:   3    -0.639893598290E+03   -0.73565E-04   -0.88737E-04 14960   0.555E-02    0.540E-02
DAV:   4    -0.639893587733E+03    0.10557E-04   -0.29327E-04 13400   0.382E-02    0.438E-02
DAV:   5    -0.639893588749E+03   -0.10161E-05   -0.13980E-04 13728   0.279E-02    0.357E-02
DAV:   6    -0.639893572647E+03    0.16102E-04   -0.89463E-05 13288   0.227E-02    0.159E-02
DAV:   7    -0.639893571560E+03    0.10873E-05   -0.29398E-05 12624   0.119E-02    0.113E-02
DAV:   8    -0.639893569440E+03    0.21197E-05   -0.89506E-06 11160   0.721E-03    0.438E-03
DAV:   9    -0.639893569368E+03    0.72701E-07   -0.22483E-06  8712   0.381E-03
  18 F= -.63989357E+03 E0= -.63989872E+03  d E =-.150212E-03
       N       E                     dE             d eps       ncg     rms          rms(c)
DAV:   1    -0.639893569373E+03    0.67055E-07   -0.36645E-05 10192   0.122E-02    0.227E-03
DAV:   2    -0.639893570373E+03   -0.99927E-06   -0.33685E-06  8936   0.477E-03
  19 F= -.63989357E+03 E0= -.63989872E+03  d E =-.151217E-03
       N       E                     dE             d eps       ncg     rms          rms(c)
DAV:   1    -0.639892942526E+03    0.62685E-03   -0.19311E-01 10472   0.869E-01    0.781E-02
DAV:   2    -0.639893635777E+03   -0.69325E-03   -0.69427E-03 10912   0.155E-01    0.552E-02
DAV:   3    -0.639893665100E+03   -0.29323E-04   -0.58336E-04 14904   0.537E-02    0.547E-02
DAV:   4    -0.639893621523E+03    0.43577E-04   -0.14558E-04 13760   0.272E-02    0.230E-02
DAV:   5    -0.639893632463E+03   -0.10940E-04   -0.85628E-05 13704   0.214E-02    0.271E-02
DAV:   6    -0.639893621769E+03    0.10694E-04   -0.49422E-05 13528   0.172E-02    0.108E-02
DAV:   7    -0.639893621022E+03    0.74694E-06   -0.12938E-05 11528   0.809E-03    0.627E-03
DAV:   8    -0.639893621244E+03   -0.22141E-06   -0.43453E-06  9696   0.509E-03
  20 F= -.63989362E+03 E0= -.63989880E+03  d E =-.508713E-04
       N       E                     dE             d eps       ncg     rms          rms(c)
DAV:   1    -0.639893595022E+03    0.26000E-04   -0.71626E-03 10480   0.168E-01    0.151E-02
DAV:   2    -0.639893620895E+03   -0.25873E-04   -0.25742E-04 10624   0.300E-02    0.104E-02
DAV:   3    -0.639893622522E+03   -0.16274E-05   -0.22150E-05 14144   0.106E-02    0.111E-02
DAV:   4    -0.639893620892E+03    0.16307E-05   -0.63968E-06  9880   0.582E-03    0.454E-03
DAV:   5    -0.639893621428E+03   -0.53644E-06   -0.32711E-06  9720   0.418E-03
  21 F= -.63989362E+03 E0= -.63989879E+03  d E =-.510555E-04
       N       E                     dE             d eps       ncg     rms          rms(c)
DAV:   1    -0.639893621571E+03   -0.67968E-06   -0.74114E-04 10464   0.539E-02    0.473E-03
DAV:   2    -0.639893624415E+03   -0.28432E-05   -0.27414E-05 11592   0.102E-02    0.424E-03
DAV:   3    -0.639893624301E+03    0.11371E-06   -0.22548E-06  8360   0.421E-03
  22 F= -.63989362E+03 E0= -.63989879E+03  d E =-.539282E-04
       N       E                     dE             d eps       ncg     rms          rms(c)
DAV:   1    -0.639893623756E+03    0.65821E-06   -0.17268E-04 10368   0.261E-02    0.240E-03
DAV:   2    -0.639893624676E+03   -0.91920E-06   -0.67039E-06 10104   0.512E-03
  23 F= -.63989362E+03 E0= -.63989879E+03  d E =-.543029E-04
       N       E                     dE             d eps       ncg     rms          rms(c)
DAV:   1    -0.639893392448E+03    0.23131E-03   -0.72469E-02 10400   0.534E-01    0.431E-02
DAV:   2    -0.639893649821E+03   -0.25737E-03   -0.26260E-03 10808   0.942E-02    0.306E-02
DAV:   3    -0.639893663219E+03   -0.13397E-04   -0.20204E-04 14944   0.301E-02    0.298E-02
DAV:   4    -0.639893649948E+03    0.13271E-04   -0.49414E-05 13152   0.158E-02    0.138E-02
DAV:   5    -0.639893653977E+03   -0.40283E-05   -0.27110E-05 12816   0.116E-02    0.164E-02
DAV:   6    -0.639893650277E+03    0.36993E-05   -0.16440E-05 11736   0.997E-03    0.561E-03
DAV:   7    -0.639893650272E+03    0.51659E-08   -0.45329E-06 10552   0.479E-03
  24 F= -.63989365E+03 E0= -.63989884E+03  d E =-.255966E-04
