ni3al                                   
           1
     9.498400    0.000000    0.000000
     0.000000    9.498400    0.000000
     0.000000    0.000000   24.502899
   Mo   Nb
    61     1
Direct configuration=     1
   0.00000000  0.00000000  0.00000000
   0.02146959  0.97827698  0.38379719
   0.16667000  0.16667000  0.06464000
   0.33333000  0.00000000  0.00000000
   0.31237945  0.01890559  0.38309280
   0.50000000  0.16667000  0.06464000
   0.66667000  0.00000000  0.00000000
   0.66740492  0.00100001  0.38066698
   0.83333000  0.16667000  0.06464000
   0.00000000  0.33333000  0.00000000
   0.16667000  0.50000000  0.06464000
   0.33333000  0.33333000  0.00000000
   0.34759230  0.31147687  0.38241656
   0.50000000  0.50000000  0.06464000
   0.66667000  0.33333000  0.00000000
   0.83333000  0.50000000  0.06464000
   0.00000000  0.66667000  0.00000000
   0.98099460  0.68756029  0.38310374
   0.16667000  0.83333000  0.06464000
   0.33333000  0.66667000  0.00000000
   0.50000000  0.83333000  0.06464000
   0.66667000  0.66667000  0.00000000
   0.68837987  0.65231544  0.38240942
   0.83333000  0.83333000  0.06464000
   0.00000000  0.00000000  0.12928000
   0.16667000  0.16667000  0.19391000
   0.33333000  0.00000000  0.12928000
   0.50000000  0.16667000  0.19391000
   0.66667000  0.00000000  0.12928000
   0.83333000  0.16667000  0.19391000
   0.00000000  0.33333000  0.12928000
   0.16667000  0.50000000  0.19391000
   0.33333000  0.33333000  0.12928000
   0.50000000  0.50000000  0.19391000
   0.66667000  0.33333000  0.12928000
   0.83333000  0.50000000  0.19391000
   0.00000000  0.66667000  0.12928000
   0.16667000  0.83333000  0.19391000
   0.33333000  0.66667000  0.12928000
   0.50000000  0.83333000  0.19391000
   0.66667000  0.66667000  0.12928000
   0.83333000  0.83333000  0.19391000
   0.00000000  0.00000000  0.25855000
   0.16267870  0.16918924  0.32345380
   0.33333000  0.00000000  0.25855000
   0.50215176  0.16437876  0.32356126
   0.66667000  0.00000000  0.25855000
   0.83283747  0.16718418  0.32505336
   0.00000000  0.33333000  0.25855000
   0.16534601  0.49970790  0.32446317
   0.33333000  0.33333000  0.25855000
   0.49772888  0.50224292  0.32293302
   0.66667000  0.33333000  0.25855000
   0.83559260  0.49783341  0.32356927
   0.00000000  0.66667000  0.25855000
   0.16893166  0.83104774  0.32257206
   0.33333000  0.66667000  0.25855000
   0.50029887  0.83465970  0.32446544
   0.66667000  0.66667000  0.25855000
   0.83077445  0.83728811  0.32344315
   0.99927294  0.33289663  0.38066438
   0.33308006  0.66706247  0.38493495
Direct configuration=     2
   0.00000000  0.00000000  0.00000000
   0.02077322  0.97900004  0.38396930
   0.16667000  0.16667000  0.06464000
   0.33333000  0.00000000  0.00000000
   0.31296778  0.01726289  0.38306061
   0.50000000  0.16667000  0.06464000
   0.66667000  0.00000000  0.00000000
   0.66685208  0.00115742  0.38036575
   0.83333000  0.16667000  0.06464000
   0.00000000  0.33333000  0.00000000
   0.16667000  0.50000000  0.06464000
   0.33333000  0.33333000  0.00000000
   0.34689005  0.31360524  0.38116076
   0.50000000  0.50000000  0.06464000
   0.66667000  0.33333000  0.00000000
   0.83333000  0.50000000  0.06464000
   0.00000000  0.66667000  0.00000000
   0.98263877  0.68697426  0.38306791
   0.16667000  0.83333000  0.06464000
   0.33333000  0.66667000  0.00000000
   0.50000000  0.83333000  0.06464000
   0.66667000  0.66667000  0.00000000
   0.68625317  0.65301139  0.38115210
   0.83333000  0.83333000  0.06464000
   0.00000000  0.00000000  0.12928000
   0.16667000  0.16667000  0.19391000
   0.33333000  0.00000000  0.12928000
   0.50000000  0.16667000  0.19391000
   0.66667000  0.00000000  0.12928000
   0.83333000  0.16667000  0.19391000
   0.00000000  0.33333000  0.12928000
   0.16667000  0.50000000  0.19391000
   0.33333000  0.33333000  0.12928000
   0.50000000  0.50000000  0.19391000
   0.66667000  0.33333000  0.12928000
   0.83333000  0.50000000  0.19391000
   0.00000000  0.66667000  0.12928000
   0.16667000  0.83333000  0.19391000
   0.33333000  0.66667000  0.12928000
   0.50000000  0.83333000  0.19391000
   0.66667000  0.66667000  0.12928000
   0.83333000  0.83333000  0.19391000
   0.00000000  0.00000000  0.25855000
   0.16331043  0.16956918  0.32348426
   0.33333000  0.00000000  0.25855000
   0.50265377  0.16519291  0.32409890
   0.66667000  0.00000000  0.25855000
   0.83322684  0.16678335  0.32476760
   0.00000000  0.33333000  0.25855000
   0.16527208  0.49879885  0.32464800
   0.33333000  0.33333000  0.25855000
   0.49967994  0.50030796  0.32439761
   0.66667000  0.33333000  0.25855000
   0.83478779  0.49735057  0.32409810
   0.00000000  0.66667000  0.25855000
   0.16896307  0.83101531  0.32236475
   0.33333000  0.66667000  0.25855000
   0.50121760  0.83474104  0.32465495
   0.66667000  0.66667000  0.25855000
   0.83039474  0.83667103  0.32347619
   0.99908931  0.33341631  0.38037142
   0.33299023  0.66714297  0.38462089
Direct configuration=     3
   0.00000000  0.00000000  0.00000000
   0.02007794  0.97972197  0.38414115
   0.16667000  0.16667000  0.06464000
   0.33333000  0.00000000  0.00000000
   0.31355518  0.01562277  0.38302848
   0.50000000  0.16667000  0.06464000
   0.66667000  0.00000000  0.00000000
   0.66630010  0.00131459  0.38006499
   0.83333000  0.16667000  0.06464000
   0.00000000  0.33333000  0.00000000
   0.16667000  0.50000000  0.06464000
   0.33333000  0.33333000  0.00000000
   0.34618889  0.31573027  0.37990692
   0.50000000  0.50000000  0.06464000
   0.66667000  0.33333000  0.00000000
   0.83333000  0.50000000  0.06464000
   0.00000000  0.66667000  0.00000000
   0.98428037  0.68638914  0.38303213
   0.16667000  0.83333000  0.06464000
   0.33333000  0.66667000  0.00000000
   0.50000000  0.83333000  0.06464000
   0.66667000  0.66667000  0.00000000
   0.68412979  0.65370626  0.37989675
   0.83333000  0.83333000  0.06464000
   0.00000000  0.00000000  0.12928000
   0.16667000  0.16667000  0.19391000
   0.33333000  0.00000000  0.12928000
   0.50000000  0.16667000  0.19391000
   0.66667000  0.00000000  0.12928000
   0.83333000  0.16667000  0.19391000
   0.00000000  0.33333000  0.12928000
   0.16667000  0.50000000  0.19391000
   0.33333000  0.33333000  0.12928000
   0.50000000  0.50000000  0.19391000
   0.66667000  0.33333000  0.12928000
   0.83333000  0.50000000  0.19391000
   0.00000000  0.66667000  0.12928000
   0.16667000  0.83333000  0.19391000
   0.33333000  0.66667000  0.12928000
   0.50000000  0.83333000  0.19391000
   0.66667000  0.66667000  0.12928000
   0.83333000  0.83333000  0.19391000
   0.00000000  0.00000000  0.25855000
   0.16394118  0.16994851  0.32351467
   0.33333000  0.00000000  0.25855000
   0.50315500  0.16600578  0.32463569
   0.66667000  0.00000000  0.25855000
   0.83361560  0.16638314  0.32448228
   0.00000000  0.33333000  0.25855000
   0.16519826  0.49789121  0.32483254
   0.33333000  0.33333000  0.25855000
   0.50162795  0.49837602  0.32585990
   0.66667000  0.33333000  0.25855000
   0.83398424  0.49686848  0.32462610
   0.00000000  0.66667000  0.25855000
   0.16899444  0.83098293  0.32215777
   0.33333000  0.66667000  0.25855000
   0.50213489  0.83482226  0.32484418
   0.66667000  0.66667000  0.25855000
   0.83001562  0.83605493  0.32350918
   0.99890596  0.33393517  0.38007893
   0.33290054  0.66722335  0.38430733
Direct configuration=     4
   0.00000000  0.00000000  0.00000000
   0.01986525  0.97996896  0.38389777
   0.16667000  0.16667000  0.06464000
   0.33333000  0.00000000  0.00000000
   0.31375616  0.01291698  0.38270503
   0.50000000  0.16667000  0.06464000
   0.66667000  0.00000000  0.00000000
   0.66630650  0.00193488  0.38011837
   0.83333000  0.16667000  0.06464000
   0.00000000  0.33333000  0.00000000
   0.16667000  0.50000000  0.06464000
   0.33333000  0.33333000  0.00000000
   0.34535901  0.31935386  0.37968296
   0.50000000  0.50000000  0.06464000
   0.66667000  0.33333000  0.00000000
   0.83333000  0.50000000  0.06464000
   0.00000000  0.66667000  0.00000000
   0.98698786  0.68619529  0.38270435
   0.16667000  0.83333000  0.06464000
   0.33333000  0.66667000  0.00000000
   0.50000000  0.83333000  0.06464000
   0.66667000  0.66667000  0.00000000
   0.68051672  0.65452950  0.37967313
   0.83333000  0.83333000  0.06464000
   0.00000000  0.00000000  0.12928000
   0.16667000  0.16667000  0.19391000
   0.33333000  0.00000000  0.12928000
   0.50000000  0.16667000  0.19391000
   0.66667000  0.00000000  0.12928000
   0.83333000  0.16667000  0.19391000
   0.00000000  0.33333000  0.12928000
   0.16667000  0.50000000  0.19391000
   0.33333000  0.33333000  0.12928000
   0.50000000  0.50000000  0.19391000
   0.66667000  0.33333000  0.12928000
   0.83333000  0.50000000  0.19391000
   0.00000000  0.66667000  0.12928000
   0.16667000  0.83333000  0.19391000
   0.33333000  0.66667000  0.12928000
   0.50000000  0.83333000  0.19391000
   0.66667000  0.66667000  0.12928000
   0.83333000  0.83333000  0.19391000
   0.00000000  0.00000000  0.25855000
   0.16448004  0.16867217  0.32344615
   0.33333000  0.00000000  0.25855000
   0.50351882  0.16557864  0.32447893
   0.66667000  0.00000000  0.25855000
   0.83392071  0.16608797  0.32424489
   0.00000000  0.33333000  0.25855000
   0.16538794  0.49805511  0.32456796
   0.33333000  0.33333000  0.25855000
   0.50233011  0.49767564  0.32617342
   0.66667000  0.33333000  0.25855000
   0.83442531  0.49650112  0.32446952
   0.00000000  0.66667000  0.25855000
   0.16853525  0.83144870  0.32215215
   0.33333000  0.66667000  0.25855000
   0.50196655  0.83463897  0.32457789
   0.66667000  0.66667000  0.25855000
   0.83130188  0.83551737  0.32344101
   0.99825194  0.33388600  0.38012658
   0.33257831  0.66753670  0.38445436
Direct configuration=     5
   0.00000000  0.00000000  0.00000000
   0.01961516  0.98025938  0.38361160
   0.16667000  0.16667000  0.06464000
   0.33333000  0.00000000  0.00000000
   0.31399248  0.00973534  0.38232469
   0.50000000  0.16667000  0.06464000
   0.66667000  0.00000000  0.00000000
   0.66631402  0.00266426  0.38018114
   0.83333000  0.16667000  0.06464000
   0.00000000  0.33333000  0.00000000
   0.16667000  0.50000000  0.06464000
   0.33333000  0.33333000  0.00000000
   0.34438319  0.32361470  0.37941962
   0.50000000  0.50000000  0.06464000
   0.66667000  0.33333000  0.00000000
   0.83333000  0.50000000  0.06464000
   0.00000000  0.66667000  0.00000000
   0.99017150  0.68596735  0.38231892
   0.16667000  0.83333000  0.06464000
   0.33333000  0.66667000  0.00000000
   0.50000000  0.83333000  0.06464000
   0.66667000  0.66667000  0.00000000
   0.67626824  0.65549753  0.37941017
   0.83333000  0.83333000  0.06464000
   0.00000000  0.00000000  0.12928000
   0.16667000  0.16667000  0.19391000
   0.33333000  0.00000000  0.12928000
   0.50000000  0.16667000  0.19391000
   0.66667000  0.00000000  0.12928000
   0.83333000  0.16667000  0.19391000
   0.00000000  0.33333000  0.12928000
   0.16667000  0.50000000  0.19391000
   0.33333000  0.33333000  0.12928000
   0.50000000  0.50000000  0.19391000
   0.66667000  0.33333000  0.12928000
   0.83333000  0.50000000  0.19391000
   0.00000000  0.66667000  0.12928000
   0.16667000  0.83333000  0.19391000
   0.33333000  0.66667000  0.12928000
   0.50000000  0.83333000  0.19391000
   0.66667000  0.66667000  0.12928000
   0.83333000  0.83333000  0.19391000
   0.00000000  0.00000000  0.25855000
   0.16511366  0.16717137  0.32336558
   0.33333000  0.00000000  0.25855000
   0.50394663  0.16507638  0.32429460
   0.66667000  0.00000000  0.25855000
   0.83427947  0.16574088  0.32396576
   0.00000000  0.33333000  0.25855000
   0.16561097  0.49824783  0.32425685
   0.33333000  0.33333000  0.25855000
   0.50315577  0.49685209  0.32654207
   0.66667000  0.33333000  0.25855000
   0.83494395  0.49606916  0.32428540
   0.00000000  0.66667000  0.25855000
   0.16799531  0.83199639  0.32214554
   0.33333000  0.66667000  0.25855000
   0.50176860  0.83442344  0.32426478
   0.66667000  0.66667000  0.25855000
   0.83281434  0.83488528  0.32336085
   0.99748290  0.33382819  0.38018262
   0.33219941  0.66790517  0.38462725
Direct configuration=     6
   0.00000000  0.00000000  0.00000000
   0.01902456  0.98089039  0.38354764
   0.16667000  0.16667000  0.06464000
   0.33333000  0.00000000  0.00000000
   0.31467109  0.00668548  0.38202886
   0.50000000  0.16667000  0.06464000
   0.66667000  0.00000000  0.00000000
   0.66722158  0.00353780  0.37982225
   0.83333000  0.16667000  0.06464000
   0.00000000  0.33333000  0.00000000
   0.16667000  0.50000000  0.06464000
   0.33333000  0.33333000  0.00000000
   0.34355215  0.32621680  0.37941403
   0.50000000  0.50000000  0.06464000
   0.66667000  0.33333000  0.00000000
   0.83333000  0.50000000  0.06464000
   0.00000000  0.66667000  0.00000000
   0.99323043  0.68529395  0.38202147
   0.16667000  0.83333000  0.06464000
   0.33333000  0.66667000  0.00000000
   0.50000000  0.83333000  0.06464000
   0.66667000  0.66667000  0.00000000
   0.67369160  0.65633422  0.37940818
   0.83333000  0.83333000  0.06464000
   0.00000000  0.00000000  0.12928000
   0.16667000  0.16667000  0.19391000
   0.33333000  0.00000000  0.12928000
   0.50000000  0.16667000  0.19391000
   0.66667000  0.00000000  0.12928000
   0.83333000  0.16667000  0.19391000
   0.00000000  0.33333000  0.12928000
   0.16667000  0.50000000  0.19391000
   0.33333000  0.33333000  0.12928000
   0.50000000  0.50000000  0.19391000
   0.66667000  0.33333000  0.12928000
   0.83333000  0.50000000  0.19391000
   0.00000000  0.66667000  0.12928000
   0.16667000  0.83333000  0.19391000
   0.33333000  0.66667000  0.12928000
   0.50000000  0.83333000  0.19391000
   0.66667000  0.66667000  0.12928000
   0.83333000  0.83333000  0.19391000
   0.00000000  0.00000000  0.25855000
   0.16572616  0.16742184  0.32361158
   0.33333000  0.00000000  0.25855000
   0.50272366  0.16512658  0.32439601
   0.66667000  0.00000000  0.25855000
   0.83400587  0.16601224  0.32426978
   0.00000000  0.33333000  0.25855000
   0.16649908  0.49848772  0.32410250
   0.33333000  0.33333000  0.25855000
   0.50225187  0.49774433  0.32554858
   0.66667000  0.33333000  0.25855000
   0.83488781  0.49728003  0.32439103
   0.00000000  0.66667000  0.25855000
   0.16854778  0.83144823  0.32170712
   0.33333000  0.66667000  0.25855000
   0.50152433  0.83353350  0.32410594
   0.66667000  0.66667000  0.25855000
   0.83256030  0.83427995  0.32360742
   0.99657010  0.33287460  0.37982102
   0.33163060  0.66847190  0.38512631
Direct configuration=     7
   0.00000000  0.00000000  0.00000000
   0.01845953  0.98149408  0.38348646
   0.16667000  0.16667000  0.06464000
   0.33333000  0.00000000  0.00000000
   0.31532033  0.00376763  0.38174584
   0.50000000  0.16667000  0.06464000
   0.66667000  0.00000000  0.00000000
   0.66808986  0.00437353  0.37947890
   0.83333000  0.16667000  0.06464000
   0.00000000  0.33333000  0.00000000
   0.16667000  0.50000000  0.06464000
   0.33333000  0.33333000  0.00000000
   0.34275708  0.32870625  0.37940868
   0.50000000  0.50000000  0.06464000
   0.66667000  0.33333000  0.00000000
   0.83333000  0.50000000  0.06464000
   0.00000000  0.66667000  0.00000000
   0.99615696  0.68464970  0.38173690
   0.16667000  0.83333000  0.06464000
   0.33333000  0.66667000  0.00000000
   0.50000000  0.83333000  0.06464000
   0.66667000  0.66667000  0.00000000
   0.67122649  0.65713471  0.37940627
   0.83333000  0.83333000  0.06464000
   0.00000000  0.00000000  0.12928000
   0.16667000  0.16667000  0.19391000
   0.33333000  0.00000000  0.12928000
   0.50000000  0.16667000  0.19391000
   0.66667000  0.00000000  0.12928000
   0.83333000  0.16667000  0.19391000
   0.00000000  0.33333000  0.12928000
   0.16667000  0.50000000  0.19391000
   0.33333000  0.33333000  0.12928000
   0.50000000  0.50000000  0.19391000
   0.66667000  0.33333000  0.12928000
   0.83333000  0.50000000  0.19391000
   0.00000000  0.66667000  0.12928000
   0.16667000  0.83333000  0.19391000
   0.33333000  0.66667000  0.12928000
   0.50000000  0.83333000  0.19391000
   0.66667000  0.66667000  0.12928000
   0.83333000  0.83333000  0.19391000
   0.00000000  0.00000000  0.25855000
   0.16631214  0.16766147  0.32384692
   0.33333000  0.00000000  0.25855000
   0.50155362  0.16517461  0.32449303
   0.66667000  0.00000000  0.25855000
   0.83374412  0.16627185  0.32456065
   0.00000000  0.33333000  0.25855000
   0.16734874  0.49871723  0.32395483
   0.33333000  0.33333000  0.25855000
   0.50138710  0.49859795  0.32459810
   0.66667000  0.33333000  0.25855000
   0.83483410  0.49843849  0.32449209
   0.00000000  0.66667000  0.25855000
   0.16907633  0.83092381  0.32128768
   0.33333000  0.66667000  0.25855000
   0.50129062  0.83268208  0.32395398
   0.66667000  0.66667000  0.25855000
   0.83231726  0.83370083  0.32384332
   0.99569680  0.33196229  0.37947507
   0.33108641  0.66901411  0.38560377
Direct configuration=     8
   0.00000000  0.00000000  0.00000000
   0.01837339  0.98159875  0.38321360
   0.16667000  0.16667000  0.06464000
   0.33333000  0.00000000  0.00000000
   0.31592188  0.00197694  0.38178806
   0.50000000  0.16667000  0.06464000
   0.66667000  0.00000000  0.00000000
   0.66866004  0.00470035  0.37958868
   0.83333000  0.16667000  0.06464000
   0.00000000  0.33333000  0.00000000
   0.16667000  0.50000000  0.06464000
   0.33333000  0.33333000  0.00000000
   0.34229979  0.32941339  0.37923753
   0.50000000  0.50000000  0.06464000
   0.66667000  0.33333000  0.00000000
   0.83333000  0.50000000  0.06464000
   0.00000000  0.66667000  0.00000000
   0.99795645  0.68405319  0.38177993
   0.16667000  0.83333000  0.06464000
   0.33333000  0.66667000  0.00000000
   0.50000000  0.83333000  0.06464000
   0.66667000  0.66667000  0.00000000
   0.67053664  0.65760374  0.37923384
   0.83333000  0.83333000  0.06464000
   0.00000000  0.00000000  0.12928000
   0.16667000  0.16667000  0.19391000
   0.33333000  0.00000000  0.12928000
   0.50000000  0.16667000  0.19391000
   0.66667000  0.00000000  0.12928000
   0.83333000  0.16667000  0.19391000
   0.00000000  0.33333000  0.12928000
   0.16667000  0.50000000  0.19391000
   0.33333000  0.33333000  0.12928000
   0.50000000  0.50000000  0.19391000
   0.66667000  0.33333000  0.12928000
   0.83333000  0.50000000  0.19391000
   0.00000000  0.66667000  0.12928000
   0.16667000  0.83333000  0.19391000
   0.33333000  0.66667000  0.12928000
   0.50000000  0.83333000  0.19391000
   0.66667000  0.66667000  0.12928000
   0.83333000  0.83333000  0.19391000
   0.00000000  0.00000000  0.25855000
   0.16571262  0.16795496  0.32401680
   0.33333000  0.00000000  0.25855000
   0.50086118  0.16599627  0.32464359
   0.66667000  0.00000000  0.25855000
   0.83353116  0.16647166  0.32438275
   0.00000000  0.33333000  0.25855000
   0.16700914  0.49844492  0.32419743
   0.33333000  0.33333000  0.25855000
   0.50120746  0.49878763  0.32436048
   0.66667000  0.33333000  0.25855000
   0.83399861  0.49913861  0.32464367
   0.00000000  0.66667000  0.25855000
   0.16833737  0.83165349  0.32151843
   0.33333000  0.66667000  0.25855000
   0.50156541  0.83299960  0.32419662
   0.66667000  0.66667000  0.25855000
   0.83202799  0.83429232  0.32401750
   0.99534801  0.33136644  0.37959007
   0.33023991  0.66985907  0.38579348
Direct configuration=     9
   0.00000000  0.00000000  0.00000000
   0.01835480  0.98162134  0.38315471
   0.16667000  0.16667000  0.06464000
   0.33333000  0.00000000  0.00000000
   0.31605171  0.00159046  0.38179717
   0.50000000  0.16667000  0.06464000
   0.66667000  0.00000000  0.00000000
   0.66878310  0.00477089  0.37961238
   0.83333000  0.16667000  0.06464000
   0.00000000  0.33333000  0.00000000
   0.16667000  0.50000000  0.06464000
   0.33333000  0.33333000  0.00000000
   0.34220109  0.32956601  0.37920059
   0.50000000  0.50000000  0.06464000
   0.66667000  0.33333000  0.00000000
   0.83333000  0.50000000  0.06464000
   0.00000000  0.66667000  0.00000000
   0.99834482  0.68392445  0.38178922
   0.16667000  0.83333000  0.06464000
   0.33333000  0.66667000  0.00000000
   0.50000000  0.83333000  0.06464000
   0.66667000  0.66667000  0.00000000
   0.67038775  0.65770497  0.37919662
   0.83333000  0.83333000  0.06464000
   0.00000000  0.00000000  0.12928000
   0.16667000  0.16667000  0.19391000
   0.33333000  0.00000000  0.12928000
   0.50000000  0.16667000  0.19391000
   0.66667000  0.00000000  0.12928000
   0.83333000  0.16667000  0.19391000
   0.00000000  0.33333000  0.12928000
   0.16667000  0.50000000  0.19391000
   0.33333000  0.33333000  0.12928000
   0.50000000  0.50000000  0.19391000
   0.66667000  0.33333000  0.12928000
   0.83333000  0.50000000  0.19391000
   0.00000000  0.66667000  0.12928000
   0.16667000  0.83333000  0.19391000
   0.33333000  0.66667000  0.12928000
   0.50000000  0.83333000  0.19391000
   0.66667000  0.66667000  0.12928000
   0.83333000  0.83333000  0.19391000
   0.00000000  0.00000000  0.25855000
   0.16558323  0.16801830  0.32405346
   0.33333000  0.00000000  0.25855000
   0.50071173  0.16617361  0.32467609
   0.66667000  0.00000000  0.25855000
   0.83348519  0.16651478  0.32434436
   0.00000000  0.33333000  0.25855000
   0.16693584  0.49838615  0.32424979
   0.33333000  0.33333000  0.25855000
   0.50116869  0.49882857  0.32430919
   0.66667000  0.33333000  0.25855000
   0.83381829  0.49928972  0.32467638
   0.00000000  0.66667000  0.25855000
   0.16817788  0.83181097  0.32156824
   0.33333000  0.66667000  0.25855000
   0.50162471  0.83306814  0.32424899
   0.66667000  0.66667000  0.25855000
   0.83196556  0.83441997  0.32405509
   0.99527273  0.33123784  0.37961489
   0.33005721  0.67004143  0.38583442
Direct configuration=    10
   0.00000000  0.00000000  0.00000000
   0.01775176  0.98223984  0.38332988
   0.16667000  0.16667000  0.06464000
   0.33333000  0.00000000  0.00000000
   0.31673351  0.00066098  0.38192509
   0.50000000  0.16667000  0.06464000
   0.66667000  0.00000000  0.00000000
   0.66904642  0.00528764  0.37978620
   0.83333000  0.16667000  0.06464000
   0.00000000  0.33333000  0.00000000
   0.16667000  0.50000000  0.06464000
   0.33333000  0.33333000  0.00000000
   0.34194408  0.32984099  0.37925192
   0.50000000  0.50000000  0.06464000
   0.66667000  0.33333000  0.00000000
   0.83333000  0.50000000  0.06464000
   0.00000000  0.66667000  0.00000000
   0.99928240  0.68323992  0.38192134
   0.16667000  0.83333000  0.06464000
   0.33333000  0.66667000  0.00000000
   0.50000000  0.83333000  0.06464000
   0.66667000  0.66667000  0.00000000
   0.67012516  0.65797855  0.37925278
   0.83333000  0.83333000  0.06464000
   0.00000000  0.00000000  0.12928000
   0.16667000  0.16667000  0.19391000
   0.33333000  0.00000000  0.12928000
   0.50000000  0.16667000  0.19391000
   0.66667000  0.00000000  0.12928000
   0.83333000  0.16667000  0.19391000
   0.00000000  0.33333000  0.12928000
   0.16667000  0.50000000  0.19391000
   0.33333000  0.33333000  0.12928000
   0.50000000  0.50000000  0.19391000
   0.66667000  0.33333000  0.12928000
   0.83333000  0.50000000  0.19391000
   0.00000000  0.66667000  0.12928000
   0.16667000  0.83333000  0.19391000
   0.33333000  0.66667000  0.12928000
   0.50000000  0.83333000  0.19391000
   0.66667000  0.66667000  0.12928000
   0.83333000  0.83333000  0.19391000
   0.00000000  0.00000000  0.25855000
   0.16524211  0.16787447  0.32408151
   0.33333000  0.00000000  0.25855000
   0.50068387  0.16641619  0.32468880
   0.66667000  0.00000000  0.25855000
   0.83319275  0.16680511  0.32418241
   0.00000000  0.33333000  0.25855000
   0.16613177  0.49853390  0.32436409
   0.33333000  0.33333000  0.25855000
   0.50106249  0.49893115  0.32446799
   0.66667000  0.33333000  0.25855000
   0.83357676  0.49931355  0.32468888
   0.00000000  0.66667000  0.25855000
   0.16822045  0.83176985  0.32136211
   0.33333000  0.66667000  0.25855000
   0.50147096  0.83386483  0.32436111
   0.66667000  0.66667000  0.25855000
   0.83211844  0.83475555  0.32408148
   0.99474144  0.33095687  0.37978787
   0.32908779  0.67100303  0.38596545
Direct configuration=    11
   0.00000000  0.00000000  0.00000000
   0.01756585  0.98243051  0.38338388
   0.16667000  0.16667000  0.06464000
   0.33333000  0.00000000  0.00000000
   0.31694369  0.00037444  0.38196453
   0.50000000  0.16667000  0.06464000
   0.66667000  0.00000000  0.00000000
   0.66912759  0.00544695  0.37983978
   0.83333000  0.16667000  0.06464000
   0.00000000  0.33333000  0.00000000
   0.16667000  0.50000000  0.06464000
   0.33333000  0.33333000  0.00000000
   0.34186484  0.32992576  0.37926775
   0.50000000  0.50000000  0.06464000
   0.66667000  0.33333000  0.00000000
   0.83333000  0.50000000  0.06464000
   0.00000000  0.66667000  0.00000000
   0.99957144  0.68302889  0.38196207
   0.16667000  0.83333000  0.06464000
   0.33333000  0.66667000  0.00000000
   0.50000000  0.83333000  0.06464000
   0.66667000  0.66667000  0.00000000
   0.67004421  0.65806289  0.37927009
   0.83333000  0.83333000  0.06464000
   0.00000000  0.00000000  0.12928000
   0.16667000  0.16667000  0.19391000
   0.33333000  0.00000000  0.12928000
   0.50000000  0.16667000  0.19391000
   0.66667000  0.00000000  0.12928000
   0.83333000  0.16667000  0.19391000
   0.00000000  0.33333000  0.12928000
   0.16667000  0.50000000  0.19391000
   0.33333000  0.33333000  0.12928000
   0.50000000  0.50000000  0.19391000
   0.66667000  0.33333000  0.12928000
   0.83333000  0.50000000  0.19391000
   0.00000000  0.66667000  0.12928000
   0.16667000  0.83333000  0.19391000
   0.33333000  0.66667000  0.12928000
   0.50000000  0.83333000  0.19391000
   0.66667000  0.66667000  0.12928000
   0.83333000  0.83333000  0.19391000
   0.00000000  0.00000000  0.25855000
   0.16513695  0.16783013  0.32409015
   0.33333000  0.00000000  0.25855000
   0.50067528  0.16649097  0.32469272
   0.66667000  0.00000000  0.25855000
   0.83310259  0.16689461  0.32413249
   0.00000000  0.33333000  0.25855000
   0.16588389  0.49857945  0.32439932
   0.33333000  0.33333000  0.25855000
   0.50102975  0.49896277  0.32451695
   0.66667000  0.33333000  0.25855000
   0.83350230  0.49932090  0.32469273
   0.00000000  0.66667000  0.25855000
   0.16823357  0.83175717  0.32129856
   0.33333000  0.66667000  0.25855000
   0.50142357  0.83411044  0.32439568
   0.66667000  0.66667000  0.25855000
   0.83216558  0.83485900  0.32408961
   0.99457766  0.33087026  0.37984120
   0.32878893  0.67129947  0.38600584
Direct configuration=    12
   0.00000000  0.00000000  0.00000000
   0.01717535  0.98283277  0.38344083
   0.16667000  0.16667000  0.06464000
   0.33333000  0.00000000  0.00000000
   0.31731625 -0.00016945  0.38192940
   0.50000000  0.16667000  0.06464000
   0.66667000  0.00000000  0.00000000
   0.66920016  0.00610921  0.37980530
   0.83333000  0.16667000  0.06464000
   0.00000000  0.33333000  0.00000000
   0.16667000  0.50000000  0.06464000
   0.33333000  0.33333000  0.00000000
   0.34160721  0.32997237  0.37933112
   0.50000000  0.50000000  0.06464000
   0.66667000  0.33333000  0.00000000
   0.83333000  0.50000000  0.06464000
   0.00000000  0.66667000  0.00000000
   0.00012278  0.68265466  0.38192796
   0.16667000  0.83333000  0.06464000
   0.33333000  0.66667000  0.00000000
   0.50000000  0.83333000  0.06464000
   0.66667000  0.66667000  0.00000000
   0.67000929  0.65833797  0.37933327
   0.83333000  0.83333000  0.06464000
   0.00000000  0.00000000  0.12928000
   0.16667000  0.16667000  0.19391000
   0.33333000  0.00000000  0.12928000
   0.50000000  0.16667000  0.19391000
   0.66667000  0.00000000  0.12928000
   0.83333000  0.16667000  0.19391000
   0.00000000  0.33333000  0.12928000
   0.16667000  0.50000000  0.19391000
   0.33333000  0.33333000  0.12928000
   0.50000000  0.50000000  0.19391000
   0.66667000  0.33333000  0.12928000
   0.83333000  0.50000000  0.19391000
   0.00000000  0.66667000  0.12928000
   0.16667000  0.83333000  0.19391000
   0.33333000  0.66667000  0.12928000
   0.50000000  0.83333000  0.19391000
   0.66667000  0.66667000  0.12928000
   0.83333000  0.83333000  0.19391000
   0.00000000  0.00000000  0.25855000
   0.16530984  0.16751850  0.32421860
   0.33333000  0.00000000  0.25855000
   0.50076504  0.16645955  0.32475413
   0.66667000  0.00000000  0.25855000
   0.83300067  0.16699459  0.32425584
   0.00000000  0.33333000  0.25855000
   0.16566325  0.49859384  0.32440127
   0.33333000  0.33333000  0.25855000
   0.50065959  0.49933289  0.32471423
   0.66667000  0.33333000  0.25855000
   0.83353581  0.49922925  0.32475594
   0.00000000  0.66667000  0.25855000
   0.16794587  0.83204509  0.32140802
   0.33333000  0.66667000  0.25855000
   0.50141114  0.83433424  0.32439711
   0.66667000  0.66667000  0.25855000
   0.83247898  0.83468272  0.32421969
   0.99390191  0.33078865  0.37980645
   0.32766103  0.67241644  0.38609726
Direct configuration=    13
   0.00000000  0.00000000  0.00000000
   0.01705052  0.98296136  0.38345904
   0.16667000  0.16667000  0.06464000
   0.33333000  0.00000000  0.00000000
   0.31743535 -0.00034331  0.38191817
   0.50000000  0.16667000  0.06464000
   0.66667000  0.00000000  0.00000000
   0.66922335  0.00632092  0.37979427
   0.83333000  0.16667000  0.06464000
   0.00000000  0.33333000  0.00000000
   0.16667000  0.50000000  0.06464000
   0.33333000  0.33333000  0.00000000
   0.34152485  0.32998727  0.37935138
   0.50000000  0.50000000  0.06464000
   0.66667000  0.33333000  0.00000000
   0.83333000  0.50000000  0.06464000
   0.00000000  0.66667000  0.00000000
   0.00029903  0.68253503  0.38191706
   0.16667000  0.83333000  0.06464000
   0.33333000  0.66667000  0.00000000
   0.50000000  0.83333000  0.06464000
   0.66667000  0.66667000  0.00000000
   0.66999813  0.65842591  0.37935346
   0.83333000  0.83333000  0.06464000
   0.00000000  0.00000000  0.12928000
   0.16667000  0.16667000  0.19391000
   0.33333000  0.00000000  0.12928000
   0.50000000  0.16667000  0.19391000
   0.66667000  0.00000000  0.12928000
   0.83333000  0.16667000  0.19391000
   0.00000000  0.33333000  0.12928000
   0.16667000  0.50000000  0.19391000
   0.33333000  0.33333000  0.12928000
   0.50000000  0.50000000  0.19391000
   0.66667000  0.33333000  0.12928000
   0.83333000  0.50000000  0.19391000
   0.00000000  0.66667000  0.12928000
   0.16667000  0.83333000  0.19391000
   0.33333000  0.66667000  0.12928000
   0.50000000  0.83333000  0.19391000
   0.66667000  0.66667000  0.12928000
   0.83333000  0.83333000  0.19391000
   0.00000000  0.00000000  0.25855000
   0.16536511  0.16741888  0.32425966
   0.33333000  0.00000000  0.25855000
   0.50079373  0.16644950  0.32477376
   0.66667000  0.00000000  0.25855000
   0.83296809  0.16702655  0.32429527
   0.00000000  0.33333000  0.25855000
   0.16559272  0.49859844  0.32440189
   0.33333000  0.33333000  0.25855000
   0.50054126  0.49945121  0.32477729
   0.66667000  0.33333000  0.25855000
   0.83354653  0.49919996  0.32477614
   0.00000000  0.66667000  0.25855000
   0.16785390  0.83213713  0.32144301
   0.33333000  0.66667000  0.25855000
   0.50140717  0.83440577  0.32439757
   0.66667000  0.66667000  0.25855000
   0.83257917  0.83462637  0.32426127
   0.99368590  0.33076256  0.37979534
   0.32730048  0.67277350  0.38612649
Direct configuration=    14
   0.00000000  0.00000000  0.00000000
   0.01678243  0.98323564  0.38346304
   0.16667000  0.16667000  0.06464000
   0.33333000  0.00000000  0.00000000
   0.31777265 -0.00056211  0.38194533
   0.50000000  0.16667000  0.06464000
   0.66667000  0.00000000  0.00000000
   0.66905028  0.00672761  0.37980727
   0.83333000  0.16667000  0.06464000
   0.00000000  0.33333000  0.00000000
   0.16667000  0.50000000  0.06464000
   0.33333000  0.33333000  0.00000000
   0.34139489  0.33003811  0.37936115
   0.50000000  0.50000000  0.06464000
   0.66667000  0.33333000  0.00000000
   0.83333000  0.50000000  0.06464000
   0.00000000  0.66667000  0.00000000
   0.00052484  0.68219708  0.38194300
   0.16667000  0.83333000  0.06464000
   0.33333000  0.66667000  0.00000000
   0.50000000  0.83333000  0.06464000
   0.66667000  0.66667000  0.00000000
   0.66995222  0.65856856  0.37936119
   0.83333000  0.83333000  0.06464000
   0.00000000  0.00000000  0.12928000
   0.16667000  0.16667000  0.19391000
   0.33333000  0.00000000  0.12928000
   0.50000000  0.16667000  0.19391000
   0.66667000  0.00000000  0.12928000
   0.83333000  0.16667000  0.19391000
   0.00000000  0.33333000  0.12928000
   0.16667000  0.50000000  0.19391000
   0.33333000  0.33333000  0.12928000
   0.50000000  0.50000000  0.19391000
   0.66667000  0.33333000  0.12928000
   0.83333000  0.50000000  0.19391000
   0.00000000  0.66667000  0.12928000
   0.16667000  0.83333000  0.19391000
   0.33333000  0.66667000  0.12928000
   0.50000000  0.83333000  0.19391000
   0.66667000  0.66667000  0.12928000
   0.83333000  0.83333000  0.19391000
   0.00000000  0.00000000  0.25855000
   0.16548874  0.16763608  0.32423592
   0.33333000  0.00000000  0.25855000
   0.50081016  0.16669629  0.32477579
   0.66667000  0.00000000  0.25855000
   0.83309946  0.16689443  0.32431952
   0.00000000  0.33333000  0.25855000
   0.16598600  0.49845986  0.32432000
   0.33333000  0.33333000  0.25855000
   0.50037716  0.49962067  0.32475886
   0.66667000  0.33333000  0.25855000
   0.83330228  0.49918481  0.32477849
   0.00000000  0.66667000  0.25855000
   0.16764989  0.83234190  0.32140690
   0.33333000  0.66667000  0.25855000
   0.50154669  0.83401606  0.32431692
   0.66667000  0.66667000  0.25855000
   0.83236212  0.83450527  0.32423891
   0.99327250  0.33093357  0.37980878
   0.32651356  0.67354723  0.38622694
Direct configuration=    15
   0.00000000  0.00000000  0.00000000
   0.01677442  0.98324383  0.38346316
   0.16667000  0.16667000  0.06464000
   0.33333000  0.00000000  0.00000000
   0.31778272 -0.00056865  0.38194614
   0.50000000  0.16667000  0.06464000
   0.66667000  0.00000000  0.00000000
   0.66904511  0.00673976  0.37980766
   0.83333000  0.16667000  0.06464000
   0.00000000  0.33333000  0.00000000
   0.16667000  0.50000000  0.06464000
   0.33333000  0.33333000  0.00000000
   0.34139101  0.33003963  0.37936145
   0.50000000  0.50000000  0.06464000
   0.66667000  0.33333000  0.00000000
   0.83333000  0.50000000  0.06464000
   0.00000000  0.66667000  0.00000000
   0.00053159  0.68218699  0.38194377
   0.16667000  0.83333000  0.06464000
   0.33333000  0.66667000  0.00000000
   0.50000000  0.83333000  0.06464000
   0.66667000  0.66667000  0.00000000
   0.66995085  0.65857282  0.37936142
   0.83333000  0.83333000  0.06464000
   0.00000000  0.00000000  0.12928000
   0.16667000  0.16667000  0.19391000
   0.33333000  0.00000000  0.12928000
   0.50000000  0.16667000  0.19391000
   0.66667000  0.00000000  0.12928000
   0.83333000  0.16667000  0.19391000
   0.00000000  0.33333000  0.12928000
   0.16667000  0.50000000  0.19391000
   0.33333000  0.33333000  0.12928000
   0.50000000  0.50000000  0.19391000
   0.66667000  0.33333000  0.12928000
   0.83333000  0.50000000  0.19391000
   0.00000000  0.66667000  0.12928000
   0.16667000  0.83333000  0.19391000
   0.33333000  0.66667000  0.12928000
   0.50000000  0.83333000  0.19391000
   0.66667000  0.66667000  0.12928000
   0.83333000  0.83333000  0.19391000
   0.00000000  0.00000000  0.25855000
   0.16549243  0.16764257  0.32423521
   0.33333000  0.00000000  0.25855000
   0.50081065  0.16670366  0.32477585
   0.66667000  0.00000000  0.25855000
   0.83310338  0.16689049  0.32432025
   0.00000000  0.33333000  0.25855000
   0.16599774  0.49845573  0.32431756
   0.33333000  0.33333000  0.25855000
   0.50037226  0.49962573  0.32475830
   0.66667000  0.33333000  0.25855000
   0.83329499  0.49918435  0.32477857
   0.00000000  0.66667000  0.25855000
   0.16764380  0.83234802  0.32140582
   0.33333000  0.66667000  0.25855000
   0.50155085  0.83400442  0.32431451
   0.66667000  0.66667000  0.25855000
   0.83235564  0.83450165  0.32423824
   0.99326016  0.33093868  0.37980918
   0.32649006  0.67357033  0.38622994
Direct configuration=    16
   0.00000000  0.00000000  0.00000000
   0.01670434  0.98331735  0.38340058
   0.16667000  0.16667000  0.06464000
   0.33333000  0.00000000  0.00000000
   0.31797427 -0.00065841  0.38189735
   0.50000000  0.16667000  0.06464000
   0.66667000  0.00000000  0.00000000
   0.66880709  0.00680001  0.37979273
   0.83333000  0.16667000  0.06464000
   0.00000000  0.33333000  0.00000000
   0.16667000  0.50000000  0.06464000
   0.33333000  0.33333000  0.00000000
   0.34140168  0.33020686  0.37935610
   0.50000000  0.50000000  0.06464000
   0.66667000  0.33333000  0.00000000
   0.83333000  0.50000000  0.06464000
   0.00000000  0.66667000  0.00000000
   0.00062958  0.68199549  0.38189413
   0.16667000  0.83333000  0.06464000
   0.33333000  0.66667000  0.00000000
   0.50000000  0.83333000  0.06464000
   0.66667000  0.66667000  0.00000000
   0.66978375  0.65856913  0.37935669
   0.83333000  0.83333000  0.06464000
   0.00000000  0.00000000  0.12928000
   0.16667000  0.16667000  0.19391000
   0.33333000  0.00000000  0.12928000
   0.50000000  0.16667000  0.19391000
   0.66667000  0.00000000  0.12928000
   0.83333000  0.16667000  0.19391000
   0.00000000  0.33333000  0.12928000
   0.16667000  0.50000000  0.19391000
   0.33333000  0.33333000  0.12928000
   0.50000000  0.50000000  0.19391000
   0.66667000  0.33333000  0.12928000
   0.83333000  0.50000000  0.19391000
   0.00000000  0.66667000  0.12928000
   0.16667000  0.83333000  0.19391000
   0.33333000  0.66667000  0.12928000
   0.50000000  0.83333000  0.19391000
   0.66667000  0.66667000  0.12928000
   0.83333000  0.83333000  0.19391000
   0.00000000  0.00000000  0.25855000
   0.16545337  0.16777354  0.32423682
   0.33333000  0.00000000  0.25855000
   0.50082780  0.16675276  0.32474790
   0.66667000  0.00000000  0.25855000
   0.83315287  0.16684333  0.32430560
   0.00000000  0.33333000  0.25855000
   0.16596466  0.49859054  0.32433012
   0.33333000  0.33333000  0.25855000
   0.50049201  0.49950799  0.32468626
   0.66667000  0.33333000  0.25855000
   0.83324909  0.49916727  0.32474933
   0.00000000  0.66667000  0.25855000
   0.16759021  0.83240327  0.32136751
   0.33333000  0.66667000  0.25855000
   0.50141286  0.83403787  0.32432741
   0.66667000  0.66667000  0.25855000
   0.83222714  0.83454393  0.32423840
   0.99320047  0.33117691  0.37979328
   0.32605193  0.67399808  0.38626461
Direct configuration=    17
   0.00000000  0.00000000  0.00000000
   0.01664444  0.98338017  0.38334710
   0.16667000  0.16667000  0.06464000
   0.33333000  0.00000000  0.00000000
   0.31813797 -0.00073511  0.38185565
   0.50000000  0.16667000  0.06464000
   0.66667000  0.00000000  0.00000000
   0.66860368  0.00685150  0.37977997
   0.83333000  0.16667000  0.06464000
   0.00000000  0.33333000  0.00000000
   0.16667000  0.50000000  0.06464000
   0.33333000  0.33333000  0.00000000
   0.34141079  0.33034976  0.37935153
   0.50000000  0.50000000  0.06464000
   0.66667000  0.33333000  0.00000000
   0.83333000  0.50000000  0.06464000
   0.00000000  0.66667000  0.00000000
   0.00071332  0.68183184  0.38185171
   0.16667000  0.83333000  0.06464000
   0.33333000  0.66667000  0.00000000
   0.50000000  0.83333000  0.06464000
   0.66667000  0.66667000  0.00000000
   0.66964096  0.65856597  0.37935265
   0.83333000  0.83333000  0.06464000
   0.00000000  0.00000000  0.12928000
   0.16667000  0.16667000  0.19391000
   0.33333000  0.00000000  0.12928000
   0.50000000  0.16667000  0.19391000
   0.66667000  0.00000000  0.12928000
   0.83333000  0.16667000  0.19391000
   0.00000000  0.33333000  0.12928000
   0.16667000  0.50000000  0.19391000
   0.33333000  0.33333000  0.12928000
   0.50000000  0.50000000  0.19391000
   0.66667000  0.33333000  0.12928000
   0.83333000  0.50000000  0.19391000
   0.00000000  0.66667000  0.12928000
   0.16667000  0.83333000  0.19391000
   0.33333000  0.66667000  0.12928000
   0.50000000  0.83333000  0.19391000
   0.66667000  0.66667000  0.12928000
   0.83333000  0.83333000  0.19391000
   0.00000000  0.00000000  0.25855000
   0.16541999  0.16788548  0.32423820
   0.33333000  0.00000000  0.25855000
   0.50084246  0.16679472  0.32472402
   0.66667000  0.00000000  0.25855000
   0.83319517  0.16680302  0.32429309
   0.00000000  0.33333000  0.25855000
   0.16593638  0.49870576  0.32434086
   0.33333000  0.33333000  0.25855000
   0.50059434  0.49940737  0.32462468
   0.66667000  0.33333000  0.25855000
   0.83320986  0.49915268  0.32472434
   0.00000000  0.66667000  0.25855000
   0.16754442  0.83245050  0.32133477
   0.33333000  0.66667000  0.25855000
   0.50129492  0.83406647  0.32433844
   0.66667000  0.66667000  0.25855000
   0.83211733  0.83458006  0.32423854
   0.99314946  0.33138050  0.37977968
   0.32567750  0.67436363  0.38629423
Direct configuration=    18
   0.00000000  0.00000000  0.00000000
   0.01658658  0.98343944  0.38329069
   0.16667000  0.16667000  0.06464000
   0.33333000  0.00000000  0.00000000
   0.31831189 -0.00078064  0.38182084
   0.50000000  0.16667000  0.06464000
   0.66667000  0.00000000  0.00000000
   0.66843814  0.00681132  0.37976100
   0.83333000  0.16667000  0.06464000
   0.00000000  0.33333000  0.00000000
   0.16667000  0.50000000  0.06464000
   0.33333000  0.33333000  0.00000000
   0.34153138  0.33058607  0.37930121
   0.50000000  0.50000000  0.06464000
   0.66667000  0.33333000  0.00000000
   0.83333000  0.50000000  0.06464000
   0.00000000  0.66667000  0.00000000
   0.00076511  0.68165962  0.38181656
   0.16667000  0.83333000  0.06464000
   0.33333000  0.66667000  0.00000000
   0.50000000  0.83333000  0.06464000
   0.66667000  0.66667000  0.00000000
   0.66940640  0.65845359  0.37929971
   0.83333000  0.83333000  0.06464000
   0.00000000  0.00000000  0.12928000
   0.16667000  0.16667000  0.19391000
   0.33333000  0.00000000  0.12928000
   0.50000000  0.16667000  0.19391000
   0.66667000  0.00000000  0.12928000
   0.83333000  0.16667000  0.19391000
   0.00000000  0.33333000  0.12928000
   0.16667000  0.50000000  0.19391000
   0.33333000  0.33333000  0.12928000
   0.50000000  0.50000000  0.19391000
   0.66667000  0.33333000  0.12928000
   0.83333000  0.50000000  0.19391000
   0.00000000  0.66667000  0.12928000
   0.16667000  0.83333000  0.19391000
   0.33333000  0.66667000  0.12928000
   0.50000000  0.83333000  0.19391000
   0.66667000  0.66667000  0.12928000
   0.83333000  0.83333000  0.19391000
   0.00000000  0.00000000  0.25855000
   0.16545489  0.16788500  0.32425967
   0.33333000  0.00000000  0.25855000
   0.50077523  0.16677187  0.32472254
   0.66667000  0.00000000  0.25855000
   0.83307879  0.16691769  0.32433881
   0.00000000  0.33333000  0.25855000
   0.16584268  0.49879766  0.32433820
   0.33333000  0.33333000  0.25855000
   0.50045398  0.49954827  0.32464480
   0.66667000  0.33333000  0.25855000
   0.83322863  0.49922442  0.32472347
   0.00000000  0.66667000  0.25855000
   0.16740651  0.83258878  0.32130174
   0.33333000  0.66667000  0.25855000
   0.50120573  0.83416062  0.32433774
   0.66667000  0.66667000  0.25855000
   0.83211586  0.83454336  0.32426203
   0.99318936  0.33155023  0.37976217
   0.32541229  0.67461994  0.38633610
Direct configuration=    19
   0.00000000  0.00000000  0.00000000
   0.01658711  0.98343889  0.38329122
   0.16667000  0.16667000  0.06464000
   0.33333000  0.00000000  0.00000000
   0.31831028 -0.00078022  0.38182117
   0.50000000  0.16667000  0.06464000
   0.66667000  0.00000000  0.00000000
   0.66843968  0.00681170  0.37976117
   0.83333000  0.16667000  0.06464000
   0.00000000  0.33333000  0.00000000
   0.16667000  0.50000000  0.06464000
   0.33333000  0.33333000  0.00000000
   0.34153026  0.33058388  0.37930167
   0.50000000  0.50000000  0.06464000
   0.66667000  0.33333000  0.00000000
   0.83333000  0.50000000  0.06464000
   0.00000000  0.66667000  0.00000000
   0.00076463  0.68166122  0.38181689
   0.16667000  0.83333000  0.06464000
   0.33333000  0.66667000  0.00000000
   0.50000000  0.83333000  0.06464000
   0.66667000  0.66667000  0.00000000
   0.66940858  0.65845463  0.37930020
   0.83333000  0.83333000  0.06464000
   0.00000000  0.00000000  0.12928000
   0.16667000  0.16667000  0.19391000
   0.33333000  0.00000000  0.12928000
   0.50000000  0.16667000  0.19391000
   0.66667000  0.00000000  0.12928000
   0.83333000  0.16667000  0.19391000
   0.00000000  0.33333000  0.12928000
   0.16667000  0.50000000  0.19391000
   0.33333000  0.33333000  0.12928000
   0.50000000  0.50000000  0.19391000
   0.66667000  0.33333000  0.12928000
   0.83333000  0.50000000  0.19391000
   0.00000000  0.66667000  0.12928000
   0.16667000  0.83333000  0.19391000
   0.33333000  0.66667000  0.12928000
   0.50000000  0.83333000  0.19391000
   0.66667000  0.66667000  0.12928000
   0.83333000  0.83333000  0.19391000
   0.00000000  0.00000000  0.25855000
   0.16545456  0.16788501  0.32425947
   0.33333000  0.00000000  0.25855000
   0.50077585  0.16677208  0.32472255
   0.66667000  0.00000000  0.25855000
   0.83307987  0.16691662  0.32433838
   0.00000000  0.33333000  0.25855000
   0.16584355  0.49879681  0.32433822
   0.33333000  0.33333000  0.25855000
   0.50045528  0.49954696  0.32464462
   0.66667000  0.33333000  0.25855000
   0.83322845  0.49922376  0.32472348
   0.00000000  0.66667000  0.25855000
   0.16740779  0.83258750  0.32130204
   0.33333000  0.66667000  0.25855000
   0.50120656  0.83415975  0.32433775
   0.66667000  0.66667000  0.25855000
   0.83211588  0.83454370  0.32426181
   0.99318899  0.33154865  0.37976233
   0.32541476  0.67461755  0.38633571
Direct configuration=    20
   0.00000000  0.00000000  0.00000000
   0.01647114  0.98355547  0.38329413
   0.16667000  0.16667000  0.06464000
   0.33333000  0.00000000  0.00000000
   0.31845517 -0.00081053  0.38183298
   0.50000000  0.16667000  0.06464000
   0.66667000  0.00000000  0.00000000
   0.66836935  0.00675326  0.37977778
   0.83333000  0.16667000  0.06464000
   0.00000000  0.33333000  0.00000000
   0.16667000  0.50000000  0.06464000
   0.33333000  0.33333000  0.00000000
   0.34159741  0.33076993  0.37932198
   0.50000000  0.50000000  0.06464000
   0.66667000  0.33333000  0.00000000
   0.83333000  0.50000000  0.06464000
   0.00000000  0.66667000  0.00000000
   0.00079912  0.68151798  0.38182958
   0.16667000  0.83333000  0.06464000
   0.33333000  0.66667000  0.00000000
   0.50000000  0.83333000  0.06464000
   0.66667000  0.66667000  0.00000000
   0.66922175  0.65839335  0.37932179
   0.83333000  0.83333000  0.06464000
   0.00000000  0.00000000  0.12928000
   0.16667000  0.16667000  0.19391000
   0.33333000  0.00000000  0.12928000
   0.50000000  0.16667000  0.19391000
   0.66667000  0.00000000  0.12928000
   0.83333000  0.16667000  0.19391000
   0.00000000  0.33333000  0.12928000
   0.16667000  0.50000000  0.19391000
   0.33333000  0.33333000  0.12928000
   0.50000000  0.50000000  0.19391000
   0.66667000  0.33333000  0.12928000
   0.83333000  0.50000000  0.19391000
   0.00000000  0.66667000  0.12928000
   0.16667000  0.83333000  0.19391000
   0.33333000  0.66667000  0.12928000
   0.50000000  0.83333000  0.19391000
   0.66667000  0.66667000  0.12928000
   0.83333000  0.83333000  0.19391000
   0.00000000  0.00000000  0.25855000
   0.16541370  0.16790218  0.32424331
   0.33333000  0.00000000  0.25855000
   0.50074607  0.16683854  0.32471583
   0.66667000  0.00000000  0.25855000
   0.83302834  0.16697091  0.32436105
   0.00000000  0.33333000  0.25855000
   0.16583216  0.49879711  0.32430658
   0.33333000  0.33333000  0.25855000
   0.50030801  0.49968985  0.32462562
   0.66667000  0.33333000  0.25855000
   0.83316214  0.49925209  0.32471655
   0.00000000  0.66667000  0.25855000
   0.16739175  0.83260540  0.32129569
   0.33333000  0.66667000  0.25855000
   0.50120493  0.83417038  0.32430579
   0.66667000  0.66667000  0.25855000
   0.83210016  0.83458489  0.32424525
   0.99324940  0.33162148  0.37977766
   0.32528404  0.67474263  0.38636672
Direct configuration=    21
   0.00000000  0.00000000  0.00000000
   0.01649346  0.98353303  0.38329357
   0.16667000  0.16667000  0.06464000
   0.33333000  0.00000000  0.00000000
   0.31842728 -0.00080469  0.38183070
   0.50000000  0.16667000  0.06464000
   0.66667000  0.00000000  0.00000000
   0.66838289  0.00676451  0.37977459
   0.83333000  0.16667000  0.06464000
   0.00000000  0.33333000  0.00000000
   0.16667000  0.50000000  0.06464000
   0.33333000  0.33333000  0.00000000
   0.34158449  0.33073411  0.37931807
   0.50000000  0.50000000  0.06464000
   0.66667000  0.33333000  0.00000000
   0.83333000  0.50000000  0.06464000
   0.00000000  0.66667000  0.00000000
   0.00079248  0.68154555  0.38182714
   0.16667000  0.83333000  0.06464000
   0.33333000  0.66667000  0.00000000
   0.50000000  0.83333000  0.06464000
   0.66667000  0.66667000  0.00000000
   0.66925771  0.65840515  0.37931763
   0.83333000  0.83333000  0.06464000
   0.00000000  0.00000000  0.12928000
   0.16667000  0.16667000  0.19391000
   0.33333000  0.00000000  0.12928000
   0.50000000  0.16667000  0.19391000
   0.66667000  0.00000000  0.12928000
   0.83333000  0.16667000  0.19391000
   0.00000000  0.33333000  0.12928000
   0.16667000  0.50000000  0.19391000
   0.33333000  0.33333000  0.12928000
   0.50000000  0.50000000  0.19391000
   0.66667000  0.33333000  0.12928000
   0.83333000  0.50000000  0.19391000
   0.00000000  0.66667000  0.12928000
   0.16667000  0.83333000  0.19391000
   0.33333000  0.66667000  0.12928000
   0.50000000  0.83333000  0.19391000
   0.66667000  0.66667000  0.12928000
   0.83333000  0.83333000  0.19391000
   0.00000000  0.00000000  0.25855000
   0.16542156  0.16789887  0.32424642
   0.33333000  0.00000000  0.25855000
   0.50075180  0.16682575  0.32471713
   0.66667000  0.00000000  0.25855000
   0.83303826  0.16696046  0.32435669
   0.00000000  0.33333000  0.25855000
   0.16583435  0.49879705  0.32431267
   0.33333000  0.33333000  0.25855000
   0.50033636  0.49966234  0.32462928
   0.66667000  0.33333000  0.25855000
   0.83317491  0.49924664  0.32471788
   0.00000000  0.66667000  0.25855000
   0.16739484  0.83260195  0.32129692
   0.33333000  0.66667000  0.25855000
   0.50120524  0.83416833  0.32431194
   0.66667000  0.66667000  0.25855000
   0.83210319  0.83457696  0.32424843
   0.99323777  0.33160746  0.37977471
   0.32530921  0.67471855  0.38636075
Direct configuration=    22
   0.00000000  0.00000000  0.00000000
   0.01648623  0.98354030  0.38329375
   0.16667000  0.16667000  0.06464000
   0.33333000  0.00000000  0.00000000
   0.31843631 -0.00080658  0.38183144
   0.50000000  0.16667000  0.06464000
   0.66667000  0.00000000  0.00000000
   0.66837850  0.00676087  0.37977562
   0.83333000  0.16667000  0.06464000
   0.00000000  0.33333000  0.00000000
   0.16667000  0.50000000  0.06464000
   0.33333000  0.33333000  0.00000000
   0.34158867  0.33074572  0.37931933
   0.50000000  0.50000000  0.06464000
   0.66667000  0.33333000  0.00000000
   0.83333000  0.50000000  0.06464000
   0.00000000  0.66667000  0.00000000
   0.00079463  0.68153662  0.38182793
   0.16667000  0.83333000  0.06464000
   0.33333000  0.66667000  0.00000000
   0.50000000  0.83333000  0.06464000
   0.66667000  0.66667000  0.00000000
   0.66924606  0.65840133  0.37931898
   0.83333000  0.83333000  0.06464000
   0.00000000  0.00000000  0.12928000
   0.16667000  0.16667000  0.19391000
   0.33333000  0.00000000  0.12928000
   0.50000000  0.16667000  0.19391000
   0.66667000  0.00000000  0.12928000
   0.83333000  0.16667000  0.19391000
   0.00000000  0.33333000  0.12928000
   0.16667000  0.50000000  0.19391000
   0.33333000  0.33333000  0.12928000
   0.50000000  0.50000000  0.19391000
   0.66667000  0.33333000  0.12928000
   0.83333000  0.50000000  0.19391000
   0.00000000  0.66667000  0.12928000
   0.16667000  0.83333000  0.19391000
   0.33333000  0.66667000  0.12928000
   0.50000000  0.83333000  0.19391000
   0.66667000  0.66667000  0.12928000
   0.83333000  0.83333000  0.19391000
   0.00000000  0.00000000  0.25855000
   0.16541902  0.16789995  0.32424541
   0.33333000  0.00000000  0.25855000
   0.50074995  0.16682989  0.32471671
   0.66667000  0.00000000  0.25855000
   0.83303505  0.16696384  0.32435810
   0.00000000  0.33333000  0.25855000
   0.16583364  0.49879707  0.32431070
   0.33333000  0.33333000  0.25855000
   0.50032718  0.49967125  0.32462809
   0.66667000  0.33333000  0.25855000
   0.83317077  0.49924840  0.32471745
   0.00000000  0.66667000  0.25855000
   0.16739384  0.83260307  0.32129652
   0.33333000  0.66667000  0.25855000
   0.50120514  0.83416899  0.32430995
   0.66667000  0.66667000  0.25855000
   0.83210221  0.83457953  0.32424740
   0.99324154  0.33161200  0.37977566
   0.32530105  0.67472635  0.38636268
Direct configuration=    23
   0.00000000  0.00000000  0.00000000
   0.01648974  0.98353678  0.38329366
   0.16667000  0.16667000  0.06464000
   0.33333000  0.00000000  0.00000000
   0.31843194 -0.00080567  0.38183108
   0.50000000  0.16667000  0.06464000
   0.66667000  0.00000000  0.00000000
   0.66838063  0.00676263  0.37977512
   0.83333000  0.16667000  0.06464000
   0.00000000  0.33333000  0.00000000
   0.16667000  0.50000000  0.06464000
   0.33333000  0.33333000  0.00000000
   0.34158665  0.33074009  0.37931872
   0.50000000  0.50000000  0.06464000
   0.66667000  0.33333000  0.00000000
   0.83333000  0.50000000  0.06464000
   0.00000000  0.66667000  0.00000000
   0.00079359  0.68154094  0.38182755
   0.16667000  0.83333000  0.06464000
   0.33333000  0.66667000  0.00000000
   0.50000000  0.83333000  0.06464000
   0.66667000  0.66667000  0.00000000
   0.66925170  0.65840318  0.37931833
   0.83333000  0.83333000  0.06464000
   0.00000000  0.00000000  0.12928000
   0.16667000  0.16667000  0.19391000
   0.33333000  0.00000000  0.12928000
   0.50000000  0.16667000  0.19391000
   0.66667000  0.00000000  0.12928000
   0.83333000  0.16667000  0.19391000
   0.00000000  0.33333000  0.12928000
   0.16667000  0.50000000  0.19391000
   0.33333000  0.33333000  0.12928000
   0.50000000  0.50000000  0.19391000
   0.66667000  0.33333000  0.12928000
   0.83333000  0.50000000  0.19391000
   0.00000000  0.66667000  0.12928000
   0.16667000  0.83333000  0.19391000
   0.33333000  0.66667000  0.12928000
   0.50000000  0.83333000  0.19391000
   0.66667000  0.66667000  0.12928000
   0.83333000  0.83333000  0.19391000
   0.00000000  0.00000000  0.25855000
   0.16542025  0.16789943  0.32424590
   0.33333000  0.00000000  0.25855000
   0.50075085  0.16682789  0.32471691
   0.66667000  0.00000000  0.25855000
   0.83303660  0.16696220  0.32435741
   0.00000000  0.33333000  0.25855000
   0.16583399  0.49879706  0.32431165
   0.33333000  0.33333000  0.25855000
   0.50033163  0.49966693  0.32462867
   0.66667000  0.33333000  0.25855000
   0.83317278  0.49924755  0.32471766
   0.00000000  0.66667000  0.25855000
   0.16739433  0.83260253  0.32129671
   0.33333000  0.66667000  0.25855000
   0.50120519  0.83416867  0.32431091
   0.66667000  0.66667000  0.25855000
   0.83210268  0.83457829  0.32424790
   0.99323972  0.33160980  0.37977520
   0.32530500  0.67472257  0.38636174
Direct configuration=    24
   0.00000000  0.00000000  0.00000000
   0.01639826  0.98362635  0.38329025
   0.16667000  0.16667000  0.06464000
   0.33333000  0.00000000  0.00000000
   0.31850063 -0.00083139  0.38182455
   0.50000000  0.16667000  0.06464000
   0.66667000  0.00000000  0.00000000
   0.66837198  0.00672799  0.37977069
   0.83333000  0.16667000  0.06464000
   0.00000000  0.33333000  0.00000000
   0.16667000  0.50000000  0.06464000
   0.33333000  0.33333000  0.00000000
   0.34157673  0.33084084  0.37933523
   0.50000000  0.50000000  0.06464000
   0.66667000  0.33333000  0.00000000
   0.83333000  0.50000000  0.06464000
   0.00000000  0.66667000  0.00000000
   0.00082153  0.68147420  0.38182148
   0.16667000  0.83333000  0.06464000
   0.33333000  0.66667000  0.00000000
   0.50000000  0.83333000  0.06464000
   0.66667000  0.66667000  0.00000000
   0.66915065  0.65841664  0.37933527
   0.83333000  0.83333000  0.06464000
   0.00000000  0.00000000  0.12928000
   0.16667000  0.16667000  0.19391000
   0.33333000  0.00000000  0.12928000
   0.50000000  0.16667000  0.19391000
   0.66667000  0.00000000  0.12928000
   0.83333000  0.16667000  0.19391000
   0.00000000  0.33333000  0.12928000
   0.16667000  0.50000000  0.19391000
   0.33333000  0.33333000  0.12928000
   0.50000000  0.50000000  0.19391000
   0.66667000  0.33333000  0.12928000
   0.83333000  0.50000000  0.19391000
   0.00000000  0.66667000  0.12928000
   0.16667000  0.83333000  0.19391000
   0.33333000  0.66667000  0.12928000
   0.50000000  0.83333000  0.19391000
   0.66667000  0.66667000  0.12928000
   0.83333000  0.83333000  0.19391000
   0.00000000  0.00000000  0.25855000
   0.16539167  0.16789005  0.32426304
   0.33333000  0.00000000  0.25855000
   0.50073684  0.16690507  0.32473238
   0.66667000  0.00000000  0.25855000
   0.83306603  0.16693294  0.32437241
   0.00000000  0.33333000  0.25855000
   0.16582219  0.49877516  0.32431294
   0.33333000  0.33333000  0.25855000
   0.50032189  0.49967659  0.32460932
   0.66667000  0.33333000  0.25855000
   0.83309592  0.49926234  0.32473337
   0.00000000  0.66667000  0.25855000
   0.16738122  0.83261527  0.32134221
   0.33333000  0.66667000  0.25855000
   0.50122655  0.83417848  0.32431188
   0.66667000  0.66667000  0.25855000
   0.83211382  0.83460718  0.32426510
   0.99327493  0.33162052  0.37977039
   0.32521471  0.67480894  0.38637648
