       N       E                     dE             d eps       ncg     rms          rms(c)
DAV:   1    -0.649379759016E+03   -0.64938E+03   -0.12413E-05 11216   0.788E-03
DAV:   2    -0.649379759124E+03   -0.10774E-06   -0.10790E-06  6592   0.214E-03
DAV:   3    -0.649379759148E+03   -0.23574E-07   -0.23066E-07  5976   0.119E-03
DAV:   4    -0.649379759161E+03   -0.13097E-07   -0.13085E-07  5936   0.692E-04
DAV:   5    -0.649379759170E+03   -0.87894E-08   -0.88008E-08  5896   0.600E-04
   1 F= -.64937976E+03 E0= -.64937976E+03  d E =0.000000E+00
