 vasp.6.3.2 27Jun22 (build Mar 15 2023 15:45:48) complex                        
  
 executed on             LinuxIFC date 2025.09.05  18:06:36
 running on    4 total cores
 distrk:  each k-point on    1 cores,    4 groups
 distr:  one band on NCORE=   1 cores,    1 groups


--------------------------------------------------------------------------------------------------------


 INCAR:
   SYSTEM = Fe2O3
   ISTART = 1
   ICHARG = 11
   LORBIT = 11
   ISMEAR = -5            (Gaussian smearing
   SIGMA = 0.1        (Smearing value in eV
   NELM = 100           (Max electronic SCF steps)
   NELMIN = 5           (Min electronic SCF steps)
   EDIFF = 1E-6        (SCF energy convergence
   GGA = PE
   LREAL = Auto
   PREC = Accurate
   ENCUT = 530
   NSW = 0         (Max electronic SCF steps)
   IBRION = -1         (Algorithm: 0-MD
   ISIF = 2
   ALGO = Normal
   NCORE = 4
   KPAR = 8
   LMAXMIX = 4

 POTCAR:    PAW_PBE Mo_sv 02Feb2006               
 POTCAR:    PAW_PBE Nb_sv 25May2007               
 POTCAR:    PAW_PBE O 08Apr2002                   
 POTCAR:    PAW_PBE Mo_sv 02Feb2006               
   VRHFIN =Mo: 4p5s4d                                                                               
   LEXCH  = PE                                                                                      
   EATOM  =  1862.2866 eV,  136.8742 Ry                                                             
                                                                                                    
   TITEL  = PAW_PBE Mo_sv 02Feb2006                                                                 
   LULTRA =        F    use ultrasoft PP ?                                                          
   IUNSCR =        1    unscreen: 0-lin 1-nonlin 2-no                                               
   RPACOR =    2.200    partial core radius                                                         
   POMASS =   95.940; ZVAL   =   14.000    mass and valenz                                          
   RCORE  =    2.500    outmost cutoff radius                                                       
   RWIGS  =    2.750; RWIGS  =    1.455    wigner-seitz radius (au A)                               
   ENMAX  =  242.676; ENMIN  =  182.007 eV                                                          
   ICORE  =        3    local potential                                                             
   LCOR   =        T    correct aug charges                                                         
   LPAW   =        T    paw PP                                                                      
   EAUG   =  446.014                                                                                
   DEXC   =    0.000                                                                                
   RMAX   =    2.563    core radius for proj-oper                                                   
   RAUG   =    1.300    factor for augmentation sphere                                              
   RDEP   =    2.641    radius for radial grids                                                     
   RDEPT  =    2.031    core radius for aug-charge                                                  
                                                                                                    
   Atomic configuration                                                                             
   11 entries                                                                                       
     n  l   j            E        occ.                                                              
     1  0  0.50    -19819.0341   2.0000                                                             
     2  0  0.50     -2799.0127   2.0000                                                             
     2  1  1.50     -2502.0276   6.0000                                                             
     3  0  0.50      -476.4449   2.0000                                                             
     3  1  1.50      -379.1496   6.0000                                                             
     3  2  2.50      -220.9367  10.0000                                                             
     4  0  0.50       -64.3378   2.0000                                                             
     5  0  0.50        -4.0862   1.0000                                                             
     4  1  1.50       -38.4773   6.0000                                                             
     4  2  2.50        -3.7535   5.0000                                                             
     4  3  2.50        -1.3606   0.0000                                                             
   Description                                                                                      
     l       E           TYP  RCUT    TYP  RCUT                                                     
     0    -64.3377829     23  2.100                                                                 
     0     -4.0861640     23  2.400                                                                 
     1    -38.4772993     23  2.100                                                                 
     1     13.6058260     23  2.100                                                                 
     2     -3.7534941     23  2.400                                                                 
     2     -5.1140767     23  2.400                                                                 
     3     -4.0817478     23  2.500                                                                 
  local pseudopotential read in
  partial core-charges read in
  partial kinetic energy density read in
  atomic valenz-charges read in
  non local Contribution for L=           0  read in
    real space projection operators read in
  non local Contribution for L=           0  read in
    real space projection operators read in
  non local Contribution for L=           1  read in
    real space projection operators read in
  non local Contribution for L=           1  read in
    real space projection operators read in
  non local Contribution for L=           2  read in
    real space projection operators read in
  non local Contribution for L=           2  read in
    real space projection operators read in
    PAW grid and wavefunctions read in
 
   number of l-projection  operators is LMAX  =           6
   number of lm-projection operators is LMMAX =          18
 
 POTCAR:    PAW_PBE Nb_sv 25May2007               
   VRHFIN =Nb: 4p5s4d                                                                               
   LEXCH  = PE                                                                                      
   EATOM  =  1555.1913 eV,  114.3033 Ry                                                             
                                                                                                    
   TITEL  = PAW_PBE Nb_sv 25May2007                                                                 
   LULTRA =        F    use ultrasoft PP ?                                                          
   IUNSCR =        1    unscreen: 0-lin 1-nonlin 2-no                                               
   RPACOR =    1.800    partial core radius                                                         
   POMASS =   92.910; ZVAL   =   13.000    mass and valenz                                          
   RCORE  =    2.400    outmost cutoff radius                                                       
   RWIGS  =    2.400; RWIGS  =    1.270    wigner-seitz radius (au A)                               
   ENMAX  =  293.235; ENMIN  =  219.927 eV                                                          
   ICORE  =        3    local potential                                                             
   LCOR   =        T    correct aug charges                                                         
   LPAW   =        T    paw PP                                                                      
   EAUG   =  455.659                                                                                
   DEXC   =    0.000                                                                                
   RMAX   =    2.456    core radius for proj-oper                                                   
   RAUG   =    1.300    factor for augmentation sphere                                              
   RDEP   =    2.451    radius for radial grids                                                     
   RDEPT  =    1.956    core radius for aug-charge                                                  
                                                                                                    
   Atomic configuration                                                                             
   11 entries                                                                                       
     n  l   j            E        occ.                                                              
     1  0  0.50    -18805.2457   2.0000                                                             
     2  0  0.50     -2630.2869   2.0000                                                             
     2  1  1.50     -2348.4046   6.0000                                                             
     3  0  0.50      -438.8757   2.0000                                                             
     3  1  1.50      -346.7588   6.0000                                                             
     3  2  2.50      -196.2560  10.0000                                                             
     4  0  0.50       -58.3859   2.0000                                                             
     5  0  0.50        -3.9816   1.0000                                                             
     4  1  1.50       -34.5141   6.0000                                                             
     4  2  2.50        -3.0408   4.0000                                                             
     4  3  2.50        -1.3606   0.0000                                                             
   Description                                                                                      
     l       E           TYP  RCUT    TYP  RCUT                                                     
     0    -58.3859094     23  2.200                                                                 
     0     -3.9816262     23  2.200                                                                 
     1    -34.5140738     23  2.200                                                                 
     1     13.6058260     23  2.200                                                                 
     2     -3.0408010     23  2.200                                                                 
     2     -0.1283038     23  2.200                                                                 
     3     -1.3605826     23  2.400                                                                 
  local pseudopotential read in
  partial core-charges read in
  partial kinetic energy density read in
  atomic valenz-charges read in
  non local Contribution for L=           0  read in
    real space projection operators read in
  non local Contribution for L=           0  read in
    real space projection operators read in
  non local Contribution for L=           1  read in
    real space projection operators read in
  non local Contribution for L=           1  read in
    real space projection operators read in
  non local Contribution for L=           2  read in
    real space projection operators read in
  non local Contribution for L=           2  read in
    real space projection operators read in
    PAW grid and wavefunctions read in
 
   number of l-projection  operators is LMAX  =           6
   number of lm-projection operators is LMMAX =          18
 
 POTCAR:    PAW_PBE O 08Apr2002                   
   VRHFIN =O: s2p4                                                                                  
   LEXCH  = PE                                                                                      
   EATOM  =   432.3788 eV,   31.7789 Ry                                                             
                                                                                                    
   TITEL  = PAW_PBE O 08Apr2002                                                                     
   LULTRA =        F    use ultrasoft PP ?                                                          
   IUNSCR =        1    unscreen: 0-lin 1-nonlin 2-no                                               
   RPACOR =    1.200    partial core radius                                                         
   POMASS =   16.000; ZVAL   =    6.000    mass and valenz                                          
   RCORE  =    1.520    outmost cutoff radius                                                       
   RWIGS  =    1.550; RWIGS  =    0.820    wigner-seitz radius (au A)                               
   ENMAX  =  400.000; ENMIN  =  300.000 eV                                                          
   ICORE  =        2    local potential                                                             
   LCOR   =        T    correct aug charges                                                         
   LPAW   =        T    paw PP                                                                      
   EAUG   =  605.392                                                                                
   DEXC   =    0.000                                                                                
   RMAX   =    1.553    core radius for proj-oper                                                   
   RAUG   =    1.300    factor for augmentation sphere                                              
   RDEP   =    1.550    radius for radial grids                                                     
   RDEPT  =    1.329    core radius for aug-charge                                                  
                                                                                                    
   Atomic configuration                                                                             
    4 entries                                                                                       
     n  l   j            E        occ.                                                              
     1  0  0.50      -514.6923   2.0000                                                             
     2  0  0.50       -23.9615   2.0000                                                             
     2  1  0.50        -9.0305   4.0000                                                             
     3  2  1.50        -9.5241   0.0000                                                             
   Description                                                                                      
     l       E           TYP  RCUT    TYP  RCUT                                                     
     0    -23.9615318     23  1.200                                                                 
     0     -9.5240782     23  1.200                                                                 
     1     -9.0304911     23  1.520                                                                 
     1      8.1634956     23  1.520                                                                 
     2     -9.5240782      7  1.500                                                                 
  local pseudopotential read in
  partial core-charges read in
  partial kinetic energy density read in
  kinetic energy density of atom read in
  atomic valenz-charges read in
  non local Contribution for L=           0  read in
    real space projection operators read in
  non local Contribution for L=           0  read in
    real space projection operators read in
  non local Contribution for L=           1  read in
    real space projection operators read in
  non local Contribution for L=           1  read in
    real space projection operators read in
    PAW grid and wavefunctions read in
 
   number of l-projection  operators is LMAX  =           4
   number of lm-projection operators is LMMAX =           8
 
 Optimization of the real space projectors (new method)

 maximal supplied QI-value         = 15.12
 optimisation between [QCUT,QGAM] = [ 11.79, 23.58] = [ 38.94,155.75] Ry 
 Optimized for a Real-space Cutoff    1.61 Angstroem

   l    n(q)    QCUT    max X(q) W(low)/X(q) W(high)/X(q)  e(spline) 
   0     11    11.792     3.559    0.10E-05    0.43E-05    0.23E-06
   0     11    11.792    20.730    0.33E-04    0.49E-05    0.27E-06
   1     11    11.792     3.279    0.65E-06    0.22E-05    0.34E-07
   1     11    11.792     4.693    0.24E-04    0.16E-04    0.22E-06
   2     11    11.792    67.616    0.22E-03    0.34E-04    0.67E-06
   2     11    11.792    62.420    0.22E-03    0.34E-04    0.68E-06
 Optimization of the real space projectors (new method)

 maximal supplied QI-value         = 15.68
 optimisation between [QCUT,QGAM] = [ 11.76, 23.53] = [ 38.75,155.00] Ry 
 Optimized for a Real-space Cutoff    1.56 Angstroem

   l    n(q)    QCUT    max X(q) W(low)/X(q) W(high)/X(q)  e(spline) 
   0     11    11.764    10.201    0.21E-04    0.47E-05    0.98E-07
   0     11    11.764     8.174    0.32E-04    0.87E-05    0.18E-06
   1     11    11.764     3.488    0.33E-04    0.14E-04    0.98E-07
   1     11    11.764     4.917    0.16E-03    0.42E-04    0.41E-06
   2     10    11.764   153.744    0.11E-03    0.44E-03    0.13E-05
   2     10    11.764   126.342    0.11E-03    0.44E-03    0.13E-05
 Optimization of the real space projectors (new method)

 maximal supplied QI-value         = 24.76
 optimisation between [QCUT,QGAM] = [ 11.64, 23.52] = [ 37.91,154.88] Ry 
 Optimized for a Real-space Cutoff    1.16 Angstroem

   l    n(q)    QCUT    max X(q) W(low)/X(q) W(high)/X(q)  e(spline) 
   0      8    11.635    20.381    0.63E-04    0.20E-03    0.27E-06
   0      8    11.635    15.268    0.67E-04    0.21E-03    0.29E-06
   1      8    11.635     5.964    0.19E-03    0.13E-03    0.31E-06
   1      8    11.635     5.382    0.18E-03    0.10E-03    0.27E-06
  PAW_PBE Mo_sv 02Feb2006               :
 energy of atom  1       EATOM=-1862.2866
 kinetic energy error for atom=    0.0067 (will be added to EATOM!!)
  PAW_PBE Nb_sv 25May2007               :
 energy of atom  2       EATOM=-1555.1913
 kinetic energy error for atom=    0.0056 (will be added to EATOM!!)
  PAW_PBE O 08Apr2002                   :
 energy of atom  3       EATOM= -432.3788
 kinetic energy error for atom=    0.0203 (will be added to EATOM!!)
 
 
 POSCAR: Generated by VASPKIT code
  positions in direct lattice
  velocities in cartesian coordinates
 exchange correlation table for  LEXCH =        8
   RHO(1)=    0.500       N(1)  =     2000
   RHO(2)=  100.500       N(2)  =     4000

 VTST: version 4.2, (08/11/21)

 CHAIN: initializing optimizer
 
 OPT: Using VASP Dynamics algorithm
 CHAIN: Read ICHAIN            0
 
 POSCAR: Generated by VASPKIT code
  positions in direct lattice
  velocities in cartesian coordinates
 


--------------------------------------------------------------------------------------------------------


 ion  position               nearest neighbor table
   1  0.000  0.000  0.000-   3 2.74   9 2.74  18 2.74  23 2.74  10 3.17  16 3.17   7 3.17   4 3.17
                            24 3.17
   2  0.988  0.984  0.383-  59 2.53  55 2.66  47 2.70  43 2.81  17 2.82   8 2.90  42 3.05   5 3.28
                            60 3.32
   3  0.167  0.167  0.065-  12 2.74  32 2.74   4 2.74  10 2.74  30 2.74  26 2.74   1 2.74  24 2.74
                            11 3.17   6 3.17   9 3.17  18 3.17  25 3.17
   4  0.333  0.000  0.000-   3 2.74  18 2.74   6 2.74  20 2.74   1 3.17  19 3.17  12 3.17   7 3.17
                            26 3.17
   5  0.333  0.003  0.380-  43 2.59  45 2.60  55 2.62  57 2.64  44 2.97   2 3.28   8 3.33
   6  0.500  0.167  0.065-  12 2.74  14 2.74  32 2.74  34 2.74   4 2.74   7 2.74  26 2.74  28 2.74
                            13 3.17   9 3.17   3 3.17  20 3.17  27 3.17
   7  0.667  0.000  0.000-   9 2.74  23 2.74  20 2.74   6 2.74   1 3.17  21 3.17  14 3.17   4 3.17
                            28 3.17
   8  0.684  0.005  0.382-  47 2.54  59 2.60  45 2.72  57 2.77   2 2.90  46 3.02  22 3.20  61 3.21
                             5 3.33
   9  0.833  0.167  0.065-  14 2.74  34 2.74   7 2.74  10 2.74  30 2.74  28 2.74   1 2.74  24 2.74
                             6 3.17  15 3.17   3 3.17  23 3.17  29 3.17
  10  0.000  0.333  0.000-   3 2.74   9 2.74  11 2.74  15 2.74  12 3.17  14 3.17   1 3.17  16 3.17
                            30 3.17
  11  0.167  0.500  0.065-  12 2.74  19 2.74  32 2.74  38 2.74  16 2.74  10 2.74  36 2.74  30 2.74
                            18 3.17  13 3.17   3 3.17  15 3.17  31 3.17
  12  0.333  0.333  0.000-   3 2.74   6 2.74  11 2.74  13 2.74   4 3.17  10 3.17  14 3.17  19 3.17
                            32 3.17
  13  0.500  0.500  0.065-  12 2.74  14 2.74  19 2.74  21 2.74  32 2.74  34 2.74  38 2.74  40 2.74
                            15 3.17   6 3.17  20 3.17  11 3.17  33 3.17
  14  0.667  0.333  0.000-   9 2.74   6 2.74  15 2.74  13 2.74   7 3.17  10 3.17  12 3.17  21 3.17
                            34 3.17
  15  0.833  0.500  0.065-  14 2.74  21 2.74  34 2.74  40 2.74  16 2.74  10 2.74  36 2.74  30 2.74
                             9 3.17  23 3.17  13 3.17  11 3.17  35 3.17
  16  0.000  0.667  0.000-  18 2.74  23 2.74  11 2.74  15 2.74  19 3.17  21 3.17   1 3.17  10 3.17
                            36 3.17
  17  0.001  0.687  0.382-  55 2.55  59 2.58  53 2.77  49 2.77   2 2.82  54 3.03  22 3.11  62 3.26
                            60 3.36
  18  0.167  0.833  0.065-  19 2.74  38 2.74   4 2.74  16 2.74  36 2.74  26 2.74   1 2.74  24 2.74
                            11 3.17  20 3.17   3 3.17  23 3.17  37 3.17
  19  0.333  0.667  0.000-  18 2.74  11 2.74  20 2.74  13 2.74   4 3.17  16 3.17  12 3.17  21 3.17
                            38 3.17
  20  0.500  0.833  0.065-  19 2.74  21 2.74  38 2.74  40 2.74   4 2.74   7 2.74  26 2.74  28 2.74
                            18 3.17  23 3.17  13 3.17   6 3.17  39 3.17
  21  0.667  0.667  0.000-  23 2.74  20 2.74  15 2.74  13 2.74   7 3.17  16 3.17  14 3.17  19 3.17
                            40 3.17
  22  0.674  0.669  0.383-  63 2.15  53 2.63  59 2.64  57 2.68  51 2.78  58 3.05  17 3.11  61 3.12
                            62 3.16   8 3.20
  23  0.833  0.833  0.065-  21 2.74  40 2.74   7 2.74  16 2.74  36 2.74  28 2.74   1 2.74  24 2.74
                            20 3.17  15 3.17   9 3.17  18 3.17  41 3.17
  24  0.000  0.000  0.129-  25 2.74  29 2.74  37 2.74  41 2.74   3 2.74   9 2.74  18 2.74  23 2.74
                            30 3.17  36 3.17  28 3.17  26 3.17  42 3.17   1 3.17
  25  0.167  0.167  0.194-  32 2.74  30 2.74  26 2.74  24 2.74  50 2.74  48 2.74  44 2.74  42 2.74
                            31 3.17  27 3.17  29 3.17  37 3.17   3 3.17  43 3.21
  26  0.333  0.000  0.129-  25 2.74  37 2.74  27 2.74  39 2.74   3 2.74  18 2.74   6 2.74  20 2.74
                            24 3.17  38 3.17  32 3.17  28 3.17  44 3.17   4 3.17
  27  0.500  0.167  0.194-  32 2.74  34 2.74  26 2.74  28 2.74  50 2.74  52 2.74  44 2.74  46 2.74
                            33 3.17  29 3.17  25 3.17  39 3.17   6 3.17  45 3.18
  28  0.667  0.000  0.129-  29 2.74  41 2.74  39 2.74  27 2.74   9 2.74  23 2.74  20 2.74   6 2.74
                            24 3.17  40 3.17  34 3.17  26 3.17  46 3.17   7 3.17
  29  0.833  0.167  0.194-  34 2.74  30 2.74  28 2.74  24 2.74  52 2.74  48 2.74  46 2.74  42 2.74
                            27 3.17  35 3.17  25 3.17  41 3.17   9 3.17  47 3.19
  30  0.000  0.333  0.129-  25 2.74  29 2.74  31 2.74  35 2.74   3 2.74   9 2.74  11 2.74  15 2.74
                            32 3.17  34 3.17  24 3.17  36 3.17  48 3.17  10 3.17
  31  0.167  0.500  0.194-  32 2.74  38 2.74  36 2.74  30 2.74  50 2.74  56 2.74  54 2.74  48 2.74
                            37 3.17  33 3.17  25 3.17  35 3.17  11 3.17  49 3.18
  32  0.333  0.333  0.129-  25 2.74  27 2.74  31 2.74  33 2.74   3 2.74   6 2.74  11 2.74  13 2.74
                            26 3.17  30 3.17  34 3.17  38 3.17  50 3.17  12 3.17
  33  0.500  0.500  0.194-  32 2.74  34 2.74  38 2.74  40 2.74  50 2.74  52 2.74  56 2.74  58 2.74
                            51 3.09  27 3.17  39 3.17  31 3.17  35 3.17  13 3.17
  34  0.667  0.333  0.129-  29 2.74  27 2.74  35 2.74  33 2.74   9 2.74   6 2.74  15 2.74  13 2.74
                            28 3.17  30 3.17  32 3.17  40 3.17  52 3.17  14 3.17
  35  0.833  0.500  0.194-  34 2.74  40 2.74  36 2.74  30 2.74  52 2.74  58 2.74  54 2.74  48 2.74
                            29 3.17  41 3.17  33 3.17  31 3.17  15 3.17  53 3.21
  36  0.000  0.667  0.129-  37 2.74  41 2.74  31 2.74  35 2.74  18 2.74  23 2.74  11 2.74  15 2.74
                            38 3.17  40 3.17  24 3.17  30 3.17  54 3.17  16 3.17
  37  0.167  0.833  0.194-  38 2.74  36 2.74  26 2.74  24 2.74  56 2.74  54 2.74  44 2.74  42 2.74
                            31 3.17  39 3.17  25 3.17  41 3.17  18 3.17  55 3.18
  38  0.333  0.667  0.129-  37 2.74  39 2.74  31 2.74  33 2.74  18 2.74  11 2.74  20 2.74  13 2.74
                            26 3.17  36 3.17  32 3.17  40 3.17  56 3.17  19 3.17
  39  0.500  0.833  0.194-  38 2.74  40 2.74  26 2.74  28 2.74  56 2.74  58 2.74  44 2.74  46 2.74
                            37 3.17  41 3.17  33 3.17  27 3.17  20 3.17  57 3.21
  40  0.667  0.667  0.129-  41 2.74  39 2.74  35 2.74  33 2.74  23 2.74  20 2.74  15 2.74  13 2.74
                            28 3.17  36 3.17  34 3.17  38 3.17  58 3.17  21 3.17
  41  0.833  0.833  0.194-  40 2.74  36 2.74  28 2.74  24 2.74  58 2.74  54 2.74  46 2.74  42 2.74
                            59 3.14  35 3.17  39 3.17  37 3.17  29 3.17  23 3.17
  42  0.000  0.000  0.259-  59 2.72  29 2.74  37 2.74  41 2.74  25 2.74  55 2.76  43 2.76  47 2.77
                             2 3.05  48 3.17  54 3.17  46 3.17  44 3.17  24 3.17
  43  0.166  0.167  0.325-  60 2.59   5 2.59  48 2.76  42 2.76  50 2.77  44 2.77   2 2.81  47 3.16
                            49 3.16  55 3.16  45 3.16  25 3.21
  44  0.333  0.000  0.259-  55 2.73  45 2.74  25 2.74  37 2.74  27 2.74  39 2.74  43 2.77  57 2.77
                             5 2.97  42 3.17  56 3.17  50 3.17  46 3.17  26 3.17
  45  0.499  0.166  0.324-   5 2.60  61 2.67   8 2.72  44 2.74  46 2.75  50 2.75  52 2.76  43 3.16
                            57 3.16  51 3.17  47 3.18  27 3.18
  46  0.667  0.000  0.259-  59 2.72  41 2.74  29 2.74  27 2.74  39 2.74  45 2.75  57 2.77  47 2.77
                             8 3.02  42 3.17  58 3.17  52 3.17  44 3.17  28 3.17
  47  0.834  0.169  0.324-   8 2.54  60 2.63   2 2.70  48 2.74  52 2.75  42 2.77  46 2.77  61 2.84
                            53 3.14  43 3.16  45 3.18  59 3.18  29 3.19
  48  0.000  0.333  0.259-  47 2.74  49 2.74  25 2.74  29 2.74  31 2.74  35 2.74  43 2.76  53 2.77
                            60 2.97  52 3.17  42 3.17  50 3.17  54 3.17  30 3.17
  49  0.166  0.499  0.324-  60 2.59  62 2.69  48 2.74  54 2.75  50 2.75  56 2.76  17 2.77  43 3.16
                            53 3.16  51 3.17  31 3.18  55 3.18
  50  0.333  0.333  0.259-  51 2.69  25 2.74  31 2.74  27 2.74  33 2.74  49 2.75  45 2.75  43 2.77
                            44 3.17  48 3.17  52 3.17  56 3.17  32 3.17
  51  0.499  0.499  0.320-  63 2.18  61 2.63  62 2.63  50 2.69  56 2.70  52 2.70  58 2.71  22 2.78
                            33 3.09  49 3.17  57 3.17  45 3.17  53 3.17
  52  0.667  0.333  0.259-  51 2.70  29 2.74  35 2.74  27 2.74  33 2.74  47 2.75  45 2.76  53 2.76
                            61 3.13  48 3.17  46 3.17  58 3.17  50 3.17  34 3.17
  53  0.833  0.500  0.325-  22 2.63  60 2.64  61 2.76  58 2.76  52 2.76  54 2.77  48 2.77  17 2.77
                            47 3.14  49 3.16  51 3.17  59 3.17  35 3.21
  54  0.000  0.667  0.259-  59 2.73  41 2.74  37 2.74  35 2.74  31 2.74  49 2.75  53 2.77  55 2.77
                            17 3.03  56 3.17  58 3.17  42 3.17  48 3.17  36 3.17
  55  0.169  0.834  0.324-  17 2.55   5 2.62   2 2.66  44 2.73  56 2.74  42 2.76  54 2.77  62 2.84
                            57 3.15  43 3.16  49 3.18  37 3.18  59 3.19
  56  0.333  0.667  0.259-  51 2.70  37 2.74  39 2.74  31 2.74  33 2.74  55 2.74  49 2.76  57 2.76
                            62 3.14  54 3.17  44 3.17  58 3.17  50 3.17  38 3.17
  57  0.500  0.833  0.325-   5 2.64  22 2.68  62 2.74  58 2.76  56 2.76   8 2.77  46 2.77  44 2.77
                            55 3.15  59 3.16  45 3.16  51 3.17  39 3.21
  58  0.667  0.667  0.259-  51 2.71  59 2.73  41 2.74  39 2.74  35 2.74  33 2.74  57 2.76  53 2.76
                            22 3.05  46 3.17  54 3.17  52 3.17  56 3.17  40 3.17
  59  0.833  0.834  0.322-   2 2.53  17 2.58   8 2.60  22 2.64  46 2.72  42 2.72  58 2.73  54 2.73
                            41 3.14  57 3.16  53 3.17  47 3.18  55 3.19
  60  0.005  0.334  0.380-  43 2.59  49 2.59  47 2.63  53 2.64  48 2.97   2 3.32  17 3.36
  61  0.649  0.341  0.386-  63 2.16  51 2.63  45 2.67  53 2.76  47 2.84  22 3.12  52 3.13   8 3.21

  62  0.342  0.650  0.386-  63 2.16  51 2.63  49 2.69  57 2.74  55 2.84  56 3.14  22 3.16  17 3.26

  63  0.518  0.518  0.408-  22 2.15  62 2.16  61 2.16  51 2.18
 
  LATTYP: Found a simple tetragonal cell.
 ALAT       =     9.4983997345
 C/A-ratio  =     2.5796870899
  
  Lattice vectors:
  
 A1 = (   9.4983997345,   0.0000000000,   0.0000000000)
 A2 = (   0.0000000000,   9.4983997345,   0.0000000000)
 A3 = (   0.0000000000,   0.0000000000,  24.5028991699)


Analysis of symmetry for initial positions (statically):
=====================================================================
 Subroutine PRICEL returns:
 Original cell was already a primitive cell.
 

 Routine SETGRP: Setting up the symmetry group for a 
 simple tetragonal supercell.


 Subroutine GETGRP returns: Found  1 space group operations
 (whereof  1 operations were pure point group operations)
 out of a pool of 16 trial point group operations.


The static configuration has the point symmetry C_1 .


Analysis of symmetry for dynamics (positions and initial velocities):
=====================================================================
 Subroutine PRICEL returns:
 Original cell was already a primitive cell.
 

 Routine SETGRP: Setting up the symmetry group for a 
 simple tetragonal supercell.


 Subroutine GETGRP returns: Found  1 space group operations
 (whereof  1 operations were pure point group operations)
 out of a pool of 16 trial point group operations.


The dynamic configuration has the point symmetry C_1 .


Analysis of constrained symmetry for selective dynamics:
=====================================================================
 Subroutine PRICEL returns:
 Original cell was already a primitive cell.
 

 Routine SETGRP: Setting up the symmetry group for a 
 simple tetragonal supercell.


 Subroutine GETGRP returns: Found  1 space group operations
 (whereof  1 operations were pure point group operations)
 out of a pool of 16 trial point group operations.


The constrained configuration has the point symmetry C_1 .


 Subroutine INISYM returns: Found  1 space group operations
 (whereof  1 operations are pure point group operations),
 and found     1 'primitive' translations


----------------------------------------------------------------------------------------

                                     Primitive cell                                     

  volume of cell :    2210.6417

  direct lattice vectors                    reciprocal lattice vectors
     9.498399734  0.000000000  0.000000000     0.105280892  0.000000000  0.000000000
     0.000000000  9.498399734  0.000000000     0.000000000  0.105280892  0.000000000
     0.000000000  0.000000000 24.502899170     0.000000000  0.000000000  0.040811497

  length of vectors
     9.498399734  9.498399734 24.502899170     0.105280892  0.105280892  0.040811497

  position of ions in fractional coordinates (direct lattice)
     0.000000000  0.000000000  0.000000000
     0.987763339  0.984267976  0.382826740
     0.166670000  0.166670000  0.064640000
     0.333330000  0.000000000  0.000000000
     0.332674716  0.003035991  0.379582589
     0.500000000  0.166670000  0.064640000
     0.666670000  0.000000000  0.000000000
     0.683638475  0.005301595  0.381506785
     0.833330000  0.166670000  0.064640000
     0.000000000  0.333330000  0.000000000
     0.166670000  0.500000000  0.064640000
     0.333330000  0.333330000  0.000000000
     0.500000000  0.500000000  0.064640000
     0.666670000  0.333330000  0.000000000
     0.833330000  0.500000000  0.064640000
     0.000000000  0.666670000  0.000000000
     0.000763577  0.687217918  0.381877493
     0.166670000  0.833330000  0.064640000
     0.333330000  0.666670000  0.000000000
     0.500000000  0.833330000  0.064640000
     0.666670000  0.666670000  0.000000000
     0.673725745  0.668955500  0.383154811
     0.833330000  0.833330000  0.064640000
     0.000000000  0.000000000  0.129280000
     0.166670000  0.166670000  0.193910000
     0.333330000  0.000000000  0.129280000
     0.500000000  0.166670000  0.193910000
     0.666670000  0.000000000  0.129280000
     0.833330000  0.166670000  0.193910000
     0.000000000  0.333330000  0.129280000
     0.166670000  0.500000000  0.193910000
     0.333330000  0.333330000  0.129280000
     0.500000000  0.500000000  0.193910000
     0.666670000  0.333330000  0.129280000
     0.833330000  0.500000000  0.193910000
     0.000000000  0.666670000  0.129280000
     0.166670000  0.833330000  0.193910000
     0.333330000  0.666670000  0.129280000
     0.500000000  0.833330000  0.193910000
     0.666670000  0.666670000  0.129280000
     0.833330000  0.833330000  0.193910000
     0.000000000  0.000000000  0.258550000
     0.166439616  0.166724797  0.324733932
     0.333330000  0.000000000  0.258550000
     0.499289725  0.165687797  0.323719932
     0.666670000  0.000000000  0.258550000
     0.834038382  0.169039715  0.324146268
     0.000000000  0.333330000  0.258550000
     0.165906224  0.499342860  0.323643850
     0.333330000  0.333330000  0.258550000
     0.499145951  0.499289097  0.320176260
     0.666670000  0.333330000  0.258550000
     0.832840617  0.500022955  0.324749743
     0.000000000  0.666670000  0.258550000
     0.169051079  0.834107878  0.323835350
     0.333330000  0.666670000  0.258550000
     0.500194830  0.832752303  0.324759788
     0.666670000  0.666670000  0.258550000
     0.832934522  0.834054225  0.322011600
     0.004525954  0.333640154  0.379546534
     0.648940311  0.341192140  0.386249406
     0.341931675  0.650466062  0.386296416
     0.517592845  0.518150687  0.408481096

  ion indices of the primitive-cell ions
   primitive index   ion index
                 1           1
                 2           2
                 3           3
                 4           4
                 5           5
                 6           6
                 7           7
                 8           8
                 9           9
                10          10
                11          11
                12          12
                13          13
                14          14
                15          15
                16          16
                17          17
                18          18
                19          19
                20          20
                21          21
                22          22
                23          23
                24          24
                25          25
                26          26
                27          27
                28          28
                29          29
                30          30
                31          31
                32          32
                33          33
                34          34
                35          35
                36          36
                37          37
                38          38
                39          39
                40          40
                41          41
                42          42
                43          43
                44          44
                45          45
                46          46
                47          47
                48          48
                49          49
                50          50
                51          51
                52          52
                53          53
                54          54
                55          55
                56          56
                57          57
                58          58
                59          59
                60          60
                61          61
                62          62
                63          63

----------------------------------------------------------------------------------------

 
 
 KPOINTS: K-Spacing Value to Generate K-Mesh: 0.03

Automatic generation of k-mesh.
 Grid dimensions read from file:
 generate k-points for:    4    4    1

 Generating k-lattice:

  Cartesian coordinates                     Fractional coordinates (reciprocal lattice)
     0.026320223  0.000000000  0.000000000     0.250000000  0.000000000  0.000000000
     0.000000000  0.026320223  0.000000000     0.000000000  0.250000000  0.000000000
     0.000000000  0.000000000  0.040811497     0.000000000  0.000000000  1.000000000

  Length of vectors
     0.026320223  0.026320223  0.040811497

  Shift w.r.t. Gamma in fractional coordinates (k-lattice)
     0.000000000  0.000000000  0.000000000

 TETIRR: Found     48 inequivalent tetrahedra from       96
 
 Subroutine IBZKPT returns following result:
 ===========================================
 
 Found     10 irreducible k-points:
 
 Following reciprocal coordinates:
            Coordinates               Weight
  0.000000  0.000000  0.000000      1.000000
  0.250000  0.000000  0.000000      2.000000
  0.000000  0.250000  0.000000      2.000000
  0.500000  0.000000  0.000000      1.000000
  0.000000  0.500000  0.000000      1.000000
  0.250000  0.250000  0.000000      2.000000
 -0.250000  0.250000  0.000000      2.000000
  0.500000  0.250000  0.000000      2.000000
 -0.250000  0.500000  0.000000      2.000000
  0.500000  0.500000  0.000000      1.000000
 
 Following cartesian coordinates:
            Coordinates               Weight
  0.000000  0.000000  0.000000      1.000000
  0.026320  0.000000  0.000000      2.000000
  0.000000  0.026320  0.000000      2.000000
  0.052640  0.000000  0.000000      1.000000
  0.000000  0.052640  0.000000      1.000000
  0.026320  0.026320  0.000000      2.000000
 -0.026320  0.026320  0.000000      2.000000
  0.052640  0.026320  0.000000      2.000000
 -0.026320  0.052640  0.000000      2.000000
  0.052640  0.052640  0.000000      1.000000
 


--------------------------------------------------------------------------------------------------------




 Dimension of arrays:
   k-points           NKPTS =     10   k-points in BZ     NKDIM =     10   number of bands    NBANDS=    523
   number of dos      NEDOS =    301   number of ions     NIONS =     63
   non local maximal  LDIM  =      6   non local SUM 2l+1 LMDIM =     18
   total plane-waves  NPLWV = 995328
   max r-space proj   IRMAX =   7947   max aug-charges    IRDMAX=  19887
   dimension x,y,z NGX =    72 NGY =   72 NGZ =  192
   dimension x,y,z NGXF=   144 NGYF=  144 NGZF=  384
   support grid    NGXF=   144 NGYF=  144 NGZF=  384
   ions per type =              60   2   1
   NGX,Y,Z   is equivalent  to a cutoff of  12.60, 12.60, 13.03 a.u.
   NGXF,Y,Z  is equivalent  to a cutoff of  25.20, 25.20, 26.05 a.u.

 SYSTEM =  Fe2O3                                   
 POSCAR =  Generated by VASPKIT code               

 Startparameter for this run:
   NWRITE =      2    write-flag & timer
   PREC   = accura    normal or accurate (medium, high low for compatibility)
   ISTART =      1    job   : 0-new  1-cont  2-samecut
   ICHARG =     11    charge: 1-file 2-atom 10-const
   ISPIN  =      1    spin polarized calculation?
   LNONCOLLINEAR =      F non collinear calculations
   LSORBIT =      F    spin-orbit coupling
   INIWAV =      1    electr: 0-lowe 1-rand  2-diag
   LASPH  =      F    aspherical Exc in radial PAW
 Electronic Relaxation 1
   ENCUT  =  530.0 eV  38.95 Ry    6.24 a.u.  17.83 17.83 46.00*2*pi/ulx,y,z
   ENINI  =  530.0     initial cutoff
   ENAUG  =  605.4 eV  augmentation charge cutoff
   NELM   =    100;   NELMIN=  5; NELMDL=  0     # of ELM steps 
   EDIFF  = 0.1E-05   stopping-criterion for ELM
   LREAL  =      T    real-space projection
   NLSPLINE    = F    spline interpolate recip. space projectors
   LCOMPAT=      F    compatible to vasp.4.4
   GGA_COMPAT  = T    GGA compatible to vasp.4.4-vasp.4.6
   LMAXPAW     = -100 max onsite density
   LMAXMIX     =    4 max onsite mixed and CHGCAR
   VOSKOWN=      0    Vosko Wilk Nusair interpolation
   ROPT   =   -0.00025  -0.00025  -0.00025
 Ionic relaxation
   EDIFFG = 0.1E-04   stopping-criterion for IOM
   NSW    =      0    number of steps for IOM
   NBLOCK =      1;   KBLOCK =      1    inner block; outer block 
   IBRION =     -1    ionic relax: 0-MD 1-quasi-New 2-CG
   NFREE  =      0    steps in history (QN), initial steepest desc. (CG)
   ISIF   =      2    stress and relaxation
   IWAVPR =     10    prediction:  0-non 1-charg 2-wave 3-comb
   ISYM   =      2    0-nonsym 1-usesym 2-fastsym
   LCORR  =      T    Harris-Foulkes like correction to forces

   POTIM  = 0.5000    time-step for ionic-motion
   TEIN   =    0.0    initial temperature
   TEBEG  =    0.0;   TEEND  =   0.0 temperature during run
   SMASS  =  -3.00    Nose mass-parameter (am)
   estimated Nose-frequenzy (Omega)   =  0.10E-29 period in steps = 0.13E+47 mass=  -0.206E-26a.u.
   SCALEE = 1.0000    scale energy and forces
   NPACO  =    256;   APACO  = 10.0  distance and # of slots for P.C.
   PSTRESS=    0.0 pullay stress

  Mass of Ions in am
   POMASS =  95.94 92.91 16.00
  Ionic Valenz
   ZVAL   =  14.00 13.00  6.00
  Atomic Wigner-Seitz radii
   RWIGS  =  -1.00 -1.00 -1.00
  virtual crystal weights 
   VCA    =   1.00  1.00  1.00
   NELECT =     872.0000    total number of electrons
   NUPDOWN=      -1.0000    fix difference up-down

 DOS related values:
   EMIN   =  10.00;   EMAX   =-10.00  energy-range for DOS
   EFERMI =   0.00
   ISMEAR =    -5;   SIGMA  =   0.10  broadening in eV -4-tet -1-fermi 0-gaus

 Electronic relaxation 2 (details)
   IALGO  =     38    algorithm
   LDIAG  =      T    sub-space diagonalisation (order eigenvalues)
   LSUBROT=      F    optimize rotation matrix (better conditioning)
   TURBO    =      0    0=normal 1=particle mesh
   IRESTART =      0    0=no restart 2=restart with 2 vectors
   NREBOOT  =      0    no. of reboots
   NMIN     =      0    reboot dimension
   EREF     =   0.00    reference energy to select bands
   IMIX   =      4    mixing-type and parameters
     AMIX     =   0.40;   BMIX     =  1.00
     AMIX_MAG =   1.60;   BMIX_MAG =  1.00
     AMIN     =   0.10
     WC   =   100.;   INIMIX=   1;  MIXPRE=   1;  MAXMIX= -45

 Intra band minimization:
   WEIMIN = 0.0000     energy-eigenvalue tresh-hold
   EBREAK =  0.48E-09  absolut break condition
   DEPER  =   0.30     relativ break condition  

   TIME   =   0.40     timestep for ELM

  volume/ion in A,a.u.               =      35.09       236.80
  Fermi-wavevector in a.u.,A,eV,Ry     =   1.200625  2.268853 19.612818  1.441501
  Thomas-Fermi vector in A             =   2.336456
 
 Write flags
   LWAVE        =      T    write WAVECAR
   LDOWNSAMPLE  =      F    k-point downsampling of WAVECAR
   LCHARG       =      T    write CHGCAR
   LVTOT        =      F    write LOCPOT, total local potential
   LVHAR        =      F    write LOCPOT, Hartree potential only
   LELF         =      F    write electronic localiz. function (ELF)
   LORBIT       =     11    0 simple, 1 ext, 2 COOP (PROOUT), +10 PAW based schemes


 Dipole corrections
   LMONO  =      F    monopole corrections only (constant potential shift)
   LDIPOL =      F    correct potential (dipole corrections)
   IDIPOL =      0    1-x, 2-y, 3-z, 4-all directions 
   EPSILON=  1.0000000 bulk dielectric constant

 Exchange correlation treatment:
   GGA     =    PE    GGA type
   LEXCH   =     8    internal setting for exchange type
   LIBXC   =     F    Libxc                    
   VOSKOWN =     0    Vosko Wilk Nusair interpolation
   LHFCALC =     F    Hartree Fock is set to
   LHFONE  =     F    Hartree Fock one center treatment
   AEXX    =    0.0000 exact exchange contribution

 Linear response parameters
   LEPSILON=     F    determine dielectric tensor
   LRPA    =     F    only Hartree local field effects (RPA)
   LNABLA  =     F    use nabla operator in PAW spheres
   LVEL    =     F    velocity operator in full k-point grid
   CSHIFT  =0.1000    complex shift for real part using Kramers Kronig
   OMEGAMAX=  -1.0    maximum frequency
   DEG_THRESHOLD= 0.2000000E-02 threshold for treating states as degnerate
   RTIME   =   -0.100 relaxation time in fs
  (WPLASMAI=    0.000 imaginary part of plasma frequency in eV, 0.658/RTIME)
   DFIELD  = 0.0000000 0.0000000 0.0000000 field for delta impulse in time
 
  Optional k-point grid parameters
   LKPOINTS_OPT  =     F    use optional k-point grid
   KPOINTS_OPT_MODE=     1    mode for optional k-point grid
 
 Orbital magnetization related:
   ORBITALMAG=     F  switch on orbital magnetization
   LCHIMAG   =     F  perturbation theory with respect to B field
   DQ        =  0.001000  dq finite difference perturbation B field
   LLRAUG    =     F  two centre corrections for induced B field



--------------------------------------------------------------------------------------------------------


 Static calculation
 charge density and potential remain constant during run
 non-spin polarized calculation
 Variant of blocked Davidson
 Davidson routine will perform the subspace rotation
 perform sub-space diagonalisation
    after iterative eigenvector-optimisation
 no mixing
 using additional bands           87
 real space projection scheme for non local part
 use partial core corrections
 calculate Harris-corrections to forces 
   (improved forces if not selfconsistent)
 use gradient corrections 
 WARNING: stress and forces are not correct
  (second derivative of E(xc) not defined)
 use of overlap-Matrix (Vanderbilt PP)
 Fermi weights with tetrahedron method with Bloechl corrections


--------------------------------------------------------------------------------------------------------


  energy-cutoff  :      530.00
  volume of cell :     2210.64
      direct lattice vectors                 reciprocal lattice vectors
     9.498399734  0.000000000  0.000000000     0.105280892  0.000000000  0.000000000
     0.000000000  9.498399734  0.000000000     0.000000000  0.105280892  0.000000000
     0.000000000  0.000000000 24.502899170     0.000000000  0.000000000  0.040811497

  length of vectors
     9.498399734  9.498399734 24.502899170     0.105280892  0.105280892  0.040811497


 
 old parameters found on file WAVECAR:
  energy-cutoff  :      530.00
  volume of cell :     2210.64
      direct lattice vectors                 reciprocal lattice vectors
     9.498399734  0.000000000  0.000000000     0.105280892  0.000000000  0.000000000
     0.000000000  9.498399734  0.000000000     0.000000000  0.105280892  0.000000000
     0.000000000  0.000000000 24.502899170     0.000000000  0.000000000  0.040811497

  length of vectors

 
 k-points in units of 2pi/SCALE and weight: K-Spacing Value to Generate K-Mesh: 0.03
   0.00000000  0.00000000  0.00000000       0.062
   0.02632022  0.00000000  0.00000000       0.125
   0.00000000  0.02632022  0.00000000       0.125
   0.05264045  0.00000000  0.00000000       0.062
   0.00000000  0.05264045  0.00000000       0.062
   0.02632022  0.02632022  0.00000000       0.125
  -0.02632022  0.02632022  0.00000000       0.125
   0.05264045  0.02632022  0.00000000       0.125
  -0.02632022  0.05264045  0.00000000       0.125
   0.05264045  0.05264045  0.00000000       0.062
 
 k-points in reciprocal lattice and weights: K-Spacing Value to Generate K-Mesh: 0.03
   0.00000000  0.00000000  0.00000000       0.062
   0.25000000  0.00000000  0.00000000       0.125
   0.00000000  0.25000000  0.00000000       0.125
   0.50000000  0.00000000  0.00000000       0.062
   0.00000000  0.50000000  0.00000000       0.062
   0.25000000  0.25000000  0.00000000       0.125
  -0.25000000  0.25000000  0.00000000       0.125
   0.50000000  0.25000000  0.00000000       0.125
  -0.25000000  0.50000000  0.00000000       0.125
   0.50000000  0.50000000  0.00000000       0.062
 
 position of ions in fractional coordinates (direct lattice) 
   0.00000000  0.00000000  0.00000000
   0.98776334  0.98426798  0.38282674
   0.16667000  0.16667000  0.06464000
   0.33333000  0.00000000  0.00000000
   0.33267472  0.00303599  0.37958259
   0.50000000  0.16667000  0.06464000
   0.66667000  0.00000000  0.00000000
   0.68363848  0.00530160  0.38150678
   0.83333000  0.16667000  0.06464000
   0.00000000  0.33333000  0.00000000
   0.16667000  0.50000000  0.06464000
   0.33333000  0.33333000  0.00000000
   0.50000000  0.50000000  0.06464000
   0.66667000  0.33333000  0.00000000
   0.83333000  0.50000000  0.06464000
   0.00000000  0.66667000  0.00000000
   0.00076358  0.68721792  0.38187749
   0.16667000  0.83333000  0.06464000
   0.33333000  0.66667000  0.00000000
   0.50000000  0.83333000  0.06464000
   0.66667000  0.66667000  0.00000000
   0.67372575  0.66895550  0.38315481
   0.83333000  0.83333000  0.06464000
   0.00000000  0.00000000  0.12928000
   0.16667000  0.16667000  0.19391000
   0.33333000  0.00000000  0.12928000
   0.50000000  0.16667000  0.19391000
   0.66667000  0.00000000  0.12928000
   0.83333000  0.16667000  0.19391000
   0.00000000  0.33333000  0.12928000
   0.16667000  0.50000000  0.19391000
   0.33333000  0.33333000  0.12928000
   0.50000000  0.50000000  0.19391000
   0.66667000  0.33333000  0.12928000
   0.83333000  0.50000000  0.19391000
   0.00000000  0.66667000  0.12928000
   0.16667000  0.83333000  0.19391000
   0.33333000  0.66667000  0.12928000
   0.50000000  0.83333000  0.19391000
   0.66667000  0.66667000  0.12928000
   0.83333000  0.83333000  0.19391000
   0.00000000  0.00000000  0.25855000
   0.16643962  0.16672480  0.32473393
   0.33333000  0.00000000  0.25855000
   0.49928972  0.16568780  0.32371993
   0.66667000  0.00000000  0.25855000
   0.83403838  0.16903971  0.32414627
   0.00000000  0.33333000  0.25855000
   0.16590622  0.49934286  0.32364385
   0.33333000  0.33333000  0.25855000
   0.49914595  0.49928910  0.32017626
   0.66667000  0.33333000  0.25855000
   0.83284062  0.50002296  0.32474974
   0.00000000  0.66667000  0.25855000
   0.16905108  0.83410788  0.32383535
   0.33333000  0.66667000  0.25855000
   0.50019483  0.83275230  0.32475979
   0.66667000  0.66667000  0.25855000
   0.83293452  0.83405423  0.32201160
   0.00452595  0.33364015  0.37954653
   0.64894031  0.34119214  0.38624941
   0.34193167  0.65046606  0.38629642
   0.51759285  0.51815069  0.40848110
 
 position of ions in cartesian coordinates  (Angst):
   0.00000000  0.00000000  0.00000000
   9.38217104  9.34897069  9.38036501
   1.58309828  1.58309828  1.58386740
   3.16610158  0.00000000  0.00000000
   3.15987744  0.02883706  9.30087391
   4.74919987  1.58309828  1.58386740
   6.33229815  0.00000000  0.00000000
   6.49347151  0.05035667  9.34802229
   7.91530145  1.58309828  1.58386740
   0.00000000  3.16610158  0.00000000
   1.58309828  4.74919987  1.58386740
   3.16610158  3.16610158  0.00000000
   4.74919987  4.74919987  1.58386740
   6.33229815  3.16610158  0.00000000
   7.91530145  4.74919987  1.58386740
   0.00000000  6.33229815  0.00000000
   0.00725276  6.52747049  9.35710571
   1.58309828  7.91530145  1.58386740
   3.16610158  6.33229815  0.00000000
   4.74919987  7.91530145  1.58386740
   6.33229815  6.33229815  0.00000000
   6.39931644  6.35400675  9.38840370
   7.91530145  7.91530145  1.58386740
   0.00000000  0.00000000  3.16773480
   1.58309828  1.58309828  4.75135718
   3.16610158  0.00000000  3.16773480
   4.74919987  1.58309828  4.75135718
   6.33229815  0.00000000  3.16773480
   7.91530145  1.58309828  4.75135718
   0.00000000  3.16610158  3.16773480
   1.58309828  4.74919987  4.75135718
   3.16610158  3.16610158  3.16773480
   4.74919987  4.74919987  4.75135718
   6.33229815  3.16610158  3.16773480
   7.91530145  4.74919987  4.75135718
   0.00000000  6.33229815  3.16773480
   1.58309828  7.91530145  4.75135718
   3.16610158  6.33229815  3.16773480
   4.74919987  7.91530145  4.75135718
   6.33229815  6.33229815  3.16773480
   7.91530145  7.91530145  4.75135718
   0.00000000  0.00000000  6.33522458
   1.58091000  1.58361877  7.95692279
   3.16610158  0.00000000  6.33522458
   4.74245339  1.57376893  7.93207685
   6.33229815  0.00000000  6.33522458
   7.92202995  1.60560678  7.94252331
   0.00000000  3.16610158  6.33522458
   1.57584363  4.74295809  7.93021263
   3.16610158  3.16610158  6.33522458
   4.74108777  4.74244743  7.84524662
   6.33229815  3.16610158  6.33522458
   7.91065309  4.74941790  7.95731022
   0.00000000  6.33229815  6.33522458
   1.60571473  7.92269005  7.93490493
   3.16610158  6.33229815  6.33522458
   4.75105044  7.90981425  7.95755635
   6.33229815  6.33229815  6.33522458
   7.91154504  7.92218043  7.89021777
   0.04298932  3.16904755  9.29999044
   6.16389447  3.24077933  9.46423025
   3.24780373  6.17838667  9.46538212
   4.91630374  4.92160235 10.00897111
 


--------------------------------------------------------------------------------------------------------


 k-point   1 :   0.0000 0.0000 0.0000  plane waves:   61279
 k-point   2 :   0.2500 0.0000 0.0000  plane waves:   61234
 k-point   3 :   0.0000 0.2500 0.0000  plane waves:   61234
 k-point   4 :   0.5000 0.0000 0.0000  plane waves:   61280
 k-point   5 :   0.0000 0.5000 0.0000  plane waves:   61280
 k-point   6 :   0.2500 0.2500 0.0000  plane waves:   61217
 k-point   7 :  -0.2500 0.2500 0.0000  plane waves:   61217
 k-point   8 :   0.5000 0.2500 0.0000  plane waves:   61214
 k-point   9 :  -0.2500 0.5000 0.0000  plane waves:   61214
 k-point  10 :   0.5000 0.5000 0.0000  plane waves:   61212

 maximum and minimum number of plane-waves per node :     61280    61212

 maximum number of plane-waves:     61280
 maximum index in each direction: 
   IXMAX=   18   IYMAX=   17   IZMAX=   45
   IXMIN=  -18   IYMIN=  -18   IZMIN=  -45


 serial   3D FFT for wavefunctions
 parallel 3D FFT for charge:
    minimum data exchange during FFTs selected (reduces bandwidth)


 total amount of memory used by VASP MPI-rank0  2504821. kBytes
=======================================================================

   base      :      30000. kBytes
   nonlr-proj:      83542. kBytes
   fftplans  :     272216. kBytes
   grid      :     551494. kBytes
   one-center:        979. kBytes
   wavefun   :    1566590. kBytes
 
     INWAV:  cpu time     23.2722: real time     11.8684
 initial charge density was supplied:
 number of electron     872.0000116 magnetization 
 keeping initial charge density in first step


--------------------------------------------------------------------------------------------------------


 Maximum index for non-local projection operator         7681
 Maximum index for augmentation-charges        19177 (set IRDMAX)


--------------------------------------------------------------------------------------------------------


 First call to EWALD:  gamma=   0.136
 Maximum number of real-space cells 4x 4x 2
 Maximum number of reciprocal cells 2x 2x 5

    FEWALD:  cpu time      0.0125: real time      0.0063


--------------------------------------- Iteration      1(   1)  ---------------------------------------


    POTLOK:  cpu time     10.4461: real time      1.7561
    SETDIJ:  cpu time      1.6668: real time      0.2384
     EDDAV:  cpu time    131.2128: real time     19.7615
 BZINTS: Fermi energy:    3.480834;  872.000000 electrons
         Band energy:-0.184926E+05;  BLOECHL correction:   -0.030341
       DOS:  cpu time      0.1232: real time      0.0730
    --------------------------------------------
      LOOP:  cpu time    143.4491: real time     21.8291

 eigenvalue-minimisations  : 11216
 total energy-change (2. order) :-0.6493798E+03  (-0.1241298E-05)
 number of electron     872.0000116 magnetization 
 augmentation part      872.0000116 magnetization 

 Free energy of the ion-electron system (eV)
  ---------------------------------------------------
  alpha Z        PSCENC =      3214.99793029
  Ewald energy   TEWEN  =    385706.28691679
  -Hartree energ DENC   =   -491334.66006360
  -exchange      EXHF   =         0.00000000
  -V(xc)+E(xc)   XCENC  =      4049.94845972
  PAW double counting   =     99909.62975210   -98982.52762187
  entropy T*S    EENTRO =         0.00000000
  eigenvalues    EBANDS =    -18492.57647636
  atomic energy  EATOM  =    115279.52134392
  Solvation  Ediel_sol  =         0.00000000
  ---------------------------------------------------
  free energy    TOTEN  =      -649.37975902 eV

  energy without entropy =     -649.37975902  energy(sigma->0) =     -649.37975902


--------------------------------------------------------------------------------------------------------




--------------------------------------- Iteration      1(   2)  ---------------------------------------


     EDDAV:  cpu time     50.6076: real time     13.7950
 BZINTS: Fermi energy:    3.480834;  872.000000 electrons
         Band energy:-0.184926E+05;  BLOECHL correction:   -0.030341
       DOS:  cpu time      0.3718: real time      0.0531
    --------------------------------------------
      LOOP:  cpu time     50.9794: real time     13.8481

 eigenvalue-minimisations  :  6592
 total energy-change (2. order) :-0.1077424E-06  (-0.1078984E-06)
 number of electron     872.0000116 magnetization 
 augmentation part      872.0000116 magnetization 

 Free energy of the ion-electron system (eV)
  ---------------------------------------------------
  alpha Z        PSCENC =      3214.99793029
  Ewald energy   TEWEN  =    385706.28691679
  -Hartree energ DENC   =   -491334.66006360
  -exchange      EXHF   =         0.00000000
  -V(xc)+E(xc)   XCENC  =      4049.94845972
  PAW double counting   =     99909.62975210   -98982.52762187
  entropy T*S    EENTRO =         0.00000000
  eigenvalues    EBANDS =    -18492.57647647
  atomic energy  EATOM  =    115279.52134392
  Solvation  Ediel_sol  =         0.00000000
  ---------------------------------------------------
  free energy    TOTEN  =      -649.37975912 eV

  energy without entropy =     -649.37975912  energy(sigma->0) =     -649.37975912


--------------------------------------------------------------------------------------------------------




--------------------------------------- Iteration      1(   3)  ---------------------------------------


     EDDAV:  cpu time     36.6838: real time     12.9696
 BZINTS: Fermi energy:    3.480834;  872.000000 electrons
         Band energy:-0.184926E+05;  BLOECHL correction:   -0.030341
       DOS:  cpu time      0.3592: real time      0.0515
    --------------------------------------------
      LOOP:  cpu time     37.0430: real time     13.0211

 eigenvalue-minimisations  :  5976
 total energy-change (2. order) :-0.2357410E-07  (-0.2306625E-07)
 number of electron     872.0000116 magnetization 
 augmentation part      872.0000116 magnetization 

 Free energy of the ion-electron system (eV)
  ---------------------------------------------------
  alpha Z        PSCENC =      3214.99793029
  Ewald energy   TEWEN  =    385706.28691679
  -Hartree energ DENC   =   -491334.66006360
  -exchange      EXHF   =         0.00000000
  -V(xc)+E(xc)   XCENC  =      4049.94845972
  PAW double counting   =     99909.62975210   -98982.52762187
  entropy T*S    EENTRO =         0.00000000
  eigenvalues    EBANDS =    -18492.57647650
  atomic energy  EATOM  =    115279.52134392
  Solvation  Ediel_sol  =         0.00000000
  ---------------------------------------------------
  free energy    TOTEN  =      -649.37975915 eV

  energy without entropy =     -649.37975915  energy(sigma->0) =     -649.37975915


--------------------------------------------------------------------------------------------------------




--------------------------------------- Iteration      1(   4)  ---------------------------------------


     EDDAV:  cpu time     36.5517: real time     12.9590
 BZINTS: Fermi energy:    3.480834;  872.000000 electrons
         Band energy:-0.184926E+05;  BLOECHL correction:   -0.030341
       DOS:  cpu time      0.3720: real time      0.0532
    --------------------------------------------
      LOOP:  cpu time     36.9237: real time     13.0121

 eigenvalue-minimisations  :  5936
 total energy-change (2. order) :-0.1309672E-07  (-0.1308502E-07)
 number of electron     872.0000116 magnetization 
 augmentation part      872.0000116 magnetization 

 Free energy of the ion-electron system (eV)
  ---------------------------------------------------
  alpha Z        PSCENC =      3214.99793029
  Ewald energy   TEWEN  =    385706.28691679
  -Hartree energ DENC   =   -491334.66006360
  -exchange      EXHF   =         0.00000000
  -V(xc)+E(xc)   XCENC  =      4049.94845972
  PAW double counting   =     99909.62975210   -98982.52762187
  entropy T*S    EENTRO =         0.00000000
  eigenvalues    EBANDS =    -18492.57647651
  atomic energy  EATOM  =    115279.52134392
  Solvation  Ediel_sol  =         0.00000000
  ---------------------------------------------------
  free energy    TOTEN  =      -649.37975916 eV

  energy without entropy =     -649.37975916  energy(sigma->0) =     -649.37975916


--------------------------------------------------------------------------------------------------------




--------------------------------------- Iteration      1(   5)  ---------------------------------------


     EDDAV:  cpu time     36.6177: real time     12.9613
 BZINTS: Fermi energy:    3.480834;  872.000000 electrons
         Band energy:-0.184926E+05;  BLOECHL correction:   -0.030341
       DOS:  cpu time      0.3670: real time      0.0525
    --------------------------------------------
      LOOP:  cpu time     36.9847: real time     13.0138

 eigenvalue-minimisations  :  5896
 total energy-change (2. order) :-0.8789357E-08  (-0.8800848E-08)
 number of electron     872.0000116 magnetization 
 augmentation part      872.0000116 magnetization 

 Free energy of the ion-electron system (eV)
  ---------------------------------------------------
  alpha Z        PSCENC =      3214.99793029
  Ewald energy   TEWEN  =    385706.28691679
  -Hartree energ DENC   =   -491334.66006360
  -exchange      EXHF   =         0.00000000
  -V(xc)+E(xc)   XCENC  =      4049.94845972
  PAW double counting   =     99909.62975210   -98982.52762187
  entropy T*S    EENTRO =         0.00000000
  eigenvalues    EBANDS =    -18492.57647652
  atomic energy  EATOM  =    115279.52134392
  Solvation  Ediel_sol  =         0.00000000
  ---------------------------------------------------
  free energy    TOTEN  =      -649.37975917 eV

  energy without entropy =     -649.37975917  energy(sigma->0) =     -649.37975917


--------------------------------------------------------------------------------------------------------




 average (electrostatic) potential at core
  the test charge radii are     1.0818  1.0703  0.7215
  (the norm of the test charge is              1.0000)
       1 -78.0365       2 -78.0596       3 -78.2344       4 -78.0379       5 -78.0068
       6 -78.2383       7 -78.0339       8 -78.0132       9 -78.2298      10 -78.0380
      11 -78.2389      12 -78.0430      13 -78.2356      14 -78.0451      15 -78.2364
      16 -78.0350      17 -78.0195      18 -78.2298      19 -78.0453      20 -78.2365
      21 -78.0394      22 -78.3060      23 -78.2285      24 -78.3494      25 -78.2150
      26 -78.3425      27 -78.2190      28 -78.3447      29 -78.2119      30 -78.3446
      31 -78.2164      32 -78.3599      33 -78.2289      34 -78.3551      35 -78.2116
      36 -78.3447      37 -78.2105      38 -78.3552      39 -78.2104      40 -78.3338
      41 -78.2230      42 -78.3781      43 -78.1454      44 -78.3525      45 -78.0776
      46 -78.3393      47 -78.1969      48 -78.3490      49 -78.0744      50 -78.2579
      51 -78.2046      52 -78.3612      53 -78.2563      54 -78.3367      55 -78.2005
      56 -78.3638      57 -78.2543      58 -78.3234      59 -78.1759      60 -78.0000
      61 -85.6260      62 -85.6349      63 -73.7195
 
 
 
 E-fermi :   3.4808     XC(G=0):  -6.8967     alpha+bet : -8.8279

 Fermi energy:         3.4808338588

 k-point     1 :       0.0000    0.0000    0.0000
  band No.  band energies     occupation 
      1     -57.7363      2.00000
      2     -57.6708      2.00000
      3     -57.6466      2.00000
      4     -57.6420      2.00000
      5     -57.6332      2.00000
      6     -57.6299      2.00000
      7     -57.6095      2.00000
      8     -57.6059      2.00000
      9     -57.6036      2.00000
     10     -57.5965      2.00000
     11     -57.5945      2.00000
     12     -57.5884      2.00000
     13     -57.5846      2.00000
     14     -57.5804      2.00000
     15     -57.5740      2.00000
     16     -57.5696      2.00000
     17     -57.5685      2.00000
     18     -57.5535      2.00000
     19     -57.5244      2.00000
     20     -57.5014      2.00000
     21     -57.4864      2.00000
     22     -57.4798      2.00000
     23     -57.4679      2.00000
     24     -57.4643      2.00000
     25     -57.4602      2.00000
     26     -57.4599      2.00000
     27     -57.4572      2.00000
     28     -57.4556      2.00000
     29     -57.4481      2.00000
     30     -57.4461      2.00000
     31     -57.4455      2.00000
     32     -57.4441      2.00000
     33     -57.4423      2.00000
     34     -57.4372      2.00000
     35     -57.4336      2.00000
     36     -57.4304      2.00000
     37     -57.4300      2.00000
     38     -57.4262      2.00000
     39     -57.4177      2.00000
     40     -57.4157      2.00000
     41     -57.4146      2.00000
     42     -57.4146      2.00000
     43     -57.3931      2.00000
     44     -57.3581      2.00000
     45     -57.3378      2.00000
     46     -57.3180      2.00000
     47     -57.2679      2.00000
     48     -57.2521      2.00000
     49     -57.2495      2.00000
     50     -57.2493      2.00000
     51     -57.2459      2.00000
     52     -57.2457      2.00000
     53     -57.2423      2.00000
     54     -57.2412      2.00000
     55     -57.2402      2.00000
     56     -57.2341      2.00000
     57     -57.2277      2.00000
     58     -57.2249      2.00000
     59     -57.2180      2.00000
     60     -57.1846      2.00000
     61     -51.7939      2.00000
     62     -51.7866      2.00000
     63     -32.3070      2.00000
     64     -32.2983      2.00000
     65     -32.2725      2.00000
     66     -32.2550      2.00000
     67     -32.2523      2.00000
     68     -32.2390      2.00000
     69     -32.2374      2.00000
     70     -32.2352      2.00000
     71     -32.2288      2.00000
     72     -32.2243      2.00000
     73     -32.2193      2.00000
     74     -32.2173      2.00000
     75     -32.1612      2.00000
     76     -32.1407      2.00000
     77     -32.1260      2.00000
     78     -32.1181      2.00000
     79     -32.1153      2.00000
     80     -32.1065      2.00000
     81     -32.0966      2.00000
     82     -32.0925      2.00000
     83     -32.0881      2.00000
     84     -32.0847      2.00000
     85     -32.0822      2.00000
     86     -32.0807      2.00000
     87     -32.0786      2.00000
     88     -32.0767      2.00000
     89     -32.0624      2.00000
     90     -32.0608      2.00000
     91     -32.0578      2.00000
     92     -32.0570      2.00000
     93     -32.0373      2.00000
     94     -32.0324      2.00000
     95     -32.0254      2.00000
     96     -32.0230      2.00000
     97     -32.0193      2.00000
     98     -31.9869      2.00000
     99     -31.9776      2.00000
    100     -31.9716      2.00000
    101     -31.9512      2.00000
    102     -31.9496      2.00000
    103     -31.9459      2.00000
    104     -31.9236      2.00000
    105     -31.9179      2.00000
    106     -31.9162      2.00000
    107     -31.8688      2.00000
    108     -31.8578      2.00000
    109     -31.8485      2.00000
    110     -31.8439      2.00000
    111     -31.8173      2.00000
    112     -31.8160      2.00000
    113     -31.8090      2.00000
    114     -31.8018      2.00000
    115     -31.7965      2.00000
    116     -31.7960      2.00000
    117     -31.7704      2.00000
    118     -31.7498      2.00000
    119     -31.7463      2.00000
    120     -31.7374      2.00000
    121     -31.7320      2.00000
    122     -31.7237      2.00000
    123     -31.7177      2.00000
    124     -31.7142      2.00000
    125     -31.7112      2.00000
    126     -31.7069      2.00000
    127     -31.7022      2.00000
    128     -31.7012      2.00000
    129     -31.6868      2.00000
    130     -31.6832      2.00000
    131     -31.6788      2.00000
    132     -31.6523      2.00000
    133     -31.6515      2.00000
    134     -31.6440      2.00000
    135     -31.6381      2.00000
    136     -31.6283      2.00000
    137     -31.6258      2.00000
    138     -31.6228      2.00000
    139     -31.6042      2.00000
    140     -31.6003      2.00000
    141     -31.5919      2.00000
    142     -31.5847      2.00000
    143     -31.5711      2.00000
    144     -31.5646      2.00000
    145     -31.5608      2.00000
    146     -31.5527      2.00000
    147     -31.5380      2.00000
    148     -31.5188      2.00000
    149     -31.5074      2.00000
    150     -31.4980      2.00000
    151     -31.4931      2.00000
    152     -31.4758      2.00000
    153     -31.4698      2.00000
    154     -31.4607      2.00000
    155     -31.4502      2.00000
    156     -31.4425      2.00000
    157     -31.4269      2.00000
    158     -31.4248      2.00000
    159     -31.4198      2.00000
    160     -31.4185      2.00000
    161     -31.4177      2.00000
    162     -31.4163      2.00000
    163     -31.4155      2.00000
    164     -31.4114      2.00000
    165     -31.3911      2.00000
    166     -31.3776      2.00000
    167     -31.3735      2.00000
    168     -31.3675      2.00000
    169     -31.3661      2.00000
    170     -31.3648      2.00000
    171     -31.3607      2.00000
    172     -31.3528      2.00000
    173     -31.3475      2.00000
    174     -31.3408      2.00000
    175     -31.3349      2.00000
    176     -31.3212      2.00000
    177     -31.3175      2.00000
    178     -31.3156      2.00000
    179     -31.3124      2.00000
    180     -31.3042      2.00000
    181     -31.2988      2.00000
    182     -31.2980      2.00000
    183     -31.2913      2.00000
    184     -31.2903      2.00000
    185     -31.2784      2.00000
    186     -31.2717      2.00000
    187     -31.2653      2.00000
    188     -31.2616      2.00000
    189     -31.2599      2.00000
    190     -31.2563      2.00000
    191     -31.2531      2.00000
    192     -31.2503      2.00000
    193     -31.2455      2.00000
    194     -31.2393      2.00000
    195     -31.2371      2.00000
    196     -31.2365      2.00000
    197     -31.2347      2.00000
    198     -31.2237      2.00000
    199     -31.2121      2.00000
    200     -31.2061      2.00000
    201     -31.1934      2.00000
    202     -31.1841      2.00000
    203     -31.1748      2.00000
    204     -31.1622      2.00000
    205     -31.1559      2.00000
    206     -31.1474      2.00000
    207     -31.1390      2.00000
    208     -31.1305      2.00000
    209     -31.1292      2.00000
    210     -31.1289      2.00000
    211     -31.1275      2.00000
    212     -31.1269      2.00000
    213     -31.1216      2.00000
    214     -31.1160      2.00000
    215     -31.1159      2.00000
    216     -31.1149      2.00000
    217     -31.1132      2.00000
    218     -31.1010      2.00000
    219     -31.1004      2.00000
    220     -31.0914      2.00000
    221     -31.0828      2.00000
    222     -31.0772      2.00000
    223     -31.0700      2.00000
    224     -31.0666      2.00000
    225     -31.0656      2.00000
    226     -31.0608      2.00000
    227     -31.0507      2.00000
    228     -31.0457      2.00000
    229     -31.0427      2.00000
    230     -31.0416      2.00000
    231     -31.0393      2.00000
    232     -31.0331      2.00000
    233     -31.0219      2.00000
    234     -31.0186      2.00000
    235     -31.0155      2.00000
    236     -30.9820      2.00000
    237     -30.9692      2.00000
    238     -30.9577      2.00000
    239     -30.9512      2.00000
    240     -30.9314      2.00000
    241     -30.9211      2.00000
    242     -30.9150      2.00000
    243     -27.9823      2.00000
    244     -27.9451      2.00000
    245     -27.8698      2.00000
    246     -27.8447      2.00000
    247     -27.7363      2.00000
    248     -27.7308      2.00000
    249     -16.1864      2.00000
    250      -3.2579      2.00000
    251      -2.9668      2.00000
    252      -2.5722      2.00000
    253      -2.4928      2.00000
    254      -2.2202      2.00000
    255      -1.5981      2.00000
    256      -1.4548      2.00000
    257      -1.4519      2.00000
    258      -1.4509      2.00000
    259      -1.4444      2.00000
    260      -1.4329      2.00000
    261      -1.3850      2.00000
    262      -1.3587      2.00000
    263      -1.3492      2.00000
    264      -1.3425      2.00000
    265      -1.2555      2.00000
    266      -1.2212      2.00000
    267      -1.1773      2.00000
    268      -1.1753      2.00000
    269      -1.0403      2.00000
    270      -1.0370      2.00000
    271      -1.0226      2.00000
    272      -1.0160      2.00000
    273      -1.0095      2.00000
    274      -0.9568      2.00000
    275      -0.9070      2.00000
    276      -0.8844      2.00000
    277      -0.8470      2.00000
    278      -0.8437      2.00000
    279      -0.6558      2.00000
    280      -0.6202      2.00000
    281      -0.6140      2.00000
    282      -0.6065      2.00000
    283      -0.5886      2.00000
    284      -0.5718      2.00000
    285      -0.5643      2.00000
    286      -0.5589      2.00000
    287      -0.5480      2.00000
    288      -0.2018      2.00000
    289      -0.1909      2.00000
    290      -0.1891      2.00000
    291      -0.1513      2.00000
    292      -0.1344      2.00000
    293      -0.1261      2.00000
    294      -0.0747      2.00000
    295      -0.0500      2.00000
    296      -0.0318      2.00000
    297      -0.0210      2.00000
    298      -0.0196      2.00000
    299      -0.0097      2.00000
    300       0.0010      2.00000
    301       0.0120      2.00000
    302       0.0246      2.00000
    303       0.0268      2.00000
    304       0.0464      2.00000
    305       0.0636      2.00000
    306       0.0730      2.00000
    307       0.0742      2.00000
    308       0.0754      2.00000
    309       0.0770      2.00000
    310       0.1077      2.00000
    311       0.1573      2.00000
    312       0.3128      2.00000
    313       0.4006      2.00000
    314       0.4066      2.00000
    315       0.4820      2.00000
    316       0.4928      2.00000
    317       0.5312      2.00000
    318       0.5394      2.00000
    319       0.5467      2.00000
    320       0.5558      2.00000
    321       0.5568      2.00000
    322       0.5728      2.00000
    323       0.5799      2.00000
    324       0.5845      2.00000
    325       0.5853      2.00000
    326       0.6407      2.00000
    327       0.6647      2.00000
    328       0.6761      2.00000
    329       0.6827      2.00000
    330       0.7111      2.00000
    331       0.7226      2.00000
    332       0.7423      2.00000
    333       0.7462      2.00000
    334       0.7665      2.00000
    335       0.7758      2.00000
    336       0.7884      2.00000
    337       0.7997      2.00000
    338       0.8162      2.00000
    339       0.8472      2.00000
    340       0.8594      2.00000
    341       0.8748      2.00000
    342       0.8778      2.00000
    343       0.8811      2.00000
    344       0.9142      2.00000
    345       0.9221      2.00000
    346       0.9678      2.00000
    347       1.0022      2.00000
    348       1.0179      2.00000
    349       1.0824      2.00000
    350       1.1078      2.00000
    351       1.1470      2.00000
    352       1.1852      2.00000
    353       1.2066      2.00000
    354       1.2222      2.00000
    355       1.2316      2.00000
    356       1.2332      2.00000
    357       1.2997      2.00000
    358       1.3143      2.00000
    359       1.3367      2.00000
    360       1.3497      2.00000
    361       1.3553      2.00000
    362       1.3683      2.00000
    363       1.3804      2.00000
    364       1.3847      2.00000
    365       1.3964      2.00000
    366       1.4387      2.00000
    367       1.4496      2.00000
    368       1.4620      2.00000
    369       1.4654      2.00000
    370       1.4791      2.00000
    371       1.4961      2.00000
    372       1.5612      2.00000
    373       1.6311      2.00000
    374       1.6408      2.00000
    375       1.6523      2.00000
    376       1.6798      2.00000
    377       1.6913      2.00000
    378       1.7308      2.00000
    379       1.7426      2.00000
    380       1.8011      2.00000
    381       1.8201      2.00000
    382       1.8277      2.00000
    383       1.8820      2.00000
    384       1.9568      2.00000
    385       1.9827      2.00000
    386       2.0392      2.00000
    387       2.0623      2.00000
    388       2.0716      2.00000
    389       2.1172      2.00000
    390       2.1398      2.00000
    391       2.1649      2.00000
    392       2.1728      2.00000
    393       2.1851      2.00000
    394       2.1929      2.00000
    395       2.2145      2.00000
    396       2.2275      2.00000
    397       2.2440      2.00000
    398       2.2918      2.00000
    399       2.2941      2.00000
    400       2.3101      2.00000
    401       2.3225      2.00000
    402       2.3334      2.00000
    403       2.3503      2.00000
    404       2.3586      2.00000
    405       2.3736      2.00000
    406       2.3978      2.00000
    407       2.4102      2.00000
    408       2.4462      2.00000
    409       2.4602      2.00000
    410       2.5373      2.00000
    411       2.5644      2.00000
    412       2.6190      2.00000
    413       2.6812      2.00000
    414       2.6904      2.00000
    415       2.7172      2.00000
    416       2.7500      2.00000
    417       2.7554      2.00000
    418       2.7721      2.00000
    419       2.7922      2.00000
    420       2.8101      2.00000
    421       2.8476      2.00000
    422       2.9249      2.00000
    423       2.9381      2.00000
    424       2.9599      2.00000
    425       2.9769      2.00000
    426       3.0008      2.00000
    427       3.1211      2.00000
    428       3.2231      2.00000
    429       3.2489      2.00000
    430       3.2546      2.00000
    431       3.2765      2.00000
    432       3.3621      2.00000
    433       3.3723      2.00000
    434       3.4051      2.00000
    435       3.5254      1.26251
    436       3.5680     -0.24971
    437       3.6240     -0.06114
    438       3.6536      0.00000
    439       3.6557      0.00000
    440       3.6918      0.00000
    441       3.7265      0.00000
    442       3.7281      0.00000
    443       3.7287      0.00000
    444       3.7290      0.00000
    445       3.7305      0.00000
    446       3.7932      0.00000
    447       3.7943      0.00000
    448       3.8007      0.00000
    449       3.8137      0.00000
    450       3.8248      0.00000
    451       3.8584      0.00000
    452       3.8676      0.00000
    453       3.8925      0.00000
    454       3.9189      0.00000
    455       3.9258      0.00000
    456       3.9505      0.00000
    457       3.9565      0.00000
    458       3.9976      0.00000
    459       4.0155      0.00000
    460       4.0398      0.00000
    461       4.0709      0.00000
    462       4.1009      0.00000
    463       4.1083      0.00000
    464       4.1204      0.00000
    465       4.1521      0.00000
    466       4.1577      0.00000
    467       4.1616      0.00000
    468       4.2134      0.00000
    469       4.2228      0.00000
    470       4.3146      0.00000
    471       4.3686      0.00000
    472       4.4601      0.00000
    473       4.4645      0.00000
    474       4.5314      0.00000
    475       4.5398      0.00000
    476       4.5550      0.00000
    477       4.5666      0.00000
    478       4.5871      0.00000
    479       4.6025      0.00000
    480       4.6479      0.00000
    481       4.6883      0.00000
    482       4.7064      0.00000
    483       4.7249      0.00000
    484       4.7679      0.00000
    485       4.7778      0.00000
    486       4.7971      0.00000
    487       4.8041      0.00000
    488       4.8150      0.00000
    489       4.8391      0.00000
    490       4.8414      0.00000
    491       4.8583      0.00000
    492       4.8795      0.00000
    493       4.8963      0.00000
    494       4.9230      0.00000
    495       4.9573      0.00000
    496       4.9690      0.00000
    497       4.9701      0.00000
    498       5.0371      0.00000
    499       5.0711      0.00000
    500       5.0789      0.00000
    501       5.1215      0.00000
    502       5.1472      0.00000
    503       5.1514      0.00000
    504       5.1958      0.00000
    505       5.2131      0.00000
    506       5.2352      0.00000
    507       5.2511      0.00000
    508       5.2637      0.00000
    509       5.2916      0.00000
    510       5.2981      0.00000
    511       5.3124      0.00000
    512       5.3543      0.00000
    513       5.3600      0.00000
    514       5.3803      0.00000
    515       5.4108      0.00000
    516       5.4278      0.00000
    517       5.4896      0.00000
    518       5.5068      0.00000
    519       5.5093      0.00000
    520       5.5211      0.00000
    521       5.5343      0.00000
    522       5.5414      0.00000
    523       5.5452      0.00000

 k-point     2 :       0.2500    0.0000    0.0000
  band No.  band energies     occupation 
      1     -57.7292      2.00000
      2     -57.6783      2.00000
      3     -57.6636      2.00000
      4     -57.6382      2.00000
      5     -57.6328      2.00000
      6     -57.6250      2.00000
      7     -57.6104      2.00000
      8     -57.6074      2.00000
      9     -57.6030      2.00000
     10     -57.5986      2.00000
     11     -57.5940      2.00000
     12     -57.5859      2.00000
     13     -57.5826      2.00000
     14     -57.5773      2.00000
     15     -57.5727      2.00000
     16     -57.5668      2.00000
     17     -57.5634      2.00000
     18     -57.5520      2.00000
     19     -57.5220      2.00000
     20     -57.5015      2.00000
     21     -57.4878      2.00000
     22     -57.4795      2.00000
     23     -57.4699      2.00000
     24     -57.4639      2.00000
     25     -57.4598      2.00000
     26     -57.4583      2.00000
     27     -57.4564      2.00000
     28     -57.4556      2.00000
     29     -57.4508      2.00000
     30     -57.4485      2.00000
     31     -57.4467      2.00000
     32     -57.4458      2.00000
     33     -57.4426      2.00000
     34     -57.4423      2.00000
     35     -57.4368      2.00000
     36     -57.4337      2.00000
     37     -57.4285      2.00000
     38     -57.4267      2.00000
     39     -57.4238      2.00000
     40     -57.4173      2.00000
     41     -57.4157      2.00000
     42     -57.3998      2.00000
     43     -57.3863      2.00000
     44     -57.3610      2.00000
     45     -57.3359      2.00000
     46     -57.3187      2.00000
     47     -57.2692      2.00000
     48     -57.2552      2.00000
     49     -57.2503      2.00000
     50     -57.2484      2.00000
     51     -57.2463      2.00000
     52     -57.2436      2.00000
     53     -57.2419      2.00000
     54     -57.2405      2.00000
     55     -57.2384      2.00000
     56     -57.2383      2.00000
     57     -57.2279      2.00000
     58     -57.2267      2.00000
     59     -57.2108      2.00000
     60     -57.1869      2.00000
     61     -51.7939      2.00000
     62     -51.7866      2.00000
     63     -32.3322      2.00000
     64     -32.3006      2.00000
     65     -32.2909      2.00000
     66     -32.2670      2.00000
     67     -32.2469      2.00000
     68     -32.2389      2.00000
     69     -32.2336      2.00000
     70     -32.2187      2.00000
     71     -32.2064      2.00000
     72     -32.1935      2.00000
     73     -32.1797      2.00000
     74     -32.1703      2.00000
     75     -32.1687      2.00000
     76     -32.1626      2.00000
     77     -32.1564      2.00000
     78     -32.1519      2.00000
     79     -32.1397      2.00000
     80     -32.1346      2.00000
     81     -32.1226      2.00000
     82     -32.1164      2.00000
     83     -32.1127      2.00000
     84     -32.1057      2.00000
     85     -32.0996      2.00000
     86     -32.0924      2.00000
     87     -32.0852      2.00000
     88     -32.0739      2.00000
     89     -32.0685      2.00000
     90     -32.0546      2.00000
     91     -32.0501      2.00000
     92     -32.0397      2.00000
     93     -32.0340      2.00000
     94     -32.0231      2.00000
     95     -32.0049      2.00000
     96     -31.9978      2.00000
     97     -31.9915      2.00000
     98     -31.9830      2.00000
     99     -31.9714      2.00000
    100     -31.9592      2.00000
    101     -31.9446      2.00000
    102     -31.9292      2.00000
    103     -31.9227      2.00000
    104     -31.9114      2.00000
    105     -31.9004      2.00000
    106     -31.8946      2.00000
    107     -31.8769      2.00000
    108     -31.8578      2.00000
    109     -31.8512      2.00000
    110     -31.8383      2.00000
    111     -31.8360      2.00000
    112     -31.8294      2.00000
    113     -31.8161      2.00000
    114     -31.8114      2.00000
    115     -31.7980      2.00000
    116     -31.7829      2.00000
    117     -31.7681      2.00000
    118     -31.7565      2.00000
    119     -31.7439      2.00000
    120     -31.7423      2.00000
    121     -31.7344      2.00000
    122     -31.7267      2.00000
    123     -31.7220      2.00000
    124     -31.7146      2.00000
    125     -31.7058      2.00000
    126     -31.6958      2.00000
    127     -31.6924      2.00000
    128     -31.6874      2.00000
    129     -31.6828      2.00000
    130     -31.6778      2.00000
    131     -31.6725      2.00000
    132     -31.6633      2.00000
    133     -31.6593      2.00000
    134     -31.6467      2.00000
    135     -31.6396      2.00000
    136     -31.6274      2.00000
    137     -31.6148      2.00000
    138     -31.6075      2.00000
    139     -31.5945      2.00000
    140     -31.5908      2.00000
    141     -31.5776      2.00000
    142     -31.5716      2.00000
    143     -31.5634      2.00000
    144     -31.5584      2.00000
    145     -31.5548      2.00000
    146     -31.5413      2.00000
    147     -31.5355      2.00000
    148     -31.5241      2.00000
    149     -31.5159      2.00000
    150     -31.5009      2.00000
    151     -31.4920      2.00000
    152     -31.4861      2.00000
    153     -31.4772      2.00000
    154     -31.4688      2.00000
    155     -31.4657      2.00000
    156     -31.4549      2.00000
    157     -31.4460      2.00000
    158     -31.4383      2.00000
    159     -31.4374      2.00000
    160     -31.4348      2.00000
    161     -31.4303      2.00000
    162     -31.4231      2.00000
    163     -31.4209      2.00000
    164     -31.4171      2.00000
    165     -31.4065      2.00000
    166     -31.4051      2.00000
    167     -31.4004      2.00000
    168     -31.3902      2.00000
    169     -31.3841      2.00000
    170     -31.3770      2.00000
    171     -31.3688      2.00000
    172     -31.3655      2.00000
    173     -31.3515      2.00000
    174     -31.3487      2.00000
    175     -31.3420      2.00000
    176     -31.3212      2.00000
    177     -31.3143      2.00000
    178     -31.3073      2.00000
    179     -31.3009      2.00000
    180     -31.2975      2.00000
    181     -31.2935      2.00000
    182     -31.2908      2.00000
    183     -31.2849      2.00000
    184     -31.2806      2.00000
    185     -31.2779      2.00000
    186     -31.2742      2.00000
    187     -31.2685      2.00000
    188     -31.2630      2.00000
    189     -31.2545      2.00000
    190     -31.2461      2.00000
    191     -31.2423      2.00000
    192     -31.2357      2.00000
    193     -31.2326      2.00000
    194     -31.2267      2.00000
    195     -31.2215      2.00000
    196     -31.2175      2.00000
    197     -31.2148      2.00000
    198     -31.2082      2.00000
    199     -31.1992      2.00000
    200     -31.1926      2.00000
    201     -31.1906      2.00000
    202     -31.1831      2.00000
    203     -31.1770      2.00000
    204     -31.1693      2.00000
    205     -31.1612      2.00000
    206     -31.1569      2.00000
    207     -31.1547      2.00000
    208     -31.1501      2.00000
    209     -31.1349      2.00000
    210     -31.1312      2.00000
    211     -31.1216      2.00000
    212     -31.1201      2.00000
    213     -31.1168      2.00000
    214     -31.1115      2.00000
    215     -31.1054      2.00000
    216     -31.1029      2.00000
    217     -31.1012      2.00000
    218     -31.0955      2.00000
    219     -31.0902      2.00000
    220     -31.0889      2.00000
    221     -31.0832      2.00000
    222     -31.0799      2.00000
    223     -31.0768      2.00000
    224     -31.0742      2.00000
    225     -31.0645      2.00000
    226     -31.0625      2.00000
    227     -31.0532      2.00000
    228     -31.0521      2.00000
    229     -31.0444      2.00000
    230     -31.0417      2.00000
    231     -31.0355      2.00000
    232     -31.0296      2.00000
    233     -31.0265      2.00000
    234     -31.0256      2.00000
    235     -31.0128      2.00000
    236     -30.9821      2.00000
    237     -30.9698      2.00000
    238     -30.9591      2.00000
    239     -30.9543      2.00000
    240     -30.9371      2.00000
    241     -30.9251      2.00000
    242     -30.9167      2.00000
    243     -27.9822      2.00000
    244     -27.9452      2.00000
    245     -27.8698      2.00000
    246     -27.8447      2.00000
    247     -27.7363      2.00000
    248     -27.7307      2.00000
    249     -16.1864      2.00000
    250      -3.1212      2.00000
    251      -2.9617      2.00000
    252      -2.5666      2.00000
    253      -2.4960      2.00000
    254      -2.1277      2.00000
    255      -2.0673      2.00000
    256      -1.5208      2.00000
    257      -1.4814      2.00000
    258      -1.4166      2.00000
    259      -1.3944      2.00000
    260      -1.3547      2.00000
    261      -1.3504      2.00000
    262      -1.3410      2.00000
    263      -1.2313      2.00000
    264      -1.2063      2.00000
    265      -1.1111      2.00000
    266      -1.0603      2.00000
    267      -1.0551      2.00000
    268      -1.0505      2.00000
    269      -1.0432      2.00000
    270      -1.0184      2.00000
    271      -1.0051      2.00000
    272      -0.9446      2.00000
    273      -0.9184      2.00000
    274      -0.8926      2.00000
    275      -0.8828      2.00000
    276      -0.8703      2.00000
    277      -0.8423      2.00000
    278      -0.8149      2.00000
    279      -0.7857      2.00000
    280      -0.7478      2.00000
    281      -0.7125      2.00000
    282      -0.5747      2.00000
    283      -0.4907      2.00000
    284      -0.4366      2.00000
    285      -0.4298      2.00000
    286      -0.3781      2.00000
    287      -0.3718      2.00000
    288      -0.3655      2.00000
    289      -0.3089      2.00000
    290      -0.3000      2.00000
    291      -0.2885      2.00000
    292      -0.2497      2.00000
    293      -0.2251      2.00000
    294      -0.2039      2.00000
    295      -0.1454      2.00000
    296      -0.1295      2.00000
    297      -0.1019      2.00000
    298      -0.0946      2.00000
    299      -0.0436      2.00000
    300      -0.0228      2.00000
    301      -0.0073      2.00000
    302       0.0000      2.00000
    303       0.0153      2.00000
    304       0.0307      2.00000
    305       0.0557      2.00000
    306       0.1102      2.00000
    307       0.1693      2.00000
    308       0.1869      2.00000
    309       0.1895      2.00000
    310       0.2687      2.00000
    311       0.3229      2.00000
    312       0.3343      2.00000
    313       0.3466      2.00000
    314       0.3601      2.00000
    315       0.3726      2.00000
    316       0.3975      2.00000
    317       0.4095      2.00000
    318       0.4225      2.00000
    319       0.4489      2.00000
    320       0.4726      2.00000
    321       0.4876      2.00000
    322       0.5052      2.00000
    323       0.5205      2.00000
    324       0.5403      2.00000
    325       0.5627      2.00000
    326       0.5906      2.00000
    327       0.5966      2.00000
    328       0.6151      2.00000
    329       0.6215      2.00000
    330       0.6443      2.00000
    331       0.6608      2.00000
    332       0.6796      2.00000
    333       0.6973      2.00000
    334       0.7127      2.00000
    335       0.7372      2.00000
    336       0.7550      2.00000
    337       0.7610      2.00000
    338       0.7864      2.00000
    339       0.8049      2.00000
    340       0.8180      2.00000
    341       0.8441      2.00000
    342       0.8733      2.00000
    343       0.8922      2.00000
    344       0.9046      2.00000
    345       0.9192      2.00000
    346       0.9638      2.00000
    347       0.9860      2.00000
    348       0.9902      2.00000
    349       1.0171      2.00000
    350       1.0436      2.00000
    351       1.0503      2.00000
    352       1.0833      2.00000
    353       1.1144      2.00000
    354       1.1329      2.00000
    355       1.1576      2.00000
    356       1.1772      2.00000
    357       1.2090      2.00000
    358       1.2233      2.00000
    359       1.2642      2.00000
    360       1.2788      2.00000
    361       1.3240      2.00000
    362       1.3523      2.00000
    363       1.3936      2.00000
    364       1.4263      2.00000
    365       1.4739      2.00000
    366       1.4831      2.00000
    367       1.4936      2.00000
    368       1.5146      2.00000
    369       1.5421      2.00000
    370       1.5957      2.00000
    371       1.6421      2.00000
    372       1.6541      2.00000
    373       1.6637      2.00000
    374       1.6817      2.00000
    375       1.7127      2.00000
    376       1.7504      2.00000
    377       1.7634      2.00000
    378       1.7970      2.00000
    379       1.8088      2.00000
    380       1.8483      2.00000
    381       1.8595      2.00000
    382       1.8996      2.00000
    383       1.9207      2.00000
    384       1.9487      2.00000
    385       1.9630      2.00000
    386       1.9827      2.00000
    387       1.9995      2.00000
    388       2.0131      2.00000
    389       2.0319      2.00000
    390       2.0463      2.00000
    391       2.0639      2.00000
    392       2.0928      2.00000
    393       2.1204      2.00000
    394       2.1458      2.00000
    395       2.1728      2.00000
    396       2.2028      2.00000
    397       2.2194      2.00000
    398       2.2358      2.00000
    399       2.2618      2.00000
    400       2.2732      2.00000
    401       2.2941      2.00000
    402       2.3131      2.00000
    403       2.3389      2.00000
    404       2.3867      2.00000
    405       2.4179      2.00000
    406       2.4291      2.00000
    407       2.4543      2.00000
    408       2.4763      2.00000
    409       2.4988      2.00000
    410       2.5375      2.00000
    411       2.5898      2.00000
    412       2.6077      2.00000
    413       2.6437      2.00000
    414       2.6686      2.00000
    415       2.7206      2.00000
    416       2.7383      2.00000
    417       2.8099      2.00000
    418       2.8434      2.00000
    419       2.8573      2.00000
    420       2.8705      2.00000
    421       2.8905      2.00000
    422       2.9213      2.00000
    423       2.9564      2.00000
    424       2.9987      2.00000
    425       3.0308      2.00000
    426       3.0826      2.00000
    427       3.1017      2.00000
    428       3.1361      2.00000
    429       3.1845      2.00000
    430       3.2197      2.00000
    431       3.2585      2.00000
    432       3.2850      2.00000
    433       3.3074      2.00000
    434       3.3370      2.00000
    435       3.3743      2.03665
    436       3.4497      1.85622
    437       3.5105     -0.12950
    438       3.5454      0.00000
    439       3.5510      0.00000
    440       3.5733      0.00000
    441       3.6091      0.00000
    442       3.7353      0.00000
    443       3.7653      0.00000
    444       3.7863      0.00000
    445       3.8135      0.00000
    446       3.8386      0.00000
    447       3.8680      0.00000
    448       3.8738      0.00000
    449       3.8942      0.00000
    450       3.9223      0.00000
    451       3.9320      0.00000
    452       3.9478      0.00000
    453       3.9821      0.00000
    454       3.9965      0.00000
    455       4.0277      0.00000
    456       4.0508      0.00000
    457       4.1008      0.00000
    458       4.1102      0.00000
    459       4.1509      0.00000
    460       4.1821      0.00000
    461       4.2547      0.00000
    462       4.2937      0.00000
    463       4.3197      0.00000
    464       4.3268      0.00000
    465       4.3468      0.00000
    466       4.3784      0.00000
    467       4.4085      0.00000
    468       4.4179      0.00000
    469       4.4280      0.00000
    470       4.4439      0.00000
    471       4.4762      0.00000
    472       4.4908      0.00000
    473       4.4973      0.00000
    474       4.5251      0.00000
    475       4.5398      0.00000
    476       4.5744      0.00000
    477       4.5917      0.00000
    478       4.6275      0.00000
    479       4.6408      0.00000
    480       4.6620      0.00000
    481       4.6806      0.00000
    482       4.6974      0.00000
    483       4.7158      0.00000
    484       4.7442      0.00000
    485       4.7749      0.00000
    486       4.7901      0.00000
    487       4.8058      0.00000
    488       4.8250      0.00000
    489       4.8523      0.00000
    490       4.8659      0.00000
    491       4.8678      0.00000
    492       4.8999      0.00000
    493       4.9137      0.00000
    494       4.9285      0.00000
    495       4.9437      0.00000
    496       4.9545      0.00000
    497       5.0065      0.00000
    498       5.0244      0.00000
    499       5.0564      0.00000
    500       5.0941      0.00000
    501       5.1132      0.00000
    502       5.1496      0.00000
    503       5.1789      0.00000
    504       5.1912      0.00000
    505       5.2013      0.00000
    506       5.2108      0.00000
    507       5.2233      0.00000
    508       5.2375      0.00000
    509       5.2691      0.00000
    510       5.2795      0.00000
    511       5.2869      0.00000
    512       5.2955      0.00000
    513       5.3243      0.00000
    514       5.3328      0.00000
    515       5.3551      0.00000
    516       5.3801      0.00000
    517       5.4169      0.00000
    518       5.4275      0.00000
    519       5.4666      0.00000
    520       5.4890      0.00000
    521       5.5157      0.00000
    522       5.5426      0.00000
    523       5.5518      0.00000

 k-point     3 :       0.0000    0.2500    0.0000
  band No.  band energies     occupation 
      1     -57.7292      2.00000
      2     -57.6784      2.00000
      3     -57.6633      2.00000
      4     -57.6378      2.00000
      5     -57.6335      2.00000
      6     -57.6248      2.00000
      7     -57.6105      2.00000
      8     -57.6076      2.00000
      9     -57.6033      2.00000
     10     -57.5983      2.00000
     11     -57.5941      2.00000
     12     -57.5858      2.00000
     13     -57.5826      2.00000
     14     -57.5768      2.00000
     15     -57.5729      2.00000
     16     -57.5668      2.00000
     17     -57.5633      2.00000
     18     -57.5520      2.00000
     19     -57.5221      2.00000
     20     -57.5023      2.00000
     21     -57.4866      2.00000
     22     -57.4796      2.00000
     23     -57.4698      2.00000
     24     -57.4644      2.00000
     25     -57.4598      2.00000
     26     -57.4584      2.00000
     27     -57.4565      2.00000
     28     -57.4551      2.00000
     29     -57.4508      2.00000
     30     -57.4485      2.00000
     31     -57.4467      2.00000
     32     -57.4457      2.00000
     33     -57.4428      2.00000
     34     -57.4424      2.00000
     35     -57.4366      2.00000
     36     -57.4332      2.00000
     37     -57.4289      2.00000
     38     -57.4266      2.00000
     39     -57.4239      2.00000
     40     -57.4171      2.00000
     41     -57.4159      2.00000
     42     -57.3999      2.00000
     43     -57.3863      2.00000
     44     -57.3611      2.00000
     45     -57.3365      2.00000
     46     -57.3183      2.00000
     47     -57.2687      2.00000
     48     -57.2552      2.00000
     49     -57.2502      2.00000
     50     -57.2485      2.00000
     51     -57.2464      2.00000
     52     -57.2437      2.00000
     53     -57.2417      2.00000
     54     -57.2404      2.00000
     55     -57.2386      2.00000
     56     -57.2382      2.00000
     57     -57.2282      2.00000
     58     -57.2267      2.00000
     59     -57.2113      2.00000
     60     -57.1866      2.00000
     61     -51.7939      2.00000
     62     -51.7866      2.00000
     63     -32.3298      2.00000
     64     -32.3055      2.00000
     65     -32.2907      2.00000
     66     -32.2642      2.00000
     67     -32.2479      2.00000
     68     -32.2387      2.00000
     69     -32.2330      2.00000
     70     -32.2190      2.00000
     71     -32.2061      2.00000
     72     -32.1943      2.00000
     73     -32.1789      2.00000
     74     -32.1704      2.00000
     75     -32.1681      2.00000
     76     -32.1639      2.00000
     77     -32.1569      2.00000
     78     -32.1512      2.00000
     79     -32.1386      2.00000
     80     -32.1333      2.00000
     81     -32.1226      2.00000
     82     -32.1172      2.00000
     83     -32.1131      2.00000
     84     -32.1046      2.00000
     85     -32.1003      2.00000
     86     -32.0906      2.00000
     87     -32.0852      2.00000
     88     -32.0760      2.00000
     89     -32.0686      2.00000
     90     -32.0551      2.00000
     91     -32.0516      2.00000
     92     -32.0399      2.00000
     93     -32.0342      2.00000
     94     -32.0211      2.00000
     95     -32.0090      2.00000
     96     -31.9961      2.00000
     97     -31.9907      2.00000
     98     -31.9825      2.00000
     99     -31.9704      2.00000
    100     -31.9597      2.00000
    101     -31.9440      2.00000
    102     -31.9301      2.00000
    103     -31.9232      2.00000
    104     -31.9115      2.00000
    105     -31.9014      2.00000
    106     -31.8943      2.00000
    107     -31.8751      2.00000
    108     -31.8571      2.00000
    109     -31.8498      2.00000
    110     -31.8393      2.00000
    111     -31.8341      2.00000
    112     -31.8291      2.00000
    113     -31.8172      2.00000
    114     -31.8118      2.00000
    115     -31.7962      2.00000
    116     -31.7847      2.00000
    117     -31.7699      2.00000
    118     -31.7602      2.00000
    119     -31.7452      2.00000
    120     -31.7414      2.00000
    121     -31.7358      2.00000
    122     -31.7261      2.00000
    123     -31.7213      2.00000
    124     -31.7148      2.00000
    125     -31.7033      2.00000
    126     -31.6968      2.00000
    127     -31.6903      2.00000
    128     -31.6865      2.00000
    129     -31.6835      2.00000
    130     -31.6777      2.00000
    131     -31.6696      2.00000
    132     -31.6639      2.00000
    133     -31.6592      2.00000
    134     -31.6473      2.00000
    135     -31.6403      2.00000
    136     -31.6274      2.00000
    137     -31.6151      2.00000
    138     -31.6073      2.00000
    139     -31.5945      2.00000
    140     -31.5912      2.00000
    141     -31.5777      2.00000
    142     -31.5717      2.00000
    143     -31.5630      2.00000
    144     -31.5589      2.00000
    145     -31.5549      2.00000
    146     -31.5429      2.00000
    147     -31.5361      2.00000
    148     -31.5226      2.00000
    149     -31.5147      2.00000
    150     -31.5001      2.00000
    151     -31.4927      2.00000
    152     -31.4856      2.00000
    153     -31.4776      2.00000
    154     -31.4689      2.00000
    155     -31.4636      2.00000
    156     -31.4557      2.00000
    157     -31.4457      2.00000
    158     -31.4381      2.00000
    159     -31.4370      2.00000
    160     -31.4344      2.00000
    161     -31.4297      2.00000
    162     -31.4231      2.00000
    163     -31.4211      2.00000
    164     -31.4177      2.00000
    165     -31.4060      2.00000
    166     -31.4052      2.00000
    167     -31.3992      2.00000
    168     -31.3912      2.00000
    169     -31.3845      2.00000
    170     -31.3796      2.00000
    171     -31.3689      2.00000
    172     -31.3649      2.00000
    173     -31.3556      2.00000
    174     -31.3473      2.00000
    175     -31.3417      2.00000
    176     -31.3188      2.00000
    177     -31.3144      2.00000
    178     -31.3082      2.00000
    179     -31.3014      2.00000
    180     -31.2973      2.00000
    181     -31.2937      2.00000
    182     -31.2911      2.00000
    183     -31.2846      2.00000
    184     -31.2799      2.00000
    185     -31.2785      2.00000
    186     -31.2736      2.00000
    187     -31.2687      2.00000
    188     -31.2624      2.00000
    189     -31.2550      2.00000
    190     -31.2464      2.00000
    191     -31.2429      2.00000
    192     -31.2360      2.00000
    193     -31.2320      2.00000
    194     -31.2262      2.00000
    195     -31.2209      2.00000
    196     -31.2176      2.00000
    197     -31.2141      2.00000
    198     -31.2083      2.00000
    199     -31.1992      2.00000
    200     -31.1940      2.00000
    201     -31.1919      2.00000
    202     -31.1826      2.00000
    203     -31.1777      2.00000
    204     -31.1691      2.00000
    205     -31.1606      2.00000
    206     -31.1570      2.00000
    207     -31.1541      2.00000
    208     -31.1500      2.00000
    209     -31.1373      2.00000
    210     -31.1291      2.00000
    211     -31.1212      2.00000
    212     -31.1201      2.00000
    213     -31.1181      2.00000
    214     -31.1111      2.00000
    215     -31.1053      2.00000
    216     -31.1027      2.00000
    217     -31.1005      2.00000
    218     -31.0939      2.00000
    219     -31.0902      2.00000
    220     -31.0883      2.00000
    221     -31.0832      2.00000
    222     -31.0793      2.00000
    223     -31.0770      2.00000
    224     -31.0742      2.00000
    225     -31.0648      2.00000
    226     -31.0627      2.00000
    227     -31.0537      2.00000
    228     -31.0522      2.00000
    229     -31.0462      2.00000
    230     -31.0415      2.00000
    231     -31.0351      2.00000
    232     -31.0284      2.00000
    233     -31.0267      2.00000
    234     -31.0257      2.00000
    235     -31.0125      2.00000
    236     -30.9828      2.00000
    237     -30.9694      2.00000
    238     -30.9601      2.00000
    239     -30.9546      2.00000
    240     -30.9352      2.00000
    241     -30.9252      2.00000
    242     -30.9174      2.00000
    243     -27.9822      2.00000
    244     -27.9452      2.00000
    245     -27.8698      2.00000
    246     -27.8447      2.00000
    247     -27.7363      2.00000
    248     -27.7307      2.00000
    249     -16.1864      2.00000
    250      -3.1210      2.00000
    251      -2.9613      2.00000
    252      -2.5678      2.00000
    253      -2.4959      2.00000
    254      -2.1279      2.00000
    255      -2.0673      2.00000
    256      -1.5225      2.00000
    257      -1.4813      2.00000
    258      -1.4173      2.00000
    259      -1.3937      2.00000
    260      -1.3555      2.00000
    261      -1.3498      2.00000
    262      -1.3404      2.00000
    263      -1.2303      2.00000
    264      -1.2063      2.00000
    265      -1.1101      2.00000
    266      -1.0598      2.00000
    267      -1.0546      2.00000
    268      -1.0520      2.00000
    269      -1.0430      2.00000
    270      -1.0188      2.00000
    271      -1.0052      2.00000
    272      -0.9449      2.00000
    273      -0.9194      2.00000
    274      -0.8930      2.00000
    275      -0.8829      2.00000
    276      -0.8687      2.00000
    277      -0.8423      2.00000
    278      -0.8154      2.00000
    279      -0.7835      2.00000
    280      -0.7486      2.00000
    281      -0.7116      2.00000
    282      -0.5742      2.00000
    283      -0.4889      2.00000
    284      -0.4370      2.00000
    285      -0.4312      2.00000
    286      -0.3773      2.00000
    287      -0.3743      2.00000
    288      -0.3641      2.00000
    289      -0.3087      2.00000
    290      -0.2999      2.00000
    291      -0.2889      2.00000
    292      -0.2476      2.00000
    293      -0.2260      2.00000
    294      -0.2045      2.00000
    295      -0.1468      2.00000
    296      -0.1281      2.00000
    297      -0.1027      2.00000
    298      -0.0943      2.00000
    299      -0.0419      2.00000
    300      -0.0236      2.00000
    301      -0.0063      2.00000
    302      -0.0001      2.00000
    303       0.0167      2.00000
    304       0.0286      2.00000
    305       0.0566      2.00000
    306       0.1087      2.00000
    307       0.1756      2.00000
    308       0.1872      2.00000
    309       0.1910      2.00000
    310       0.2688      2.00000
    311       0.3204      2.00000
    312       0.3317      2.00000
    313       0.3457      2.00000
    314       0.3603      2.00000
    315       0.3746      2.00000
    316       0.3967      2.00000
    317       0.4077      2.00000
    318       0.4215      2.00000
    319       0.4502      2.00000
    320       0.4732      2.00000
    321       0.4876      2.00000
    322       0.5087      2.00000
    323       0.5204      2.00000
    324       0.5422      2.00000
    325       0.5635      2.00000
    326       0.5869      2.00000
    327       0.6004      2.00000
    328       0.6169      2.00000
    329       0.6222      2.00000
    330       0.6443      2.00000
    331       0.6583      2.00000
    332       0.6814      2.00000
    333       0.6942      2.00000
    334       0.7129      2.00000
    335       0.7386      2.00000
    336       0.7527      2.00000
    337       0.7617      2.00000
    338       0.7870      2.00000
    339       0.8060      2.00000
    340       0.8169      2.00000
    341       0.8448      2.00000
    342       0.8735      2.00000
    343       0.8902      2.00000
    344       0.9043      2.00000
    345       0.9194      2.00000
    346       0.9645      2.00000
    347       0.9880      2.00000
    348       0.9904      2.00000
    349       1.0185      2.00000
    350       1.0435      2.00000
    351       1.0511      2.00000
    352       1.0837      2.00000
    353       1.1125      2.00000
    354       1.1310      2.00000
    355       1.1597      2.00000
    356       1.1781      2.00000
    357       1.2064      2.00000
    358       1.2215      2.00000
    359       1.2647      2.00000
    360       1.2765      2.00000
    361       1.3233      2.00000
    362       1.3525      2.00000
    363       1.3934      2.00000
    364       1.4218      2.00000
    365       1.4763      2.00000
    366       1.4824      2.00000
    367       1.4937      2.00000
    368       1.5169      2.00000
    369       1.5402      2.00000
    370       1.5990      2.00000
    371       1.6421      2.00000
    372       1.6534      2.00000
    373       1.6641      2.00000
    374       1.6798      2.00000
    375       1.7137      2.00000
    376       1.7478      2.00000
    377       1.7628      2.00000
    378       1.7970      2.00000
    379       1.8070      2.00000
    380       1.8488      2.00000
    381       1.8620      2.00000
    382       1.8985      2.00000
    383       1.9215      2.00000
    384       1.9480      2.00000
    385       1.9619      2.00000
    386       1.9815      2.00000
    387       2.0012      2.00000
    388       2.0119      2.00000
    389       2.0331      2.00000
    390       2.0442      2.00000
    391       2.0639      2.00000
    392       2.0909      2.00000
    393       2.1207      2.00000
    394       2.1466      2.00000
    395       2.1689      2.00000
    396       2.1998      2.00000
    397       2.2211      2.00000
    398       2.2326      2.00000
    399       2.2619      2.00000
    400       2.2741      2.00000
    401       2.2933      2.00000
    402       2.3094      2.00000
    403       2.3380      2.00000
    404       2.3862      2.00000
    405       2.4108      2.00000
    406       2.4328      2.00000
    407       2.4528      2.00000
    408       2.4777      2.00000
    409       2.4987      2.00000
    410       2.5320      2.00000
    411       2.5898      2.00000
    412       2.6012      2.00000
    413       2.6465      2.00000
    414       2.6675      2.00000
    415       2.7201      2.00000
    416       2.7497      2.00000
    417       2.8102      2.00000
    418       2.8469      2.00000
    419       2.8624      2.00000
    420       2.8712      2.00000
    421       2.8907      2.00000
    422       2.9203      2.00000
    423       2.9592      2.00000
    424       2.9925      2.00000
    425       3.0200      2.00000
    426       3.0815      2.00000
    427       3.0987      2.00000
    428       3.1354      2.00000
    429       3.1866      2.00000
    430       3.2172      2.00000
    431       3.2544      2.00000
    432       3.2851      2.00000
    433       3.3071      2.00000
    434       3.3404      2.00000
    435       3.3687      2.04048
    436       3.4597      1.80041
    437       3.5134     -0.10182
    438       3.5451      0.00000
    439       3.5499      0.00000
    440       3.5737      0.00000
    441       3.6243      0.00000
    442       3.7373      0.00000
    443       3.7743      0.00000
    444       3.7873      0.00000
    445       3.8145      0.00000
    446       3.8424      0.00000
    447       3.8666      0.00000
    448       3.8739      0.00000
    449       3.8889      0.00000
    450       3.9112      0.00000
    451       3.9326      0.00000
    452       3.9606      0.00000
    453       3.9831      0.00000
    454       3.9938      0.00000
    455       4.0400      0.00000
    456       4.0490      0.00000
    457       4.1049      0.00000
    458       4.1143      0.00000
    459       4.1550      0.00000
    460       4.1775      0.00000
    461       4.2486      0.00000
    462       4.2864      0.00000
    463       4.3170      0.00000
    464       4.3272      0.00000
    465       4.3436      0.00000
    466       4.3775      0.00000
    467       4.4098      0.00000
    468       4.4173      0.00000
    469       4.4283      0.00000
    470       4.4457      0.00000
    471       4.4746      0.00000
    472       4.4905      0.00000
    473       4.4922      0.00000
    474       4.5216      0.00000
    475       4.5424      0.00000
    476       4.5765      0.00000
    477       4.5919      0.00000
    478       4.6321      0.00000
    479       4.6418      0.00000
    480       4.6648      0.00000
    481       4.6813      0.00000
    482       4.6972      0.00000
    483       4.7136      0.00000
    484       4.7452      0.00000
    485       4.7710      0.00000
    486       4.7892      0.00000
    487       4.8075      0.00000
    488       4.8266      0.00000
    489       4.8505      0.00000
    490       4.8659      0.00000
    491       4.8692      0.00000
    492       4.8991      0.00000
    493       4.9138      0.00000
    494       4.9264      0.00000
    495       4.9446      0.00000
    496       4.9594      0.00000
    497       5.0072      0.00000
    498       5.0226      0.00000
    499       5.0585      0.00000
    500       5.0942      0.00000
    501       5.1091      0.00000
    502       5.1529      0.00000
    503       5.1767      0.00000
    504       5.1935      0.00000
    505       5.2002      0.00000
    506       5.2109      0.00000
    507       5.2241      0.00000
    508       5.2377      0.00000
    509       5.2687      0.00000
    510       5.2773      0.00000
    511       5.2888      0.00000
    512       5.2943      0.00000
    513       5.3209      0.00000
    514       5.3338      0.00000
    515       5.3527      0.00000
    516       5.3816      0.00000
    517       5.4162      0.00000
    518       5.4245      0.00000
    519       5.4709      0.00000
    520       5.4898      0.00000
    521       5.5058      0.00000
    522       5.5335      0.00000
    523       5.5534      0.00000

 k-point     4 :       0.5000    0.0000    0.0000
  band No.  band energies     occupation 
      1     -57.7109      2.00000
      2     -57.7061      2.00000
      3     -57.6536      2.00000
      4     -57.6469      2.00000
      5     -57.6291      2.00000
      6     -57.6244      2.00000
      7     -57.6184      2.00000
      8     -57.6170      2.00000
      9     -57.5977      2.00000
     10     -57.5942      2.00000
     11     -57.5906      2.00000
     12     -57.5904      2.00000
     13     -57.5776      2.00000
     14     -57.5740      2.00000
     15     -57.5691      2.00000
     16     -57.5632      2.00000
     17     -57.5600      2.00000
     18     -57.5505      2.00000
     19     -57.5191      2.00000
     20     -57.5023      2.00000
     21     -57.4884      2.00000
     22     -57.4788      2.00000
     23     -57.4724      2.00000
     24     -57.4642      2.00000
     25     -57.4617      2.00000
     26     -57.4575      2.00000
     27     -57.4565      2.00000
     28     -57.4547      2.00000
     29     -57.4538      2.00000
     30     -57.4509      2.00000
     31     -57.4501      2.00000
     32     -57.4480      2.00000
     33     -57.4462      2.00000
     34     -57.4437      2.00000
     35     -57.4364      2.00000
     36     -57.4339      2.00000
     37     -57.4286      2.00000
     38     -57.4245      2.00000
     39     -57.4217      2.00000
     40     -57.4186      2.00000
     41     -57.4167      2.00000
     42     -57.3980      2.00000
     43     -57.3733      2.00000
     44     -57.3684      2.00000
     45     -57.3338      2.00000
     46     -57.3196      2.00000
     47     -57.2705      2.00000
     48     -57.2572      2.00000
     49     -57.2501      2.00000
     50     -57.2485      2.00000
     51     -57.2463      2.00000
     52     -57.2438      2.00000
     53     -57.2417      2.00000
     54     -57.2410      2.00000
     55     -57.2401      2.00000
     56     -57.2332      2.00000
     57     -57.2305      2.00000
     58     -57.2280      2.00000
     59     -57.2041      2.00000
     60     -57.1905      2.00000
     61     -51.7939      2.00000
     62     -51.7866      2.00000
     63     -32.3473      2.00000
     64     -32.3155      2.00000
     65     -32.2859      2.00000
     66     -32.2627      2.00000
     67     -32.2388      2.00000
     68     -32.2320      2.00000
     69     -32.2181      2.00000
     70     -32.2083      2.00000
     71     -32.2030      2.00000
     72     -32.1962      2.00000
     73     -32.1879      2.00000
     74     -32.1834      2.00000
     75     -32.1729      2.00000
     76     -32.1699      2.00000
     77     -32.1668      2.00000
     78     -32.1495      2.00000
     79     -32.1431      2.00000
     80     -32.1362      2.00000
     81     -32.1245      2.00000
     82     -32.1214      2.00000
     83     -32.1131      2.00000
     84     -32.1074      2.00000
     85     -32.0985      2.00000
     86     -32.0854      2.00000
     87     -32.0810      2.00000
     88     -32.0777      2.00000
     89     -32.0681      2.00000
     90     -32.0659      2.00000
     91     -32.0567      2.00000
     92     -32.0543      2.00000
     93     -32.0489      2.00000
     94     -32.0352      2.00000
     95     -32.0265      2.00000
     96     -32.0081      2.00000
     97     -31.9946      2.00000
     98     -31.9707      2.00000
     99     -31.9493      2.00000
    100     -31.9307      2.00000
    101     -31.9213      2.00000
    102     -31.9197      2.00000
    103     -31.9026      2.00000
    104     -31.8951      2.00000
    105     -31.8877      2.00000
    106     -31.8755      2.00000
    107     -31.8714      2.00000
    108     -31.8604      2.00000
    109     -31.8542      2.00000
    110     -31.8441      2.00000
    111     -31.8222      2.00000
    112     -31.8150      2.00000
    113     -31.8137      2.00000
    114     -31.8101      2.00000
    115     -31.8009      2.00000
    116     -31.7762      2.00000
    117     -31.7727      2.00000
    118     -31.7624      2.00000
    119     -31.7569      2.00000
    120     -31.7408      2.00000
    121     -31.7348      2.00000
    122     -31.7316      2.00000
    123     -31.7269      2.00000
    124     -31.7220      2.00000
    125     -31.7178      2.00000
    126     -31.7096      2.00000
    127     -31.6973      2.00000
    128     -31.6893      2.00000
    129     -31.6789      2.00000
    130     -31.6745      2.00000
    131     -31.6621      2.00000
    132     -31.6493      2.00000
    133     -31.6449      2.00000
    134     -31.6380      2.00000
    135     -31.6285      2.00000
    136     -31.6204      2.00000
    137     -31.6096      2.00000
    138     -31.6077      2.00000
    139     -31.5795      2.00000
    140     -31.5739      2.00000
    141     -31.5661      2.00000
    142     -31.5532      2.00000
    143     -31.5483      2.00000
    144     -31.5471      2.00000
    145     -31.5419      2.00000
    146     -31.5375      2.00000
    147     -31.5346      2.00000
    148     -31.5270      2.00000
    149     -31.5206      2.00000
    150     -31.5124      2.00000
    151     -31.5073      2.00000
    152     -31.4999      2.00000
    153     -31.4908      2.00000
    154     -31.4880      2.00000
    155     -31.4805      2.00000
    156     -31.4757      2.00000
    157     -31.4705      2.00000
    158     -31.4613      2.00000
    159     -31.4526      2.00000
    160     -31.4481      2.00000
    161     -31.4446      2.00000
    162     -31.4435      2.00000
    163     -31.4328      2.00000
    164     -31.4259      2.00000
    165     -31.4208      2.00000
    166     -31.4076      2.00000
    167     -31.4053      2.00000
    168     -31.4034      2.00000
    169     -31.3864      2.00000
    170     -31.3789      2.00000
    171     -31.3755      2.00000
    172     -31.3649      2.00000
    173     -31.3524      2.00000
    174     -31.3446      2.00000
    175     -31.3368      2.00000
    176     -31.3312      2.00000
    177     -31.3270      2.00000
    178     -31.3242      2.00000
    179     -31.3164      2.00000
    180     -31.3084      2.00000
    181     -31.2924      2.00000
    182     -31.2827      2.00000
    183     -31.2779      2.00000
    184     -31.2667      2.00000
    185     -31.2565      2.00000
    186     -31.2502      2.00000
    187     -31.2475      2.00000
    188     -31.2444      2.00000
    189     -31.2426      2.00000
    190     -31.2399      2.00000
    191     -31.2368      2.00000
    192     -31.2333      2.00000
    193     -31.2307      2.00000
    194     -31.2293      2.00000
    195     -31.2247      2.00000
    196     -31.2125      2.00000
    197     -31.2054      2.00000
    198     -31.2036      2.00000
    199     -31.2022      2.00000
    200     -31.1906      2.00000
    201     -31.1836      2.00000
    202     -31.1758      2.00000
    203     -31.1748      2.00000
    204     -31.1678      2.00000
    205     -31.1666      2.00000
    206     -31.1574      2.00000
    207     -31.1507      2.00000
    208     -31.1470      2.00000
    209     -31.1455      2.00000
    210     -31.1343      2.00000
    211     -31.1256      2.00000
    212     -31.1164      2.00000
    213     -31.1146      2.00000
    214     -31.1072      2.00000
    215     -31.0952      2.00000
    216     -31.0916      2.00000
    217     -31.0871      2.00000
    218     -31.0865      2.00000
    219     -31.0852      2.00000
    220     -31.0838      2.00000
    221     -31.0833      2.00000
    222     -31.0825      2.00000
    223     -31.0763      2.00000
    224     -31.0675      2.00000
    225     -31.0667      2.00000
    226     -31.0658      2.00000
    227     -31.0651      2.00000
    228     -31.0545      2.00000
    229     -31.0530      2.00000
    230     -31.0481      2.00000
    231     -31.0422      2.00000
    232     -31.0350      2.00000
    233     -31.0314      2.00000
    234     -31.0249      2.00000
    235     -31.0077      2.00000
    236     -30.9796      2.00000
    237     -30.9695      2.00000
    238     -30.9623      2.00000
    239     -30.9572      2.00000
    240     -30.9437      2.00000
    241     -30.9286      2.00000
    242     -30.9186      2.00000
    243     -27.9822      2.00000
    244     -27.9453      2.00000
    245     -27.8698      2.00000
    246     -27.8447      2.00000
    247     -27.7364      2.00000
    248     -27.7307      2.00000
    249     -16.1863      2.00000
    250      -2.9754      2.00000
    251      -2.7397      2.00000
    252      -2.7023      2.00000
    253      -2.5344      2.00000
    254      -2.4652      2.00000
    255      -1.8550      2.00000
    256      -1.7870      2.00000
    257      -1.4839      2.00000
    258      -1.4346      2.00000
    259      -1.2809      2.00000
    260      -1.2192      2.00000
    261      -1.1683      2.00000
    262      -1.1558      2.00000
    263      -1.1383      2.00000
    264      -1.1237      2.00000
    265      -1.0588      2.00000
    266      -1.0393      2.00000
    267      -1.0163      2.00000
    268      -0.9953      2.00000
    269      -0.9788      2.00000
    270      -0.9503      2.00000
    271      -0.9401      2.00000
    272      -0.8674      2.00000
    273      -0.8565      2.00000
    274      -0.8391      2.00000
    275      -0.8276      2.00000
    276      -0.8186      2.00000
    277      -0.7974      2.00000
    278      -0.7715      2.00000
    279      -0.7433      2.00000
    280      -0.7354      2.00000
    281      -0.7245      2.00000
    282      -0.7007      2.00000
    283      -0.6882      2.00000
    284      -0.6390      2.00000
    285      -0.4160      2.00000
    286      -0.3867      2.00000
    287      -0.3701      2.00000
    288      -0.3541      2.00000
    289      -0.3198      2.00000
    290      -0.3116      2.00000
    291      -0.2853      2.00000
    292      -0.2532      2.00000
    293      -0.2379      2.00000
    294      -0.2289      2.00000
    295      -0.2008      2.00000
    296      -0.1880      2.00000
    297      -0.1745      2.00000
    298      -0.1386      2.00000
    299      -0.1057      2.00000
    300      -0.1030      2.00000
    301      -0.0590      2.00000
    302      -0.0322      2.00000
    303       0.0225      2.00000
    304       0.0439      2.00000
    305       0.0502      2.00000
    306       0.0979      2.00000
    307       0.1289      2.00000
    308       0.1380      2.00000
    309       0.1424      2.00000
    310       0.1600      2.00000
    311       0.2126      2.00000
    312       0.2912      2.00000
    313       0.3302      2.00000
    314       0.3920      2.00000
    315       0.4133      2.00000
    316       0.4183      2.00000
    317       0.4252      2.00000
    318       0.4362      2.00000
    319       0.4379      2.00000
    320       0.4450      2.00000
    321       0.4493      2.00000
    322       0.4633      2.00000
    323       0.4938      2.00000
    324       0.5097      2.00000
    325       0.5260      2.00000
    326       0.5559      2.00000
    327       0.5729      2.00000
    328       0.5776      2.00000
    329       0.5825      2.00000
    330       0.6068      2.00000
    331       0.6352      2.00000
    332       0.6390      2.00000
    333       0.6702      2.00000
    334       0.6785      2.00000
    335       0.6859      2.00000
    336       0.6956      2.00000
    337       0.7069      2.00000
    338       0.7217      2.00000
    339       0.7418      2.00000
    340       0.7612      2.00000
    341       0.7985      2.00000
    342       0.8061      2.00000
    343       0.8290      2.00000
    344       0.8482      2.00000
    345       0.8666      2.00000
    346       0.8704      2.00000
    347       0.8884      2.00000
    348       0.9080      2.00000
    349       1.0418      2.00000
    350       1.0841      2.00000
    351       1.0971      2.00000
    352       1.1265      2.00000
    353       1.1412      2.00000
    354       1.1579      2.00000
    355       1.1742      2.00000
    356       1.1910      2.00000
    357       1.2028      2.00000
    358       1.2486      2.00000
    359       1.3230      2.00000
    360       1.3515      2.00000
    361       1.3711      2.00000
    362       1.3944      2.00000
    363       1.4101      2.00000
    364       1.4171      2.00000
    365       1.4446      2.00000
    366       1.4553      2.00000
    367       1.4893      2.00000
    368       1.5172      2.00000
    369       1.5289      2.00000
    370       1.5379      2.00000
    371       1.5669      2.00000
    372       1.5853      2.00000
    373       1.5920      2.00000
    374       1.6209      2.00000
    375       1.6610      2.00000
    376       1.6928      2.00000
    377       1.7106      2.00000
    378       1.8050      2.00000
    379       1.8393      2.00000
    380       1.8714      2.00000
    381       1.8960      2.00000
    382       1.9040      2.00000
    383       1.9176      2.00000
    384       1.9422      2.00000
    385       1.9599      2.00000
    386       1.9928      2.00000
    387       2.0051      2.00000
    388       2.0225      2.00000
    389       2.0378      2.00000
    390       2.0502      2.00000
    391       2.0658      2.00000
    392       2.0781      2.00000
    393       2.0805      2.00000
    394       2.1037      2.00000
    395       2.1314      2.00000
    396       2.1443      2.00000
    397       2.1502      2.00000
    398       2.1754      2.00000
    399       2.2060      2.00000
    400       2.2172      2.00000
    401       2.2740      2.00000
    402       2.2874      2.00000
    403       2.3050      2.00000
    404       2.3307      2.00000
    405       2.3611      2.00000
    406       2.4074      2.00000
    407       2.4458      2.00000
    408       2.5535      2.00000
    409       2.6019      2.00000
    410       2.6151      2.00000
    411       2.6657      2.00000
    412       2.6840      2.00000
    413       2.7383      2.00000
    414       2.7572      2.00000
    415       2.7717      2.00000
    416       2.8033      2.00000
    417       2.8054      2.00000
    418       2.8272      2.00000
    419       2.8657      2.00000
    420       2.8918      2.00000
    421       2.9367      2.00000
    422       2.9662      2.00000
    423       2.9783      2.00000
    424       3.0124      2.00000
    425       3.0621      2.00000
    426       3.1343      2.00000
    427       3.1429      2.00000
    428       3.1631      2.00000
    429       3.1865      2.00000
    430       3.2165      2.00000
    431       3.2254      2.00000
    432       3.2896      2.00000
    433       3.2997      2.00000
    434       3.3516      2.00000
    435       3.3630      2.00000
    436       3.4040      2.00000
    437       3.4394      2.49606
    438       3.5243      0.00000
    439       3.5707      0.00000
    440       3.6131      0.00000
    441       3.6230      0.00000
    442       3.6458      0.00000
    443       3.6823      0.00000
    444       3.7221      0.00000
    445       3.7565      0.00000
    446       3.7859      0.00000
    447       3.8446      0.00000
    448       3.9002      0.00000
    449       3.9054      0.00000
    450       3.9091      0.00000
    451       3.9763      0.00000
    452       4.0165      0.00000
    453       4.0742      0.00000
    454       4.0917      0.00000
    455       4.1176      0.00000
    456       4.1559      0.00000
    457       4.1824      0.00000
    458       4.2136      0.00000
    459       4.2385      0.00000
    460       4.2617      0.00000
    461       4.2809      0.00000
    462       4.3279      0.00000
    463       4.3781      0.00000
    464       4.4098      0.00000
    465       4.4330      0.00000
    466       4.4926      0.00000
    467       4.5229      0.00000
    468       4.5517      0.00000
    469       4.5760      0.00000
    470       4.5835      0.00000
    471       4.5980      0.00000
    472       4.6069      0.00000
    473       4.6119      0.00000
    474       4.6196      0.00000
    475       4.6338      0.00000
    476       4.6385      0.00000
    477       4.6414      0.00000
    478       4.6671      0.00000
    479       4.6895      0.00000
    480       4.6978      0.00000
    481       4.7427      0.00000
    482       4.7603      0.00000
    483       4.7770      0.00000
    484       4.8070      0.00000
    485       4.8352      0.00000
    486       4.8645      0.00000
    487       4.8905      0.00000
    488       4.9028      0.00000
    489       4.9150      0.00000
    490       4.9185      0.00000
    491       4.9232      0.00000
    492       4.9318      0.00000
    493       4.9354      0.00000
    494       4.9515      0.00000
    495       4.9544      0.00000
    496       4.9710      0.00000
    497       4.9768      0.00000
    498       5.0170      0.00000
    499       5.0263      0.00000
    500       5.0516      0.00000
    501       5.0653      0.00000
    502       5.0856      0.00000
    503       5.1094      0.00000
    504       5.1254      0.00000
    505       5.1655      0.00000
    506       5.1910      0.00000
    507       5.2067      0.00000
    508       5.2343      0.00000
    509       5.2470      0.00000
    510       5.2596      0.00000
    511       5.2674      0.00000
    512       5.2773      0.00000
    513       5.3061      0.00000
    514       5.3511      0.00000
    515       5.3639      0.00000
    516       5.3869      0.00000
    517       5.4037      0.00000
    518       5.4320      0.00000
    519       5.4409      0.00000
    520       5.4700      0.00000
    521       5.5193      0.00000
    522       5.5528      0.00000
    523       5.5817      0.00000

 k-point     5 :       0.0000    0.5000    0.0000
  band No.  band energies     occupation 
      1     -57.7111      2.00000
      2     -57.7059      2.00000
      3     -57.6536      2.00000
      4     -57.6463      2.00000
      5     -57.6296      2.00000
      6     -57.6242      2.00000
      7     -57.6184      2.00000
      8     -57.6174      2.00000
      9     -57.5981      2.00000
     10     -57.5947      2.00000
     11     -57.5913      2.00000
     12     -57.5892      2.00000
     13     -57.5774      2.00000
     14     -57.5732      2.00000
     15     -57.5692      2.00000
     16     -57.5630      2.00000
     17     -57.5601      2.00000
     18     -57.5505      2.00000
     19     -57.5193      2.00000
     20     -57.5040      2.00000
     21     -57.4863      2.00000
     22     -57.4790      2.00000
     23     -57.4722      2.00000
     24     -57.4650      2.00000
     25     -57.4618      2.00000
     26     -57.4572      2.00000
     27     -57.4563      2.00000
     28     -57.4547      2.00000
     29     -57.4537      2.00000
     30     -57.4506      2.00000
     31     -57.4505      2.00000
     32     -57.4477      2.00000
     33     -57.4465      2.00000
     34     -57.4437      2.00000
     35     -57.4362      2.00000
     36     -57.4337      2.00000
     37     -57.4289      2.00000
     38     -57.4247      2.00000
     39     -57.4218      2.00000
     40     -57.4186      2.00000
     41     -57.4167      2.00000
     42     -57.3980      2.00000
     43     -57.3735      2.00000
     44     -57.3684      2.00000
     45     -57.3352      2.00000
     46     -57.3186      2.00000
     47     -57.2696      2.00000
     48     -57.2572      2.00000
     49     -57.2500      2.00000
     50     -57.2486      2.00000
     51     -57.2463      2.00000
     52     -57.2439      2.00000
     53     -57.2415      2.00000
     54     -57.2411      2.00000
     55     -57.2400      2.00000
     56     -57.2334      2.00000
     57     -57.2304      2.00000
     58     -57.2283      2.00000
     59     -57.2053      2.00000
     60     -57.1896      2.00000
     61     -51.7939      2.00000
     62     -51.7866      2.00000
     63     -32.3452      2.00000
     64     -32.3177      2.00000
     65     -32.2888      2.00000
     66     -32.2607      2.00000
     67     -32.2386      2.00000
     68     -32.2315      2.00000
     69     -32.2198      2.00000
     70     -32.2061      2.00000
     71     -32.2008      2.00000
     72     -32.1973      2.00000
     73     -32.1872      2.00000
     74     -32.1837      2.00000
     75     -32.1729      2.00000
     76     -32.1697      2.00000
     77     -32.1673      2.00000
     78     -32.1500      2.00000
     79     -32.1413      2.00000
     80     -32.1368      2.00000
     81     -32.1229      2.00000
     82     -32.1203      2.00000
     83     -32.1154      2.00000
     84     -32.1083      2.00000
     85     -32.0987      2.00000
     86     -32.0861      2.00000
     87     -32.0808      2.00000
     88     -32.0785      2.00000
     89     -32.0696      2.00000
     90     -32.0649      2.00000
     91     -32.0565      2.00000
     92     -32.0540      2.00000
     93     -32.0494      2.00000
     94     -32.0363      2.00000
     95     -32.0249      2.00000
     96     -32.0054      2.00000
     97     -31.9990      2.00000
     98     -31.9740      2.00000
     99     -31.9450      2.00000
    100     -31.9317      2.00000
    101     -31.9202      2.00000
    102     -31.9169      2.00000
    103     -31.8987      2.00000
    104     -31.8973      2.00000
    105     -31.8895      2.00000
    106     -31.8774      2.00000
    107     -31.8713      2.00000
    108     -31.8610      2.00000
    109     -31.8554      2.00000
    110     -31.8447      2.00000
    111     -31.8234      2.00000
    112     -31.8149      2.00000
    113     -31.8136      2.00000
    114     -31.8080      2.00000
    115     -31.7976      2.00000
    116     -31.7781      2.00000
    117     -31.7723      2.00000
    118     -31.7610      2.00000
    119     -31.7562      2.00000
    120     -31.7421      2.00000
    121     -31.7368      2.00000
    122     -31.7360      2.00000
    123     -31.7265      2.00000
    124     -31.7226      2.00000
    125     -31.7178      2.00000
    126     -31.7119      2.00000
    127     -31.6956      2.00000
    128     -31.6891      2.00000
    129     -31.6789      2.00000
    130     -31.6727      2.00000
    131     -31.6617      2.00000
    132     -31.6486      2.00000
    133     -31.6438      2.00000
    134     -31.6365      2.00000
    135     -31.6271      2.00000
    136     -31.6190      2.00000
    137     -31.6109      2.00000
    138     -31.6077      2.00000
    139     -31.5793      2.00000
    140     -31.5731      2.00000
    141     -31.5680      2.00000
    142     -31.5532      2.00000
    143     -31.5490      2.00000
    144     -31.5479      2.00000
    145     -31.5429      2.00000
    146     -31.5376      2.00000
    147     -31.5351      2.00000
    148     -31.5268      2.00000
    149     -31.5202      2.00000
    150     -31.5111      2.00000
    151     -31.5069      2.00000
    152     -31.4973      2.00000
    153     -31.4928      2.00000
    154     -31.4880      2.00000
    155     -31.4812      2.00000
    156     -31.4770      2.00000
    157     -31.4702      2.00000
    158     -31.4598      2.00000
    159     -31.4509      2.00000
    160     -31.4450      2.00000
    161     -31.4439      2.00000
    162     -31.4426      2.00000
    163     -31.4322      2.00000
    164     -31.4278      2.00000
    165     -31.4223      2.00000
    166     -31.4061      2.00000
    167     -31.4051      2.00000
    168     -31.4026      2.00000
    169     -31.3899      2.00000
    170     -31.3816      2.00000
    171     -31.3752      2.00000
    172     -31.3645      2.00000
    173     -31.3573      2.00000
    174     -31.3433      2.00000
    175     -31.3371      2.00000
    176     -31.3304      2.00000
    177     -31.3266      2.00000
    178     -31.3221      2.00000
    179     -31.3159      2.00000
    180     -31.3090      2.00000
    181     -31.2910      2.00000
    182     -31.2823      2.00000
    183     -31.2783      2.00000
    184     -31.2719      2.00000
    185     -31.2566      2.00000
    186     -31.2508      2.00000
    187     -31.2475      2.00000
    188     -31.2436      2.00000
    189     -31.2420      2.00000
    190     -31.2396      2.00000
    191     -31.2360      2.00000
    192     -31.2335      2.00000
    193     -31.2296      2.00000
    194     -31.2282      2.00000
    195     -31.2232      2.00000
    196     -31.2115      2.00000
    197     -31.2082      2.00000
    198     -31.2045      2.00000
    199     -31.2033      2.00000
    200     -31.1893      2.00000
    201     -31.1856      2.00000
    202     -31.1750      2.00000
    203     -31.1744      2.00000
    204     -31.1679      2.00000
    205     -31.1661      2.00000
    206     -31.1593      2.00000
    207     -31.1503      2.00000
    208     -31.1454      2.00000
    209     -31.1451      2.00000
    210     -31.1346      2.00000
    211     -31.1260      2.00000
    212     -31.1166      2.00000
    213     -31.1150      2.00000
    214     -31.1066      2.00000
    215     -31.0968      2.00000
    216     -31.0904      2.00000
    217     -31.0872      2.00000
    218     -31.0864      2.00000
    219     -31.0852      2.00000
    220     -31.0839      2.00000
    221     -31.0834      2.00000
    222     -31.0822      2.00000
    223     -31.0714      2.00000
    224     -31.0674      2.00000
    225     -31.0664      2.00000
    226     -31.0658      2.00000
    227     -31.0651      2.00000
    228     -31.0548      2.00000
    229     -31.0531      2.00000
    230     -31.0478      2.00000
    231     -31.0441      2.00000
    232     -31.0350      2.00000
    233     -31.0316      2.00000
    234     -31.0245      2.00000
    235     -31.0095      2.00000
    236     -30.9796      2.00000
    237     -30.9690      2.00000
    238     -30.9621      2.00000
    239     -30.9605      2.00000
    240     -30.9389      2.00000
    241     -30.9293      2.00000
    242     -30.9199      2.00000
    243     -27.9822      2.00000
    244     -27.9453      2.00000
    245     -27.8698      2.00000
    246     -27.8447      2.00000
    247     -27.7364      2.00000
    248     -27.7307      2.00000
    249     -16.1863      2.00000
    250      -2.9735      2.00000
    251      -2.7406      2.00000
    252      -2.7027      2.00000
    253      -2.5364      2.00000
    254      -2.4651      2.00000
    255      -1.8555      2.00000
    256      -1.7871      2.00000
    257      -1.4854      2.00000
    258      -1.4340      2.00000
    259      -1.2827      2.00000
    260      -1.2187      2.00000
    261      -1.1687      2.00000
    262      -1.1562      2.00000
    263      -1.1382      2.00000
    264      -1.1239      2.00000
    265      -1.0567      2.00000
    266      -1.0389      2.00000
    267      -1.0154      2.00000
    268      -0.9945      2.00000
    269      -0.9775      2.00000
    270      -0.9497      2.00000
    271      -0.9434      2.00000
    272      -0.8683      2.00000
    273      -0.8558      2.00000
    274      -0.8392      2.00000
    275      -0.8278      2.00000
    276      -0.8194      2.00000
    277      -0.7965      2.00000
    278      -0.7696      2.00000
    279      -0.7402      2.00000
    280      -0.7359      2.00000
    281      -0.7247      2.00000
    282      -0.7000      2.00000
    283      -0.6875      2.00000
    284      -0.6388      2.00000
    285      -0.4146      2.00000
    286      -0.3882      2.00000
    287      -0.3700      2.00000
    288      -0.3541      2.00000
    289      -0.3194      2.00000
    290      -0.3093      2.00000
    291      -0.2833      2.00000
    292      -0.2549      2.00000
    293      -0.2388      2.00000
    294      -0.2280      2.00000
    295      -0.1999      2.00000
    296      -0.1883      2.00000
    297      -0.1744      2.00000
    298      -0.1393      2.00000
    299      -0.1052      2.00000
    300      -0.1029      2.00000
    301      -0.0591      2.00000
    302      -0.0326      2.00000
    303       0.0212      2.00000
    304       0.0393      2.00000
    305       0.0535      2.00000
    306       0.0971      2.00000
    307       0.1277      2.00000
    308       0.1379      2.00000
    309       0.1432      2.00000
    310       0.1607      2.00000
    311       0.2184      2.00000
    312       0.2961      2.00000
    313       0.3269      2.00000
    314       0.3935      2.00000
    315       0.4121      2.00000
    316       0.4182      2.00000
    317       0.4254      2.00000
    318       0.4365      2.00000
    319       0.4395      2.00000
    320       0.4448      2.00000
    321       0.4484      2.00000
    322       0.4625      2.00000
    323       0.4948      2.00000
    324       0.5186      2.00000
    325       0.5347      2.00000
    326       0.5612      2.00000
    327       0.5690      2.00000
    328       0.5764      2.00000
    329       0.5812      2.00000
    330       0.6050      2.00000
    331       0.6358      2.00000
    332       0.6400      2.00000
    333       0.6713      2.00000
    334       0.6785      2.00000
    335       0.6834      2.00000
    336       0.6939      2.00000
    337       0.7067      2.00000
    338       0.7174      2.00000
    339       0.7400      2.00000
    340       0.7639      2.00000
    341       0.7946      2.00000
    342       0.8037      2.00000
    343       0.8294      2.00000
    344       0.8469      2.00000
    345       0.8670      2.00000
    346       0.8726      2.00000
    347       0.8923      2.00000
    348       0.9091      2.00000
    349       1.0440      2.00000
    350       1.0868      2.00000
    351       1.1017      2.00000
    352       1.1249      2.00000
    353       1.1404      2.00000
    354       1.1597      2.00000
    355       1.1727      2.00000
    356       1.1852      2.00000
    357       1.2002      2.00000
    358       1.2463      2.00000
    359       1.3131      2.00000
    360       1.3510      2.00000
    361       1.3718      2.00000
    362       1.3990      2.00000
    363       1.4091      2.00000
    364       1.4158      2.00000
    365       1.4420      2.00000
    366       1.4572      2.00000
    367       1.4906      2.00000
    368       1.5153      2.00000
    369       1.5243      2.00000
    370       1.5377      2.00000
    371       1.5666      2.00000
    372       1.5859      2.00000
    373       1.5911      2.00000
    374       1.6184      2.00000
    375       1.6604      2.00000
    376       1.6917      2.00000
    377       1.7154      2.00000
    378       1.7983      2.00000
    379       1.8410      2.00000
    380       1.8627      2.00000
    381       1.8978      2.00000
    382       1.9048      2.00000
    383       1.9107      2.00000
    384       1.9428      2.00000
    385       1.9569      2.00000
    386       1.9913      2.00000
    387       2.0050      2.00000
    388       2.0230      2.00000
    389       2.0424      2.00000
    390       2.0503      2.00000
    391       2.0681      2.00000
    392       2.0782      2.00000
    393       2.0868      2.00000
    394       2.0998      2.00000
    395       2.1306      2.00000
    396       2.1363      2.00000
    397       2.1477      2.00000
    398       2.1766      2.00000
    399       2.2090      2.00000
    400       2.2190      2.00000
    401       2.2746      2.00000
    402       2.2869      2.00000
    403       2.2970      2.00000
    404       2.3239      2.00000
    405       2.3603      2.00000
    406       2.4062      2.00000
    407       2.4465      2.00000
    408       2.5526      2.00000
    409       2.6014      2.00000
    410       2.6201      2.00000
    411       2.6647      2.00000
    412       2.6914      2.00000
    413       2.7336      2.00000
    414       2.7454      2.00000
    415       2.7614      2.00000
    416       2.8031      2.00000
    417       2.8045      2.00000
    418       2.8190      2.00000
    419       2.8738      2.00000
    420       2.8897      2.00000
    421       2.9338      2.00000
    422       2.9584      2.00000
    423       2.9822      2.00000
    424       3.0278      2.00000
    425       3.0694      2.00000
    426       3.1261      2.00000
    427       3.1550      2.00000
    428       3.1662      2.00000
    429       3.1700      2.00000
    430       3.2165      2.00000
    431       3.2279      2.00000
    432       3.2901      2.00000
    433       3.2975      2.00000
    434       3.3569      2.00000
    435       3.3651      2.00000
    436       3.3986      2.00000
    437       3.4458      2.34666
    438       3.5188      0.00000
    439       3.5699      0.00000
    440       3.6150      0.00000
    441       3.6290      0.00000
    442       3.6458      0.00000
    443       3.6802      0.00000
    444       3.7345      0.00000
    445       3.7670      0.00000
    446       3.7898      0.00000
    447       3.8325      0.00000
    448       3.9045      0.00000
    449       3.9081      0.00000
    450       3.9102      0.00000
    451       3.9827      0.00000
    452       4.0283      0.00000
    453       4.0848      0.00000
    454       4.1036      0.00000
    455       4.1191      0.00000
    456       4.1491      0.00000
    457       4.1807      0.00000
    458       4.2076      0.00000
    459       4.2336      0.00000
    460       4.2656      0.00000
    461       4.2836      0.00000
    462       4.3285      0.00000
    463       4.3898      0.00000
    464       4.4066      0.00000
    465       4.4230      0.00000
    466       4.4857      0.00000
    467       4.5036      0.00000
    468       4.5561      0.00000
    469       4.5742      0.00000
    470       4.5821      0.00000
    471       4.5984      0.00000
    472       4.6107      0.00000
    473       4.6146      0.00000
    474       4.6286      0.00000
    475       4.6323      0.00000
    476       4.6370      0.00000
    477       4.6420      0.00000
    478       4.6714      0.00000
    479       4.6843      0.00000
    480       4.7010      0.00000
    481       4.7465      0.00000
    482       4.7562      0.00000
    483       4.7751      0.00000
    484       4.8005      0.00000
    485       4.8426      0.00000
    486       4.8690      0.00000
    487       4.8875      0.00000
    488       4.9007      0.00000
    489       4.9147      0.00000
    490       4.9204      0.00000
    491       4.9259      0.00000
    492       4.9323      0.00000
    493       4.9365      0.00000
    494       4.9493      0.00000
    495       4.9609      0.00000
    496       4.9705      0.00000
    497       4.9756      0.00000
    498       5.0132      0.00000
    499       5.0301      0.00000
    500       5.0535      0.00000
    501       5.0675      0.00000
    502       5.0866      0.00000
    503       5.1078      0.00000
    504       5.1292      0.00000
    505       5.1593      0.00000
    506       5.1886      0.00000
    507       5.2007      0.00000
    508       5.2362      0.00000
    509       5.2458      0.00000
    510       5.2583      0.00000
    511       5.2678      0.00000
    512       5.2809      0.00000
    513       5.3021      0.00000
    514       5.3478      0.00000
    515       5.3661      0.00000
    516       5.3845      0.00000
    517       5.4045      0.00000
    518       5.4252      0.00000
    519       5.4454      0.00000
    520       5.4681      0.00000
    521       5.5098      0.00000
    522       5.5271      0.00000
    523       5.5537      0.00000

 k-point     6 :       0.2500    0.2500    0.0000
  band No.  band energies     occupation 
      1     -57.7224      2.00000
      2     -57.6749      2.00000
      3     -57.6700      2.00000
      4     -57.6569      2.00000
      5     -57.6361      2.00000
      6     -57.6226      2.00000
      7     -57.6205      2.00000
      8     -57.6014      2.00000
      9     -57.5994      2.00000
     10     -57.5963      2.00000
     11     -57.5873      2.00000
     12     -57.5835      2.00000
     13     -57.5794      2.00000
     14     -57.5739      2.00000
     15     -57.5708      2.00000
     16     -57.5667      2.00000
     17     -57.5607      2.00000
     18     -57.5509      2.00000
     19     -57.5199      2.00000
     20     -57.5010      2.00000
     21     -57.4906      2.00000
     22     -57.4781      2.00000
     23     -57.4696      2.00000
     24     -57.4665      2.00000
     25     -57.4585      2.00000
     26     -57.4574      2.00000
     27     -57.4557      2.00000
     28     -57.4556      2.00000
     29     -57.4541      2.00000
     30     -57.4486      2.00000
     31     -57.4479      2.00000
     32     -57.4473      2.00000
     33     -57.4447      2.00000
     34     -57.4417      2.00000
     35     -57.4402      2.00000
     36     -57.4386      2.00000
     37     -57.4340      2.00000
     38     -57.4314      2.00000
     39     -57.4273      2.00000
     40     -57.4131      2.00000
     41     -57.4037      2.00000
     42     -57.3948      2.00000
     43     -57.3838      2.00000
     44     -57.3640      2.00000
     45     -57.3354      2.00000
     46     -57.3183      2.00000
     47     -57.2696      2.00000
     48     -57.2547      2.00000
     49     -57.2536      2.00000
     50     -57.2483      2.00000
     51     -57.2458      2.00000
     52     -57.2452      2.00000
     53     -57.2437      2.00000
     54     -57.2398      2.00000
     55     -57.2389      2.00000
     56     -57.2383      2.00000
     57     -57.2282      2.00000
     58     -57.2211      2.00000
     59     -57.2097      2.00000
     60     -57.1887      2.00000
     61     -51.7939      2.00000
     62     -51.7866      2.00000
     63     -32.3255      2.00000
     64     -32.3218      2.00000
     65     -32.2923      2.00000
     66     -32.2916      2.00000
     67     -32.2670      2.00000
     68     -32.2611      2.00000
     69     -32.2157      2.00000
     70     -32.2026      2.00000
     71     -32.1858      2.00000
     72     -32.1807      2.00000
     73     -32.1741      2.00000
     74     -32.1729      2.00000
     75     -32.1666      2.00000
     76     -32.1585      2.00000
     77     -32.1563      2.00000
     78     -32.1436      2.00000
     79     -32.1382      2.00000
     80     -32.1367      2.00000
     81     -32.1277      2.00000
     82     -32.1248      2.00000
     83     -32.1120      2.00000
     84     -32.1071      2.00000
     85     -32.1025      2.00000
     86     -32.0852      2.00000
     87     -32.0828      2.00000
     88     -32.0790      2.00000
     89     -32.0717      2.00000
     90     -32.0618      2.00000
     91     -32.0581      2.00000
     92     -32.0343      2.00000
     93     -32.0289      2.00000
     94     -32.0116      2.00000
     95     -32.0023      2.00000
     96     -31.9966      2.00000
     97     -31.9904      2.00000
     98     -31.9753      2.00000
     99     -31.9632      2.00000
    100     -31.9584      2.00000
    101     -31.9490      2.00000
    102     -31.9395      2.00000
    103     -31.9185      2.00000
    104     -31.9024      2.00000
    105     -31.8961      2.00000
    106     -31.8877      2.00000
    107     -31.8782      2.00000
    108     -31.8535      2.00000
    109     -31.8514      2.00000
    110     -31.8447      2.00000
    111     -31.8376      2.00000
    112     -31.8310      2.00000
    113     -31.8196      2.00000
    114     -31.8182      2.00000
    115     -31.8098      2.00000
    116     -31.7879      2.00000
    117     -31.7763      2.00000
    118     -31.7694      2.00000
    119     -31.7529      2.00000
    120     -31.7350      2.00000
    121     -31.7316      2.00000
    122     -31.7228      2.00000
    123     -31.7162      2.00000
    124     -31.7025      2.00000
    125     -31.6999      2.00000
    126     -31.6930      2.00000
    127     -31.6893      2.00000
    128     -31.6851      2.00000
    129     -31.6838      2.00000
    130     -31.6787      2.00000
    131     -31.6588      2.00000
    132     -31.6571      2.00000
    133     -31.6375      2.00000
    134     -31.6315      2.00000
    135     -31.6292      2.00000
    136     -31.6101      2.00000
    137     -31.6084      2.00000
    138     -31.6056      2.00000
    139     -31.5909      2.00000
    140     -31.5838      2.00000
    141     -31.5813      2.00000
    142     -31.5760      2.00000
    143     -31.5709      2.00000
    144     -31.5494      2.00000
    145     -31.5481      2.00000
    146     -31.5367      2.00000
    147     -31.5313      2.00000
    148     -31.5198      2.00000
    149     -31.5156      2.00000
    150     -31.5103      2.00000
    151     -31.5028      2.00000
    152     -31.4991      2.00000
    153     -31.4842      2.00000
    154     -31.4815      2.00000
    155     -31.4745      2.00000
    156     -31.4605      2.00000
    157     -31.4531      2.00000
    158     -31.4490      2.00000
    159     -31.4462      2.00000
    160     -31.4389      2.00000
    161     -31.4371      2.00000
    162     -31.4358      2.00000
    163     -31.4310      2.00000
    164     -31.4263      2.00000
    165     -31.4155      2.00000
    166     -31.4130      2.00000
    167     -31.4071      2.00000
    168     -31.3941      2.00000
    169     -31.3832      2.00000
    170     -31.3780      2.00000
    171     -31.3707      2.00000
    172     -31.3630      2.00000
    173     -31.3544      2.00000
    174     -31.3525      2.00000
    175     -31.3513      2.00000
    176     -31.3454      2.00000
    177     -31.3413      2.00000
    178     -31.3204      2.00000
    179     -31.3140      2.00000
    180     -31.3074      2.00000
    181     -31.2891      2.00000
    182     -31.2855      2.00000
    183     -31.2707      2.00000
    184     -31.2637      2.00000
    185     -31.2618      2.00000
    186     -31.2533      2.00000
    187     -31.2521      2.00000
    188     -31.2436      2.00000
    189     -31.2368      2.00000
    190     -31.2346      2.00000
    191     -31.2326      2.00000
    192     -31.2316      2.00000
    193     -31.2261      2.00000
    194     -31.2221      2.00000
    195     -31.2170      2.00000
    196     -31.2149      2.00000
    197     -31.2095      2.00000
    198     -31.2024      2.00000
    199     -31.2008      2.00000
    200     -31.1928      2.00000
    201     -31.1890      2.00000
    202     -31.1831      2.00000
    203     -31.1812      2.00000
    204     -31.1718      2.00000
    205     -31.1712      2.00000
    206     -31.1651      2.00000
    207     -31.1622      2.00000
    208     -31.1467      2.00000
    209     -31.1461      2.00000
    210     -31.1308      2.00000
    211     -31.1259      2.00000
    212     -31.1252      2.00000
    213     -31.1247      2.00000
    214     -31.1132      2.00000
    215     -31.1019      2.00000
    216     -31.0994      2.00000
    217     -31.0953      2.00000
    218     -31.0931      2.00000
    219     -31.0851      2.00000
    220     -31.0843      2.00000
    221     -31.0802      2.00000
    222     -31.0786      2.00000
    223     -31.0773      2.00000
    224     -31.0660      2.00000
    225     -31.0639      2.00000
    226     -31.0580      2.00000
    227     -31.0572      2.00000
    228     -31.0538      2.00000
    229     -31.0479      2.00000
    230     -31.0464      2.00000
    231     -31.0422      2.00000
    232     -31.0309      2.00000
    233     -31.0290      2.00000
    234     -31.0229      2.00000
    235     -31.0082      2.00000
    236     -30.9840      2.00000
    237     -30.9676      2.00000
    238     -30.9600      2.00000
    239     -30.9557      2.00000
    240     -30.9369      2.00000
    241     -30.9294      2.00000
    242     -30.9159      2.00000
    243     -27.9822      2.00000
    244     -27.9453      2.00000
    245     -27.8698      2.00000
    246     -27.8447      2.00000
    247     -27.7364      2.00000
    248     -27.7307      2.00000
    249     -16.1863      2.00000
    250      -2.9806      2.00000
    251      -2.9608      2.00000
    252      -2.5667      2.00000
    253      -2.4918      2.00000
    254      -2.0224      2.00000
    255      -1.9895      2.00000
    256      -1.9369      2.00000
    257      -1.4031      2.00000
    258      -1.3681      2.00000
    259      -1.3574      2.00000
    260      -1.3089      2.00000
    261      -1.2786      2.00000
    262      -1.2768      2.00000
    263      -1.2634      2.00000
    264      -1.2591      2.00000
    265      -1.2430      2.00000
    266      -1.2052      2.00000
    267      -1.0939      2.00000
    268      -0.9514      2.00000
    269      -0.8939      2.00000
    270      -0.8483      2.00000
    271      -0.8431      2.00000
    272      -0.8284      2.00000
    273      -0.8241      2.00000
    274      -0.8116      2.00000
    275      -0.7923      2.00000
    276      -0.7635      2.00000
    277      -0.7518      2.00000
    278      -0.7448      2.00000
    279      -0.7388      2.00000
    280      -0.6456      2.00000
    281      -0.6401      2.00000
    282      -0.5301      2.00000
    283      -0.5092      2.00000
    284      -0.5051      2.00000
    285      -0.4890      2.00000
    286      -0.4498      2.00000
    287      -0.4239      2.00000
    288      -0.3928      2.00000
    289      -0.3826      2.00000
    290      -0.3765      2.00000
    291      -0.3161      2.00000
    292      -0.3045      2.00000
    293      -0.2961      2.00000
    294      -0.2550      2.00000
    295      -0.2527      2.00000
    296      -0.2039      2.00000
    297      -0.1777      2.00000
    298      -0.1188      2.00000
    299      -0.0578      2.00000
    300      -0.0494      2.00000
    301      -0.0283      2.00000
    302       0.0262      2.00000
    303       0.0304      2.00000
    304       0.0762      2.00000
    305       0.1199      2.00000
    306       0.1334      2.00000
    307       0.1538      2.00000
    308       0.1801      2.00000
    309       0.1993      2.00000
    310       0.2354      2.00000
    311       0.2470      2.00000
    312       0.2830      2.00000
    313       0.3029      2.00000
    314       0.3129      2.00000
    315       0.3509      2.00000
    316       0.3561      2.00000
    317       0.3959      2.00000
    318       0.4240      2.00000
    319       0.4265      2.00000
    320       0.4357      2.00000
    321       0.4560      2.00000
    322       0.4574      2.00000
    323       0.4825      2.00000
    324       0.4974      2.00000
    325       0.5064      2.00000
    326       0.5154      2.00000
    327       0.5345      2.00000
    328       0.5516      2.00000
    329       0.5703      2.00000
    330       0.5806      2.00000
    331       0.5911      2.00000
    332       0.6155      2.00000
    333       0.6269      2.00000
    334       0.6462      2.00000
    335       0.6843      2.00000
    336       0.6989      2.00000
    337       0.7232      2.00000
    338       0.7874      2.00000
    339       0.7937      2.00000
    340       0.8334      2.00000
    341       0.8440      2.00000
    342       0.8494      2.00000
    343       0.8700      2.00000
    344       0.8808      2.00000
    345       0.9150      2.00000
    346       0.9546      2.00000
    347       0.9721      2.00000
    348       0.9964      2.00000
    349       1.0145      2.00000
    350       1.0247      2.00000
    351       1.0287      2.00000
    352       1.0494      2.00000
    353       1.0713      2.00000
    354       1.0953      2.00000
    355       1.1069      2.00000
    356       1.1982      2.00000
    357       1.2099      2.00000
    358       1.2154      2.00000
    359       1.2645      2.00000
    360       1.3147      2.00000
    361       1.3406      2.00000
    362       1.3761      2.00000
    363       1.3931      2.00000
    364       1.4167      2.00000
    365       1.4386      2.00000
    366       1.4542      2.00000
    367       1.5058      2.00000
    368       1.5176      2.00000
    369       1.5405      2.00000
    370       1.5488      2.00000
    371       1.5911      2.00000
    372       1.5984      2.00000
    373       1.6143      2.00000
    374       1.6260      2.00000
    375       1.6698      2.00000
    376       1.7264      2.00000
    377       1.7421      2.00000
    378       1.7887      2.00000
    379       1.7913      2.00000
    380       1.8000      2.00000
    381       1.8255      2.00000
    382       1.8417      2.00000
    383       1.8760      2.00000
    384       1.9014      2.00000
    385       1.9335      2.00000
    386       1.9452      2.00000
    387       1.9684      2.00000
    388       1.9885      2.00000
    389       1.9923      2.00000
    390       2.0128      2.00000
    391       2.0287      2.00000
    392       2.0606      2.00000
    393       2.0659      2.00000
    394       2.0936      2.00000
    395       2.1038      2.00000
    396       2.1183      2.00000
    397       2.1831      2.00000
    398       2.1961      2.00000
    399       2.2318      2.00000
    400       2.2736      2.00000
    401       2.2946      2.00000
    402       2.3280      2.00000
    403       2.3521      2.00000
    404       2.3660      2.00000
    405       2.3940      2.00000
    406       2.4029      2.00000
    407       2.4853      2.00000
    408       2.5530      2.00000
    409       2.5568      2.00000
    410       2.5969      2.00000
    411       2.6755      2.00000
    412       2.7243      2.00000
    413       2.7777      2.00000
    414       2.8305      2.00000
    415       2.8524      2.00000
    416       2.8764      2.00000
    417       2.8795      2.00000
    418       2.9027      2.00000
    419       2.9277      2.00000
    420       2.9305      2.00000
    421       2.9397      2.00000
    422       2.9859      2.00000
    423       3.0278      2.00000
    424       3.0711      2.00000
    425       3.0892      2.00000
    426       3.1336      2.00000
    427       3.1539      2.00000
    428       3.1636      2.00000
    429       3.2196      2.00000
    430       3.2274      2.00000
    431       3.2499      2.00000
    432       3.2753      2.00000
    433       3.2842      2.00472
    434       3.3681      2.04151
    435       3.3759      2.08981
    436       3.4167      2.01322
    437       3.4770      0.45645
    438       3.5006      0.00000
    439       3.5452      0.00000
    440       3.5687      0.00000
    441       3.6682      0.00000
    442       3.6876      0.00000
    443       3.7201      0.00000
    444       3.7570      0.00000
    445       3.7890      0.00000
    446       3.8523      0.00000
    447       3.9066      0.00000
    448       3.9236      0.00000
    449       3.9412      0.00000
    450       3.9554      0.00000
    451       3.9842      0.00000
    452       3.9859      0.00000
    453       3.9900      0.00000
    454       4.0694      0.00000
    455       4.0784      0.00000
    456       4.1419      0.00000
    457       4.1506      0.00000
    458       4.1829      0.00000
    459       4.1987      0.00000
    460       4.2618      0.00000
    461       4.2840      0.00000
    462       4.2940      0.00000
    463       4.3300      0.00000
    464       4.3663      0.00000
    465       4.4279      0.00000
    466       4.4350      0.00000
    467       4.4715      0.00000
    468       4.4856      0.00000
    469       4.5022      0.00000
    470       4.5151      0.00000
    471       4.5256      0.00000
    472       4.5389      0.00000
    473       4.5477      0.00000
    474       4.5984      0.00000
    475       4.6076      0.00000
    476       4.6377      0.00000
    477       4.6402      0.00000
    478       4.6753      0.00000
    479       4.7271      0.00000
    480       4.7388      0.00000
    481       4.7572      0.00000
    482       4.7630      0.00000
    483       4.7690      0.00000
    484       4.7921      0.00000
    485       4.8253      0.00000
    486       4.8435      0.00000
    487       4.8574      0.00000
    488       4.8720      0.00000
    489       4.8823      0.00000
    490       4.9185      0.00000
    491       4.9380      0.00000
    492       4.9508      0.00000
    493       4.9648      0.00000
    494       4.9767      0.00000
    495       4.9960      0.00000
    496       5.0220      0.00000
    497       5.0344      0.00000
    498       5.0585      0.00000
    499       5.0645      0.00000
    500       5.0901      0.00000
    501       5.0973      0.00000
    502       5.1166      0.00000
    503       5.1188      0.00000
    504       5.1433      0.00000
    505       5.1743      0.00000
    506       5.1831      0.00000
    507       5.2030      0.00000
    508       5.2136      0.00000
    509       5.2485      0.00000
    510       5.2753      0.00000
    511       5.3068      0.00000
    512       5.3131      0.00000
    513       5.3189      0.00000
    514       5.3357      0.00000
    515       5.3617      0.00000
    516       5.3642      0.00000
    517       5.3761      0.00000
    518       5.3904      0.00000
    519       5.4148      0.00000
    520       5.4847      0.00000
    521       5.4903      0.00000
    522       5.5078      0.00000
    523       5.5385      0.00000

 k-point     7 :      -0.2500    0.2500    0.0000
  band No.  band energies     occupation 
      1     -57.7222      2.00000
      2     -57.6768      2.00000
      3     -57.6695      2.00000
      4     -57.6549      2.00000
      5     -57.6358      2.00000
      6     -57.6267      2.00000
      7     -57.6154      2.00000
      8     -57.6055      2.00000
      9     -57.5991      2.00000
     10     -57.5937      2.00000
     11     -57.5890      2.00000
     12     -57.5826      2.00000
     13     -57.5794      2.00000
     14     -57.5744      2.00000
     15     -57.5701      2.00000
     16     -57.5676      2.00000
     17     -57.5606      2.00000
     18     -57.5507      2.00000
     19     -57.5196      2.00000
     20     -57.5023      2.00000
     21     -57.4880      2.00000
     22     -57.4785      2.00000
     23     -57.4722      2.00000
     24     -57.4629      2.00000
     25     -57.4620      2.00000
     26     -57.4577      2.00000
     27     -57.4566      2.00000
     28     -57.4547      2.00000
     29     -57.4520      2.00000
     30     -57.4488      2.00000
     31     -57.4482      2.00000
     32     -57.4463      2.00000
     33     -57.4452      2.00000
     34     -57.4421      2.00000
     35     -57.4408      2.00000
     36     -57.4363      2.00000
     37     -57.4344      2.00000
     38     -57.4314      2.00000
     39     -57.4288      2.00000
     40     -57.4137      2.00000
     41     -57.4025      2.00000
     42     -57.3935      2.00000
     43     -57.3864      2.00000
     44     -57.3637      2.00000
     45     -57.3345      2.00000
     46     -57.3189      2.00000
     47     -57.2696      2.00000
     48     -57.2554      2.00000
     49     -57.2523      2.00000
     50     -57.2489      2.00000
     51     -57.2457      2.00000
     52     -57.2444      2.00000
     53     -57.2436      2.00000
     54     -57.2402      2.00000
     55     -57.2394      2.00000
     56     -57.2374      2.00000
     57     -57.2283      2.00000
     58     -57.2230      2.00000
     59     -57.2079      2.00000
     60     -57.1891      2.00000
     61     -51.7939      2.00000
     62     -51.7866      2.00000
     63     -32.3392      2.00000
     64     -32.3092      2.00000
     65     -32.2902      2.00000
     66     -32.2848      2.00000
     67     -32.2698      2.00000
     68     -32.2597      2.00000
     69     -32.2263      2.00000
     70     -32.1981      2.00000
     71     -32.1914      2.00000
     72     -32.1859      2.00000
     73     -32.1760      2.00000
     74     -32.1726      2.00000
     75     -32.1580      2.00000
     76     -32.1566      2.00000
     77     -32.1489      2.00000
     78     -32.1427      2.00000
     79     -32.1393      2.00000
     80     -32.1368      2.00000
     81     -32.1311      2.00000
     82     -32.1233      2.00000
     83     -32.1081      2.00000
     84     -32.1038      2.00000
     85     -32.1010      2.00000
     86     -32.0925      2.00000
     87     -32.0853      2.00000
     88     -32.0783      2.00000
     89     -32.0696      2.00000
     90     -32.0619      2.00000
     91     -32.0588      2.00000
     92     -32.0391      2.00000
     93     -32.0304      2.00000
     94     -32.0202      2.00000
     95     -32.0038      2.00000
     96     -32.0006      2.00000
     97     -31.9828      2.00000
     98     -31.9705      2.00000
     99     -31.9673      2.00000
    100     -31.9509      2.00000
    101     -31.9435      2.00000
    102     -31.9339      2.00000
    103     -31.9193      2.00000
    104     -31.9069      2.00000
    105     -31.9043      2.00000
    106     -31.8880      2.00000
    107     -31.8755      2.00000
    108     -31.8610      2.00000
    109     -31.8533      2.00000
    110     -31.8448      2.00000
    111     -31.8378      2.00000
    112     -31.8319      2.00000
    113     -31.8202      2.00000
    114     -31.8173      2.00000
    115     -31.8056      2.00000
    116     -31.7897      2.00000
    117     -31.7672      2.00000
    118     -31.7556      2.00000
    119     -31.7532      2.00000
    120     -31.7458      2.00000
    121     -31.7359      2.00000
    122     -31.7312      2.00000
    123     -31.7197      2.00000
    124     -31.6999      2.00000
    125     -31.6955      2.00000
    126     -31.6941      2.00000
    127     -31.6889      2.00000
    128     -31.6855      2.00000
    129     -31.6811      2.00000
    130     -31.6694      2.00000
    131     -31.6659      2.00000
    132     -31.6509      2.00000
    133     -31.6327      2.00000
    134     -31.6289      2.00000
    135     -31.6251      2.00000
    136     -31.6186      2.00000
    137     -31.6084      2.00000
    138     -31.6049      2.00000
    139     -31.5972      2.00000
    140     -31.5865      2.00000
    141     -31.5790      2.00000
    142     -31.5714      2.00000
    143     -31.5641      2.00000
    144     -31.5551      2.00000
    145     -31.5477      2.00000
    146     -31.5396      2.00000
    147     -31.5350      2.00000
    148     -31.5281      2.00000
    149     -31.5197      2.00000
    150     -31.5110      2.00000
    151     -31.4977      2.00000
    152     -31.4906      2.00000
    153     -31.4827      2.00000
    154     -31.4740      2.00000
    155     -31.4713      2.00000
    156     -31.4623      2.00000
    157     -31.4554      2.00000
    158     -31.4520      2.00000
    159     -31.4481      2.00000
    160     -31.4451      2.00000
    161     -31.4418      2.00000
    162     -31.4355      2.00000
    163     -31.4300      2.00000
    164     -31.4216      2.00000
    165     -31.4132      2.00000
    166     -31.4112      2.00000
    167     -31.4065      2.00000
    168     -31.3942      2.00000
    169     -31.3841      2.00000
    170     -31.3765      2.00000
    171     -31.3741      2.00000
    172     -31.3652      2.00000
    173     -31.3566      2.00000
    174     -31.3540      2.00000
    175     -31.3524      2.00000
    176     -31.3475      2.00000
    177     -31.3415      2.00000
    178     -31.3270      2.00000
    179     -31.3139      2.00000
    180     -31.2968      2.00000
    181     -31.2915      2.00000
    182     -31.2819      2.00000
    183     -31.2722      2.00000
    184     -31.2670      2.00000
    185     -31.2574      2.00000
    186     -31.2512      2.00000
    187     -31.2483      2.00000
    188     -31.2434      2.00000
    189     -31.2389      2.00000
    190     -31.2373      2.00000
    191     -31.2301      2.00000
    192     -31.2286      2.00000
    193     -31.2262      2.00000
    194     -31.2217      2.00000
    195     -31.2184      2.00000
    196     -31.2140      2.00000
    197     -31.2066      2.00000
    198     -31.2026      2.00000
    199     -31.2016      2.00000
    200     -31.1939      2.00000
    201     -31.1906      2.00000
    202     -31.1859      2.00000
    203     -31.1806      2.00000
    204     -31.1775      2.00000
    205     -31.1730      2.00000
    206     -31.1637      2.00000
    207     -31.1570      2.00000
    208     -31.1508      2.00000
    209     -31.1411      2.00000
    210     -31.1362      2.00000
    211     -31.1275      2.00000
    212     -31.1251      2.00000
    213     -31.1247      2.00000
    214     -31.1091      2.00000
    215     -31.1041      2.00000
    216     -31.1006      2.00000
    217     -31.0937      2.00000
    218     -31.0882      2.00000
    219     -31.0857      2.00000
    220     -31.0847      2.00000
    221     -31.0800      2.00000
    222     -31.0782      2.00000
    223     -31.0758      2.00000
    224     -31.0662      2.00000
    225     -31.0634      2.00000
    226     -31.0590      2.00000
    227     -31.0564      2.00000
    228     -31.0525      2.00000
    229     -31.0485      2.00000
    230     -31.0447      2.00000
    231     -31.0429      2.00000
    232     -31.0342      2.00000
    233     -31.0260      2.00000
    234     -31.0209      2.00000
    235     -31.0131      2.00000
    236     -30.9817      2.00000
    237     -30.9696      2.00000
    238     -30.9620      2.00000
    239     -30.9564      2.00000
    240     -30.9383      2.00000
    241     -30.9261      2.00000
    242     -30.9161      2.00000
    243     -27.9822      2.00000
    244     -27.9453      2.00000
    245     -27.8698      2.00000
    246     -27.8447      2.00000
    247     -27.7364      2.00000
    248     -27.7307      2.00000
    249     -16.1863      2.00000
    250      -3.0159      2.00000
    251      -2.9273      2.00000
    252      -2.5581      2.00000
    253      -2.5003      2.00000
    254      -2.0173      2.00000
    255      -1.9853      2.00000
    256      -1.9396      2.00000
    257      -1.4028      2.00000
    258      -1.3700      2.00000
    259      -1.3590      2.00000
    260      -1.2992      2.00000
    261      -1.2871      2.00000
    262      -1.2738      2.00000
    263      -1.2652      2.00000
    264      -1.2521      2.00000
    265      -1.2502      2.00000
    266      -1.1958      2.00000
    267      -1.1047      2.00000
    268      -0.9484      2.00000
    269      -0.8931      2.00000
    270      -0.8491      2.00000
    271      -0.8434      2.00000
    272      -0.8324      2.00000
    273      -0.8222      2.00000
    274      -0.8016      2.00000
    275      -0.7931      2.00000
    276      -0.7713      2.00000
    277      -0.7601      2.00000
    278      -0.7538      2.00000
    279      -0.7299      2.00000
    280      -0.6531      2.00000
    281      -0.6341      2.00000
    282      -0.5183      2.00000
    283      -0.5145      2.00000
    284      -0.5050      2.00000
    285      -0.4790      2.00000
    286      -0.4446      2.00000
    287      -0.4311      2.00000
    288      -0.3955      2.00000
    289      -0.3829      2.00000
    290      -0.3682      2.00000
    291      -0.3182      2.00000
    292      -0.3066      2.00000
    293      -0.3051      2.00000
    294      -0.2630      2.00000
    295      -0.2486      2.00000
    296      -0.1976      2.00000
    297      -0.1780      2.00000
    298      -0.1148      2.00000
    299      -0.0706      2.00000
    300      -0.0583      2.00000
    301      -0.0092      2.00000
    302       0.0253      2.00000
    303       0.0340      2.00000
    304       0.0539      2.00000
    305       0.1271      2.00000
    306       0.1486      2.00000
    307       0.1625      2.00000
    308       0.1804      2.00000
    309       0.2043      2.00000
    310       0.2210      2.00000
    311       0.2404      2.00000
    312       0.2983      2.00000
    313       0.3063      2.00000
    314       0.3146      2.00000
    315       0.3269      2.00000
    316       0.3542      2.00000
    317       0.4027      2.00000
    318       0.4284      2.00000
    319       0.4324      2.00000
    320       0.4341      2.00000
    321       0.4500      2.00000
    322       0.4563      2.00000
    323       0.4814      2.00000
    324       0.4944      2.00000
    325       0.5026      2.00000
    326       0.5262      2.00000
    327       0.5398      2.00000
    328       0.5495      2.00000
    329       0.5618      2.00000
    330       0.5721      2.00000
    331       0.5964      2.00000
    332       0.6201      2.00000
    333       0.6271      2.00000
    334       0.6388      2.00000
    335       0.6841      2.00000
    336       0.6977      2.00000
    337       0.7232      2.00000
    338       0.7575      2.00000
    339       0.8081      2.00000
    340       0.8264      2.00000
    341       0.8445      2.00000
    342       0.8690      2.00000
    343       0.8712      2.00000
    344       0.8759      2.00000
    345       0.9171      2.00000
    346       0.9525      2.00000
    347       0.9655      2.00000
    348       0.9924      2.00000
    349       1.0083      2.00000
    350       1.0222      2.00000
    351       1.0355      2.00000
    352       1.0589      2.00000
    353       1.0686      2.00000
    354       1.0936      2.00000
    355       1.1221      2.00000
    356       1.1876      2.00000
    357       1.2325      2.00000
    358       1.2472      2.00000
    359       1.2573      2.00000
    360       1.2979      2.00000
    361       1.3385      2.00000
    362       1.3638      2.00000
    363       1.4033      2.00000
    364       1.4467      2.00000
    365       1.4509      2.00000
    366       1.4762      2.00000
    367       1.5009      2.00000
    368       1.5121      2.00000
    369       1.5340      2.00000
    370       1.5652      2.00000
    371       1.5851      2.00000
    372       1.5982      2.00000
    373       1.6258      2.00000
    374       1.6342      2.00000
    375       1.6708      2.00000
    376       1.7150      2.00000
    377       1.7311      2.00000
    378       1.7585      2.00000
    379       1.7808      2.00000
    380       1.7939      2.00000
    381       1.8135      2.00000
    382       1.8213      2.00000
    383       1.8750      2.00000
    384       1.8798      2.00000
    385       1.9219      2.00000
    386       1.9469      2.00000
    387       1.9502      2.00000
    388       1.9761      2.00000
    389       1.9919      2.00000
    390       1.9979      2.00000
    391       2.0320      2.00000
    392       2.0540      2.00000
    393       2.0735      2.00000
    394       2.0961      2.00000
    395       2.1039      2.00000
    396       2.1155      2.00000
    397       2.1458      2.00000
    398       2.1837      2.00000
    399       2.2270      2.00000
    400       2.2819      2.00000
    401       2.2955      2.00000
    402       2.3108      2.00000
    403       2.3310      2.00000
    404       2.3949      2.00000
    405       2.4124      2.00000
    406       2.4475      2.00000
    407       2.4875      2.00000
    408       2.5446      2.00000
    409       2.5647      2.00000
    410       2.5935      2.00000
    411       2.6916      2.00000
    412       2.7365      2.00000
    413       2.7728      2.00000
    414       2.7992      2.00000
    415       2.8615      2.00000
    416       2.8713      2.00000
    417       2.8786      2.00000
    418       2.9096      2.00000
    419       2.9191      2.00000
    420       2.9248      2.00000
    421       2.9970      2.00000
    422       3.0274      2.00000
    423       3.0323      2.00000
    424       3.0760      2.00000
    425       3.1122      2.00000
    426       3.1350      2.00000
    427       3.1556      2.00000
    428       3.1924      2.00000
    429       3.2274      2.00000
    430       3.2438      2.00000
    431       3.2596      2.00000
    432       3.2641      2.00000
    433       3.2920      2.00000
    434       3.3316      2.00000
    435       3.3465      2.00000
    436       3.4362      2.00000
    437       3.4857      0.59171
    438       3.5313      0.00000
    439       3.5602      0.00000
    440       3.5867      0.00000
    441       3.6092      0.00000
    442       3.6607      0.00000
    443       3.7458      0.00000
    444       3.8099      0.00000
    445       3.8518      0.00000
    446       3.8650      0.00000
    447       3.8843      0.00000
    448       3.8957      0.00000
    449       3.9298      0.00000
    450       3.9445      0.00000
    451       3.9706      0.00000
    452       3.9828      0.00000
    453       3.9832      0.00000
    454       4.0490      0.00000
    455       4.0702      0.00000
    456       4.1134      0.00000
    457       4.1629      0.00000
    458       4.1948      0.00000
    459       4.2145      0.00000
    460       4.2537      0.00000
    461       4.2852      0.00000
    462       4.3208      0.00000
    463       4.3485      0.00000
    464       4.3788      0.00000
    465       4.4050      0.00000
    466       4.4443      0.00000
    467       4.4558      0.00000
    468       4.4715      0.00000
    469       4.4848      0.00000
    470       4.5014      0.00000
    471       4.5064      0.00000
    472       4.5466      0.00000
    473       4.5548      0.00000
    474       4.5736      0.00000
    475       4.6051      0.00000
    476       4.6306      0.00000
    477       4.6403      0.00000
    478       4.6767      0.00000
    479       4.7161      0.00000
    480       4.7272      0.00000
    481       4.7513      0.00000
    482       4.7592      0.00000
    483       4.7744      0.00000
    484       4.7828      0.00000
    485       4.8145      0.00000
    486       4.8313      0.00000
    487       4.8472      0.00000
    488       4.8821      0.00000
    489       4.8890      0.00000
    490       4.8971      0.00000
    491       4.9305      0.00000
    492       4.9514      0.00000
    493       4.9704      0.00000
    494       4.9809      0.00000
    495       4.9988      0.00000
    496       5.0223      0.00000
    497       5.0439      0.00000
    498       5.0507      0.00000
    499       5.0615      0.00000
    500       5.0764      0.00000
    501       5.1112      0.00000
    502       5.1234      0.00000
    503       5.1443      0.00000
    504       5.1629      0.00000
    505       5.1713      0.00000
    506       5.1859      0.00000
    507       5.2086      0.00000
    508       5.2261      0.00000
    509       5.2609      0.00000
    510       5.2654      0.00000
    511       5.2755      0.00000
    512       5.3105      0.00000
    513       5.3211      0.00000
    514       5.3401      0.00000
    515       5.3577      0.00000
    516       5.3616      0.00000
    517       5.3798      0.00000
    518       5.3879      0.00000
    519       5.4108      0.00000
    520       5.4484      0.00000
    521       5.4868      0.00000
    522       5.5125      0.00000
    523       5.5233      0.00000

 k-point     8 :       0.5000    0.2500    0.0000
  band No.  band energies     occupation 
      1     -57.7046      2.00000
      2     -57.7001      2.00000
      3     -57.6591      2.00000
      4     -57.6570      2.00000
      5     -57.6463      2.00000
      6     -57.6367      2.00000
      7     -57.6146      2.00000
      8     -57.6094      2.00000
      9     -57.5951      2.00000
     10     -57.5923      2.00000
     11     -57.5833      2.00000
     12     -57.5799      2.00000
     13     -57.5752      2.00000
     14     -57.5716      2.00000
     15     -57.5679      2.00000
     16     -57.5645      2.00000
     17     -57.5587      2.00000
     18     -57.5496      2.00000
     19     -57.5166      2.00000
     20     -57.5015      2.00000
     21     -57.4913      2.00000
     22     -57.4769      2.00000
     23     -57.4733      2.00000
     24     -57.4650      2.00000
     25     -57.4616      2.00000
     26     -57.4596      2.00000
     27     -57.4569      2.00000
     28     -57.4552      2.00000
     29     -57.4535      2.00000
     30     -57.4519      2.00000
     31     -57.4501      2.00000
     32     -57.4492      2.00000
     33     -57.4466      2.00000
     34     -57.4423      2.00000
     35     -57.4417      2.00000
     36     -57.4389      2.00000
     37     -57.4359      2.00000
     38     -57.4310      2.00000
     39     -57.4288      2.00000
     40     -57.4092      2.00000
     41     -57.4006      2.00000
     42     -57.3925      2.00000
     43     -57.3760      2.00000
     44     -57.3704      2.00000
     45     -57.3332      2.00000
     46     -57.3190      2.00000
     47     -57.2707      2.00000
     48     -57.2562      2.00000
     49     -57.2523      2.00000
     50     -57.2500      2.00000
     51     -57.2485      2.00000
     52     -57.2465      2.00000
     53     -57.2430      2.00000
     54     -57.2398      2.00000
     55     -57.2379      2.00000
     56     -57.2342      2.00000
     57     -57.2315      2.00000
     58     -57.2195      2.00000
     59     -57.2042      2.00000
     60     -57.1924      2.00000
     61     -51.7939      2.00000
     62     -51.7866      2.00000
     63     -32.3444      2.00000
     64     -32.3204      2.00000
     65     -32.2999      2.00000
     66     -32.2972      2.00000
     67     -32.2662      2.00000
     68     -32.2366      2.00000
     69     -32.2347      2.00000
     70     -32.2230      2.00000
     71     -32.2117      2.00000
     72     -32.1809      2.00000
     73     -32.1758      2.00000
     74     -32.1669      2.00000
     75     -32.1604      2.00000
     76     -32.1576      2.00000
     77     -32.1447      2.00000
     78     -32.1418      2.00000
     79     -32.1294      2.00000
     80     -32.1265      2.00000
     81     -32.1147      2.00000
     82     -32.1105      2.00000
     83     -32.1041      2.00000
     84     -32.1022      2.00000
     85     -32.0970      2.00000
     86     -32.0931      2.00000
     87     -32.0857      2.00000
     88     -32.0754      2.00000
     89     -32.0706      2.00000
     90     -32.0643      2.00000
     91     -32.0593      2.00000
     92     -32.0519      2.00000
     93     -32.0416      2.00000
     94     -32.0133      2.00000
     95     -31.9982      2.00000
     96     -31.9849      2.00000
     97     -31.9778      2.00000
     98     -31.9688      2.00000
     99     -31.9606      2.00000
    100     -31.9551      2.00000
    101     -31.9429      2.00000
    102     -31.9252      2.00000
    103     -31.9136      2.00000
    104     -31.9088      2.00000
    105     -31.8990      2.00000
    106     -31.8925      2.00000
    107     -31.8844      2.00000
    108     -31.8727      2.00000
    109     -31.8659      2.00000
    110     -31.8576      2.00000
    111     -31.8432      2.00000
    112     -31.8345      2.00000
    113     -31.8247      2.00000
    114     -31.8094      2.00000
    115     -31.8069      2.00000
    116     -31.7816      2.00000
    117     -31.7657      2.00000
    118     -31.7631      2.00000
    119     -31.7594      2.00000
    120     -31.7485      2.00000
    121     -31.7374      2.00000
    122     -31.7192      2.00000
    123     -31.7065      2.00000
    124     -31.6995      2.00000
    125     -31.6957      2.00000
    126     -31.6902      2.00000
    127     -31.6822      2.00000
    128     -31.6741      2.00000
    129     -31.6635      2.00000
    130     -31.6587      2.00000
    131     -31.6544      2.00000
    132     -31.6516      2.00000
    133     -31.6392      2.00000
    134     -31.6345      2.00000
    135     -31.6260      2.00000
    136     -31.6111      2.00000
    137     -31.6045      2.00000
    138     -31.5888      2.00000
    139     -31.5826      2.00000
    140     -31.5743      2.00000
    141     -31.5687      2.00000
    142     -31.5630      2.00000
    143     -31.5523      2.00000
    144     -31.5480      2.00000
    145     -31.5412      2.00000
    146     -31.5361      2.00000
    147     -31.5303      2.00000
    148     -31.5241      2.00000
    149     -31.5170      2.00000
    150     -31.5120      2.00000
    151     -31.5060      2.00000
    152     -31.5001      2.00000
    153     -31.4969      2.00000
    154     -31.4928      2.00000
    155     -31.4868      2.00000
    156     -31.4803      2.00000
    157     -31.4763      2.00000
    158     -31.4691      2.00000
    159     -31.4607      2.00000
    160     -31.4586      2.00000
    161     -31.4537      2.00000
    162     -31.4494      2.00000
    163     -31.4440      2.00000
    164     -31.4372      2.00000
    165     -31.4231      2.00000
    166     -31.4187      2.00000
    167     -31.4100      2.00000
    168     -31.4077      2.00000
    169     -31.3963      2.00000
    170     -31.3842      2.00000
    171     -31.3759      2.00000
    172     -31.3658      2.00000
    173     -31.3615      2.00000
    174     -31.3548      2.00000
    175     -31.3406      2.00000
    176     -31.3337      2.00000
    177     -31.3196      2.00000
    178     -31.3044      2.00000
    179     -31.2965      2.00000
    180     -31.2892      2.00000
    181     -31.2864      2.00000
    182     -31.2849      2.00000
    183     -31.2827      2.00000
    184     -31.2803      2.00000
    185     -31.2759      2.00000
    186     -31.2627      2.00000
    187     -31.2567      2.00000
    188     -31.2446      2.00000
    189     -31.2347      2.00000
    190     -31.2283      2.00000
    191     -31.2236      2.00000
    192     -31.2191      2.00000
    193     -31.2165      2.00000
    194     -31.2111      2.00000
    195     -31.2096      2.00000
    196     -31.2045      2.00000
    197     -31.2000      2.00000
    198     -31.1950      2.00000
    199     -31.1923      2.00000
    200     -31.1885      2.00000
    201     -31.1841      2.00000
    202     -31.1812      2.00000
    203     -31.1798      2.00000
    204     -31.1760      2.00000
    205     -31.1716      2.00000
    206     -31.1644      2.00000
    207     -31.1624      2.00000
    208     -31.1596      2.00000
    209     -31.1465      2.00000
    210     -31.1396      2.00000
    211     -31.1342      2.00000
    212     -31.1289      2.00000
    213     -31.1216      2.00000
    214     -31.1100      2.00000
    215     -31.1004      2.00000
    216     -31.0982      2.00000
    217     -31.0961      2.00000
    218     -31.0893      2.00000
    219     -31.0876      2.00000
    220     -31.0862      2.00000
    221     -31.0811      2.00000
    222     -31.0797      2.00000
    223     -31.0790      2.00000
    224     -31.0668      2.00000
    225     -31.0648      2.00000
    226     -31.0605      2.00000
    227     -31.0523      2.00000
    228     -31.0506      2.00000
    229     -31.0449      2.00000
    230     -31.0426      2.00000
    231     -31.0376      2.00000
    232     -31.0353      2.00000
    233     -31.0322      2.00000
    234     -31.0261      2.00000
    235     -31.0065      2.00000
    236     -30.9840      2.00000
    237     -30.9673      2.00000
    238     -30.9636      2.00000
    239     -30.9560      2.00000
    240     -30.9402      2.00000
    241     -30.9292      2.00000
    242     -30.9157      2.00000
    243     -27.9822      2.00000
    244     -27.9453      2.00000
    245     -27.8698      2.00000
    246     -27.8447      2.00000
    247     -27.7365      2.00000
    248     -27.7307      2.00000
    249     -16.1863      2.00000
    250      -2.9645      2.00000
    251      -2.6497      2.00000
    252      -2.5944      2.00000
    253      -2.5061      2.00000
    254      -2.4373      2.00000
    255      -1.7326      2.00000
    256      -1.7045      2.00000
    257      -1.6951      2.00000
    258      -1.6183      2.00000
    259      -1.3441      2.00000
    260      -1.2969      2.00000
    261      -1.2520      2.00000
    262      -1.2072      2.00000
    263      -1.1466      2.00000
    264      -1.0844      2.00000
    265      -1.0219      2.00000
    266      -0.9948      2.00000
    267      -0.9614      2.00000
    268      -0.9318      2.00000
    269      -0.9078      2.00000
    270      -0.8840      2.00000
    271      -0.8670      2.00000
    272      -0.8525      2.00000
    273      -0.8123      2.00000
    274      -0.7555      2.00000
    275      -0.7275      2.00000
    276      -0.7178      2.00000
    277      -0.7010      2.00000
    278      -0.6861      2.00000
    279      -0.6589      2.00000
    280      -0.6348      2.00000
    281      -0.6238      2.00000
    282      -0.6038      2.00000
    283      -0.5788      2.00000
    284      -0.5272      2.00000
    285      -0.4822      2.00000
    286      -0.4572      2.00000
    287      -0.4503      2.00000
    288      -0.4341      2.00000
    289      -0.3978      2.00000
    290      -0.3642      2.00000
    291      -0.3457      2.00000
    292      -0.2937      2.00000
    293      -0.2592      2.00000
    294      -0.2401      2.00000
    295      -0.2310      2.00000
    296      -0.2165      2.00000
    297      -0.1916      2.00000
    298      -0.1761      2.00000
    299      -0.1552      2.00000
    300      -0.1347      2.00000
    301      -0.1034      2.00000
    302      -0.0413      2.00000
    303      -0.0146      2.00000
    304       0.0276      2.00000
    305       0.0547      2.00000
    306       0.0745      2.00000
    307       0.0971      2.00000
    308       0.1062      2.00000
    309       0.1506      2.00000
    310       0.1788      2.00000
    311       0.2534      2.00000
    312       0.2755      2.00000
    313       0.2878      2.00000
    314       0.3137      2.00000
    315       0.3240      2.00000
    316       0.3338      2.00000
    317       0.3450      2.00000
    318       0.3546      2.00000
    319       0.3670      2.00000
    320       0.3966      2.00000
    321       0.4155      2.00000
    322       0.4194      2.00000
    323       0.4424      2.00000
    324       0.4504      2.00000
    325       0.4627      2.00000
    326       0.4784      2.00000
    327       0.5040      2.00000
    328       0.5354      2.00000
    329       0.5547      2.00000
    330       0.5837      2.00000
    331       0.5974      2.00000
    332       0.6080      2.00000
    333       0.6406      2.00000
    334       0.6768      2.00000
    335       0.6820      2.00000
    336       0.7078      2.00000
    337       0.7275      2.00000
    338       0.7357      2.00000
    339       0.7604      2.00000
    340       0.7836      2.00000
    341       0.7937      2.00000
    342       0.8260      2.00000
    343       0.8355      2.00000
    344       0.8645      2.00000
    345       0.8748      2.00000
    346       0.9012      2.00000
    347       0.9265      2.00000
    348       0.9568      2.00000
    349       0.9888      2.00000
    350       1.0265      2.00000
    351       1.0779      2.00000
    352       1.0938      2.00000
    353       1.1176      2.00000
    354       1.1366      2.00000
    355       1.1466      2.00000
    356       1.1822      2.00000
    357       1.2040      2.00000
    358       1.2160      2.00000
    359       1.2607      2.00000
    360       1.3122      2.00000
    361       1.3337      2.00000
    362       1.3475      2.00000
    363       1.3538      2.00000
    364       1.3766      2.00000
    365       1.4101      2.00000
    366       1.4360      2.00000
    367       1.4706      2.00000
    368       1.4889      2.00000
    369       1.5102      2.00000
    370       1.5306      2.00000
    371       1.5414      2.00000
    372       1.5638      2.00000
    373       1.5789      2.00000
    374       1.6020      2.00000
    375       1.6154      2.00000
    376       1.6279      2.00000
    377       1.6659      2.00000
    378       1.6961      2.00000
    379       1.7128      2.00000
    380       1.7433      2.00000
    381       1.7725      2.00000
    382       1.7925      2.00000
    383       1.8308      2.00000
    384       1.8397      2.00000
    385       1.8541      2.00000
    386       1.8862      2.00000
    387       1.9138      2.00000
    388       1.9254      2.00000
    389       1.9375      2.00000
    390       1.9552      2.00000
    391       1.9719      2.00000
    392       1.9949      2.00000
    393       2.0147      2.00000
    394       2.0374      2.00000
    395       2.0747      2.00000
    396       2.1145      2.00000
    397       2.1709      2.00000
    398       2.2022      2.00000
    399       2.2341      2.00000
    400       2.2781      2.00000
    401       2.3079      2.00000
    402       2.3987      2.00000
    403       2.4505      2.00000
    404       2.4627      2.00000
    405       2.5061      2.00000
    406       2.5270      2.00000
    407       2.5613      2.00000
    408       2.5987      2.00000
    409       2.6262      2.00000
    410       2.6902      2.00000
    411       2.7471      2.00000
    412       2.7796      2.00000
    413       2.8384      2.00000
    414       2.8653      2.00000
    415       2.8874      2.00000
    416       2.9215      2.00000
    417       2.9269      2.00000
    418       2.9550      2.00000
    419       2.9900      2.00000
    420       3.0356      2.00000
    421       3.0625      2.00000
    422       3.0680      2.00000
    423       3.0731      2.00000
    424       3.1221      2.00000
    425       3.1444      2.00000
    426       3.1653      2.00000
    427       3.2060      2.00000
    428       3.2197      2.00000
    429       3.2349      2.00000
    430       3.2675      2.00000
    431       3.3046      2.00000
    432       3.3218      2.00000
    433       3.3411      2.00333
    434       3.3739      2.03709
    435       3.4108      2.00829
    436       3.4581      1.84669
    437       3.4805      0.64941
    438       3.5178      0.00000
    439       3.5675      0.00000
    440       3.5772      0.00000
    441       3.6035      0.00000
    442       3.6302      0.00000
    443       3.6546      0.00000
    444       3.6827      0.00000
    445       3.7427      0.00000
    446       3.7703      0.00000
    447       3.8590      0.00000
    448       3.9275      0.00000
    449       3.9621      0.00000
    450       3.9999      0.00000
    451       4.0177      0.00000
    452       4.0449      0.00000
    453       4.0868      0.00000
    454       4.0978      0.00000
    455       4.1232      0.00000
    456       4.1334      0.00000
    457       4.1828      0.00000
    458       4.2297      0.00000
    459       4.2502      0.00000
    460       4.2952      0.00000
    461       4.3221      0.00000
    462       4.3457      0.00000
    463       4.3768      0.00000
    464       4.4027      0.00000
    465       4.4401      0.00000
    466       4.4617      0.00000
    467       4.5204      0.00000
    468       4.5416      0.00000
    469       4.5807      0.00000
    470       4.6180      0.00000
    471       4.6478      0.00000
    472       4.6564      0.00000
    473       4.6668      0.00000
    474       4.6804      0.00000
    475       4.6974      0.00000
    476       4.7057      0.00000
    477       4.7221      0.00000
    478       4.7380      0.00000
    479       4.7469      0.00000
    480       4.7582      0.00000
    481       4.7643      0.00000
    482       4.7878      0.00000
    483       4.8013      0.00000
    484       4.8129      0.00000
    485       4.8211      0.00000
    486       4.8474      0.00000
    487       4.8633      0.00000
    488       4.8718      0.00000
    489       4.8876      0.00000
    490       4.9163      0.00000
    491       4.9276      0.00000
    492       4.9607      0.00000
    493       4.9881      0.00000
    494       5.0063      0.00000
    495       5.0229      0.00000
    496       5.0446      0.00000
    497       5.0632      0.00000
    498       5.0800      0.00000
    499       5.1010      0.00000
    500       5.1075      0.00000
    501       5.1134      0.00000
    502       5.1201      0.00000
    503       5.1473      0.00000
    504       5.1548      0.00000
    505       5.1728      0.00000
    506       5.1976      0.00000
    507       5.2135      0.00000
    508       5.2220      0.00000
    509       5.2361      0.00000
    510       5.2572      0.00000
    511       5.2761      0.00000
    512       5.2924      0.00000
    513       5.3141      0.00000
    514       5.3363      0.00000
    515       5.3463      0.00000
    516       5.3718      0.00000
    517       5.3833      0.00000
    518       5.4237      0.00000
    519       5.4398      0.00000
    520       5.4481      0.00000
    521       5.4790      0.00000
    522       5.4987      0.00000
    523       5.5343      0.00000

 k-point     9 :      -0.2500    0.5000    0.0000
  band No.  band energies     occupation 
      1     -57.7048      2.00000
      2     -57.6999      2.00000
      3     -57.6592      2.00000
      4     -57.6567      2.00000
      5     -57.6464      2.00000
      6     -57.6368      2.00000
      7     -57.6147      2.00000
      8     -57.6092      2.00000
      9     -57.5952      2.00000
     10     -57.5932      2.00000
     11     -57.5832      2.00000
     12     -57.5795      2.00000
     13     -57.5749      2.00000
     14     -57.5708      2.00000
     15     -57.5687      2.00000
     16     -57.5642      2.00000
     17     -57.5587      2.00000
     18     -57.5496      2.00000
     19     -57.5167      2.00000
     20     -57.5026      2.00000
     21     -57.4902      2.00000
     22     -57.4768      2.00000
     23     -57.4731      2.00000
     24     -57.4656      2.00000
     25     -57.4616      2.00000
     26     -57.4594      2.00000
     27     -57.4570      2.00000
     28     -57.4548      2.00000
     29     -57.4534      2.00000
     30     -57.4521      2.00000
     31     -57.4501      2.00000
     32     -57.4492      2.00000
     33     -57.4466      2.00000
     34     -57.4421      2.00000
     35     -57.4413      2.00000
     36     -57.4394      2.00000
     37     -57.4358      2.00000
     38     -57.4310      2.00000
     39     -57.4289      2.00000
     40     -57.4092      2.00000
     41     -57.4004      2.00000
     42     -57.3926      2.00000
     43     -57.3760      2.00000
     44     -57.3704      2.00000
     45     -57.3339      2.00000
     46     -57.3185      2.00000
     47     -57.2702      2.00000
     48     -57.2562      2.00000
     49     -57.2523      2.00000
     50     -57.2500      2.00000
     51     -57.2487      2.00000
     52     -57.2465      2.00000
     53     -57.2431      2.00000
     54     -57.2396      2.00000
     55     -57.2378      2.00000
     56     -57.2344      2.00000
     57     -57.2314      2.00000
     58     -57.2194      2.00000
     59     -57.2052      2.00000
     60     -57.1917      2.00000
     61     -51.7939      2.00000
     62     -51.7866      2.00000
     63     -32.3427      2.00000
     64     -32.3233      2.00000
     65     -32.2994      2.00000
     66     -32.2964      2.00000
     67     -32.2666      2.00000
     68     -32.2391      2.00000
     69     -32.2342      2.00000
     70     -32.2223      2.00000
     71     -32.2095      2.00000
     72     -32.1821      2.00000
     73     -32.1770      2.00000
     74     -32.1658      2.00000
     75     -32.1599      2.00000
     76     -32.1555      2.00000
     77     -32.1443      2.00000
     78     -32.1404      2.00000
     79     -32.1304      2.00000
     80     -32.1276      2.00000
     81     -32.1157      2.00000
     82     -32.1087      2.00000
     83     -32.1049      2.00000
     84     -32.1021      2.00000
     85     -32.0973      2.00000
     86     -32.0940      2.00000
     87     -32.0850      2.00000
     88     -32.0762      2.00000
     89     -32.0696      2.00000
     90     -32.0659      2.00000
     91     -32.0596      2.00000
     92     -32.0531      2.00000
     93     -32.0398      2.00000
     94     -32.0146      2.00000
     95     -31.9978      2.00000
     96     -31.9843      2.00000
     97     -31.9814      2.00000
     98     -31.9668      2.00000
     99     -31.9584      2.00000
    100     -31.9548      2.00000
    101     -31.9415      2.00000
    102     -31.9272      2.00000
    103     -31.9133      2.00000
    104     -31.9085      2.00000
    105     -31.8988      2.00000
    106     -31.8920      2.00000
    107     -31.8862      2.00000
    108     -31.8732      2.00000
    109     -31.8660      2.00000
    110     -31.8562      2.00000
    111     -31.8438      2.00000
    112     -31.8348      2.00000
    113     -31.8236      2.00000
    114     -31.8097      2.00000
    115     -31.8073      2.00000
    116     -31.7800      2.00000
    117     -31.7666      2.00000
    118     -31.7635      2.00000
    119     -31.7603      2.00000
    120     -31.7486      2.00000
    121     -31.7356      2.00000
    122     -31.7201      2.00000
    123     -31.7089      2.00000
    124     -31.7004      2.00000
    125     -31.6968      2.00000
    126     -31.6883      2.00000
    127     -31.6805      2.00000
    128     -31.6746      2.00000
    129     -31.6633      2.00000
    130     -31.6598      2.00000
    131     -31.6531      2.00000
    132     -31.6516      2.00000
    133     -31.6387      2.00000
    134     -31.6336      2.00000
    135     -31.6263      2.00000
    136     -31.6105      2.00000
    137     -31.6051      2.00000
    138     -31.5898      2.00000
    139     -31.5820      2.00000
    140     -31.5748      2.00000
    141     -31.5664      2.00000
    142     -31.5629      2.00000
    143     -31.5529      2.00000
    144     -31.5496      2.00000
    145     -31.5408      2.00000
    146     -31.5352      2.00000
    147     -31.5309      2.00000
    148     -31.5237      2.00000
    149     -31.5175      2.00000
    150     -31.5122      2.00000
    151     -31.5064      2.00000
    152     -31.5009      2.00000
    153     -31.4960      2.00000
    154     -31.4916      2.00000
    155     -31.4861      2.00000
    156     -31.4820      2.00000
    157     -31.4754      2.00000
    158     -31.4673      2.00000
    159     -31.4595      2.00000
    160     -31.4570      2.00000
    161     -31.4521      2.00000
    162     -31.4503      2.00000
    163     -31.4434      2.00000
    164     -31.4390      2.00000
    165     -31.4260      2.00000
    166     -31.4177      2.00000
    167     -31.4114      2.00000
    168     -31.4076      2.00000
    169     -31.3978      2.00000
    170     -31.3848      2.00000
    171     -31.3730      2.00000
    172     -31.3657      2.00000
    173     -31.3628      2.00000
    174     -31.3570      2.00000
    175     -31.3409      2.00000
    176     -31.3333      2.00000
    177     -31.3167      2.00000
    178     -31.3057      2.00000
    179     -31.2971      2.00000
    180     -31.2892      2.00000
    181     -31.2865      2.00000
    182     -31.2848      2.00000
    183     -31.2828      2.00000
    184     -31.2789      2.00000
    185     -31.2749      2.00000
    186     -31.2631      2.00000
    187     -31.2567      2.00000
    188     -31.2468      2.00000
    189     -31.2342      2.00000
    190     -31.2274      2.00000
    191     -31.2237      2.00000
    192     -31.2201      2.00000
    193     -31.2166      2.00000
    194     -31.2117      2.00000
    195     -31.2091      2.00000
    196     -31.2046      2.00000
    197     -31.1996      2.00000
    198     -31.1952      2.00000
    199     -31.1921      2.00000
    200     -31.1890      2.00000
    201     -31.1850      2.00000
    202     -31.1810      2.00000
    203     -31.1802      2.00000
    204     -31.1754      2.00000
    205     -31.1714      2.00000
    206     -31.1637      2.00000
    207     -31.1628      2.00000
    208     -31.1586      2.00000
    209     -31.1472      2.00000
    210     -31.1398      2.00000
    211     -31.1342      2.00000
    212     -31.1292      2.00000
    213     -31.1204      2.00000
    214     -31.1096      2.00000
    215     -31.1010      2.00000
    216     -31.0983      2.00000
    217     -31.0961      2.00000
    218     -31.0891      2.00000
    219     -31.0877      2.00000
    220     -31.0854      2.00000
    221     -31.0811      2.00000
    222     -31.0795      2.00000
    223     -31.0789      2.00000
    224     -31.0670      2.00000
    225     -31.0648      2.00000
    226     -31.0604      2.00000
    227     -31.0523      2.00000
    228     -31.0501      2.00000
    229     -31.0455      2.00000
    230     -31.0430      2.00000
    231     -31.0374      2.00000
    232     -31.0352      2.00000
    233     -31.0320      2.00000
    234     -31.0262      2.00000
    235     -31.0072      2.00000
    236     -30.9846      2.00000
    237     -30.9669      2.00000
    238     -30.9630      2.00000
    239     -30.9576      2.00000
    240     -30.9382      2.00000
    241     -30.9296      2.00000
    242     -30.9162      2.00000
    243     -27.9822      2.00000
    244     -27.9453      2.00000
    245     -27.8698      2.00000
    246     -27.8447      2.00000
    247     -27.7364      2.00000
    248     -27.7307      2.00000
    249     -16.1863      2.00000
    250      -2.9636      2.00000
    251      -2.6505      2.00000
    252      -2.5949      2.00000
    253      -2.5063      2.00000
    254      -2.4374      2.00000
    255      -1.7329      2.00000
    256      -1.7045      2.00000
    257      -1.6949      2.00000
    258      -1.6185      2.00000
    259      -1.3457      2.00000
    260      -1.2963      2.00000
    261      -1.2520      2.00000
    262      -1.2071      2.00000
    263      -1.1485      2.00000
    264      -1.0844      2.00000
    265      -1.0194      2.00000
    266      -0.9931      2.00000
    267      -0.9612      2.00000
    268      -0.9296      2.00000
    269      -0.9082      2.00000
    270      -0.8855      2.00000
    271      -0.8662      2.00000
    272      -0.8522      2.00000
    273      -0.8150      2.00000
    274      -0.7564      2.00000
    275      -0.7283      2.00000
    276      -0.7168      2.00000
    277      -0.7002      2.00000
    278      -0.6870      2.00000
    279      -0.6580      2.00000
    280      -0.6332      2.00000
    281      -0.6232      2.00000
    282      -0.6024      2.00000
    283      -0.5798      2.00000
    284      -0.5265      2.00000
    285      -0.4821      2.00000
    286      -0.4572      2.00000
    287      -0.4492      2.00000
    288      -0.4324      2.00000
    289      -0.3980      2.00000
    290      -0.3623      2.00000
    291      -0.3486      2.00000
    292      -0.2966      2.00000
    293      -0.2633      2.00000
    294      -0.2357      2.00000
    295      -0.2295      2.00000
    296      -0.2171      2.00000
    297      -0.1909      2.00000
    298      -0.1767      2.00000
    299      -0.1549      2.00000
    300      -0.1352      2.00000
    301      -0.1034      2.00000
    302      -0.0446      2.00000
    303      -0.0136      2.00000
    304       0.0283      2.00000
    305       0.0579      2.00000
    306       0.0761      2.00000
    307       0.0953      2.00000
    308       0.1055      2.00000
    309       0.1509      2.00000
    310       0.1746      2.00000
    311       0.2530      2.00000
    312       0.2775      2.00000
    313       0.2903      2.00000
    314       0.3131      2.00000
    315       0.3246      2.00000
    316       0.3327      2.00000
    317       0.3460      2.00000
    318       0.3568      2.00000
    319       0.3653      2.00000
    320       0.3989      2.00000
    321       0.4157      2.00000
    322       0.4210      2.00000
    323       0.4449      2.00000
    324       0.4526      2.00000
    325       0.4612      2.00000
    326       0.4801      2.00000
    327       0.5038      2.00000
    328       0.5390      2.00000
    329       0.5536      2.00000
    330       0.5829      2.00000
    331       0.5987      2.00000
    332       0.6069      2.00000
    333       0.6425      2.00000
    334       0.6735      2.00000
    335       0.6822      2.00000
    336       0.7049      2.00000
    337       0.7291      2.00000
    338       0.7374      2.00000
    339       0.7591      2.00000
    340       0.7867      2.00000
    341       0.7935      2.00000
    342       0.8251      2.00000
    343       0.8354      2.00000
    344       0.8629      2.00000
    345       0.8757      2.00000
    346       0.8993      2.00000
    347       0.9241      2.00000
    348       0.9610      2.00000
    349       0.9934      2.00000
    350       1.0227      2.00000
    351       1.0730      2.00000
    352       1.0948      2.00000
    353       1.1192      2.00000
    354       1.1346      2.00000
    355       1.1415      2.00000
    356       1.1807      2.00000
    357       1.2064      2.00000
    358       1.2207      2.00000
    359       1.2582      2.00000
    360       1.3095      2.00000
    361       1.3343      2.00000
    362       1.3471      2.00000
    363       1.3537      2.00000
    364       1.3751      2.00000
    365       1.4125      2.00000
    366       1.4335      2.00000
    367       1.4698      2.00000
    368       1.4924      2.00000
    369       1.5106      2.00000
    370       1.5283      2.00000
    371       1.5394      2.00000
    372       1.5624      2.00000
    373       1.5786      2.00000
    374       1.6001      2.00000
    375       1.6160      2.00000
    376       1.6264      2.00000
    377       1.6670      2.00000
    378       1.6957      2.00000
    379       1.7139      2.00000
    380       1.7414      2.00000
    381       1.7726      2.00000
    382       1.7927      2.00000
    383       1.8308      2.00000
    384       1.8392      2.00000
    385       1.8543      2.00000
    386       1.8861      2.00000
    387       1.9124      2.00000
    388       1.9262      2.00000
    389       1.9334      2.00000
    390       1.9545      2.00000
    391       1.9747      2.00000
    392       1.9926      2.00000
    393       2.0149      2.00000
    394       2.0337      2.00000
    395       2.0785      2.00000
    396       2.1141      2.00000
    397       2.1707      2.00000
    398       2.2069      2.00000
    399       2.2231      2.00000
    400       2.2886      2.00000
    401       2.3042      2.00000
    402       2.3967      2.00000
    403       2.4462      2.00000
    404       2.4594      2.00000
    405       2.5149      2.00000
    406       2.5274      2.00000
    407       2.5615      2.00000
    408       2.6058      2.00000
    409       2.6196      2.00000
    410       2.6905      2.00000
    411       2.7318      2.00000
    412       2.7806      2.00000
    413       2.8317      2.00000
    414       2.8693      2.00000
    415       2.8853      2.00000
    416       2.9204      2.00000
    417       2.9233      2.00000
    418       2.9630      2.00000
    419       2.9848      2.00000
    420       3.0366      2.00000
    421       3.0635      2.00000
    422       3.0692      2.00000
    423       3.0740      2.00000
    424       3.1194      2.00000
    425       3.1451      2.00000
    426       3.1662      2.00000
    427       3.2051      2.00000
    428       3.2252      2.00000
    429       3.2305      2.00000
    430       3.2691      2.00000
    431       3.2961      2.00000
    432       3.3244      2.00000
    433       3.3551      2.00280
    434       3.3799      2.03221
    435       3.4095      2.01041
    436       3.4600      1.83435
    437       3.4853      0.32551
    438       3.5229      0.00000
    439       3.5583      0.00000
    440       3.5778      0.00000
    441       3.6014      0.00000
    442       3.6326      0.00000
    443       3.6572      0.00000
    444       3.6882      0.00000
    445       3.7253      0.00000
    446       3.7779      0.00000
    447       3.8536      0.00000
    448       3.9362      0.00000
    449       3.9652      0.00000
    450       4.0005      0.00000
    451       4.0205      0.00000
    452       4.0468      0.00000
    453       4.0833      0.00000
    454       4.1017      0.00000
    455       4.1221      0.00000
    456       4.1322      0.00000
    457       4.1861      0.00000
    458       4.2264      0.00000
    459       4.2501      0.00000
    460       4.2899      0.00000
    461       4.3217      0.00000
    462       4.3464      0.00000
    463       4.3810      0.00000
    464       4.4095      0.00000
    465       4.4478      0.00000
    466       4.4584      0.00000
    467       4.5161      0.00000
    468       4.5419      0.00000
    469       4.5830      0.00000
    470       4.6130      0.00000
    471       4.6493      0.00000
    472       4.6594      0.00000
    473       4.6684      0.00000
    474       4.6799      0.00000
    475       4.6990      0.00000
    476       4.7069      0.00000
    477       4.7227      0.00000
    478       4.7323      0.00000
    479       4.7460      0.00000
    480       4.7575      0.00000
    481       4.7652      0.00000
    482       4.7839      0.00000
    483       4.8008      0.00000
    484       4.8118      0.00000
    485       4.8159      0.00000
    486       4.8442      0.00000
    487       4.8621      0.00000
    488       4.8720      0.00000
    489       4.8878      0.00000
    490       4.9208      0.00000
    491       4.9287      0.00000
    492       4.9573      0.00000
    493       4.9859      0.00000
    494       5.0105      0.00000
    495       5.0265      0.00000
    496       5.0502      0.00000
    497       5.0645      0.00000
    498       5.0813      0.00000
    499       5.1000      0.00000
    500       5.1086      0.00000
    501       5.1138      0.00000
    502       5.1266      0.00000
    503       5.1449      0.00000
    504       5.1528      0.00000
    505       5.1742      0.00000
    506       5.1961      0.00000
    507       5.2137      0.00000
    508       5.2197      0.00000
    509       5.2351      0.00000
    510       5.2567      0.00000
    511       5.2746      0.00000
    512       5.2917      0.00000
    513       5.3112      0.00000
    514       5.3356      0.00000
    515       5.3484      0.00000
    516       5.3727      0.00000
    517       5.3839      0.00000
    518       5.4153      0.00000
    519       5.4409      0.00000
    520       5.4492      0.00000
    521       5.4736      0.00000
    522       5.4917      0.00000
    523       5.5345      0.00000

 k-point    10 :       0.5000    0.5000    0.0000
  band No.  band energies     occupation 
      1     -57.6898      2.00000
      2     -57.6865      2.00000
      3     -57.6823      2.00000
      4     -57.6774      2.00000
      5     -57.6379      2.00000
      6     -57.6346      2.00000
      7     -57.6276      2.00000
      8     -57.6185      2.00000
      9     -57.5878      2.00000
     10     -57.5847      2.00000
     11     -57.5780      2.00000
     12     -57.5749      2.00000
     13     -57.5717      2.00000
     14     -57.5694      2.00000
     15     -57.5661      2.00000
     16     -57.5639      2.00000
     17     -57.5576      2.00000
     18     -57.5486      2.00000
     19     -57.5133      2.00000
     20     -57.5004      2.00000
     21     -57.4943      2.00000
     22     -57.4771      2.00000
     23     -57.4712      2.00000
     24     -57.4681      2.00000
     25     -57.4620      2.00000
     26     -57.4595      2.00000
     27     -57.4590      2.00000
     28     -57.4572      2.00000
     29     -57.4561      2.00000
     30     -57.4537      2.00000
     31     -57.4520      2.00000
     32     -57.4501      2.00000
     33     -57.4451      2.00000
     34     -57.4444      2.00000
     35     -57.4438      2.00000
     36     -57.4405      2.00000
     37     -57.4394      2.00000
     38     -57.4315      2.00000
     39     -57.4292      2.00000
     40     -57.4068      2.00000
     41     -57.3882      2.00000
     42     -57.3866      2.00000
     43     -57.3813      2.00000
     44     -57.3738      2.00000
     45     -57.3325      2.00000
     46     -57.3183      2.00000
     47     -57.2710      2.00000
     48     -57.2551      2.00000
     49     -57.2533      2.00000
     50     -57.2529      2.00000
     51     -57.2518      2.00000
     52     -57.2486      2.00000
     53     -57.2406      2.00000
     54     -57.2371      2.00000
     55     -57.2362      2.00000
     56     -57.2359      2.00000
     57     -57.2333      2.00000
     58     -57.2128      2.00000
     59     -57.2046      2.00000
     60     -57.1949      2.00000
     61     -51.7939      2.00000
     62     -51.7866      2.00000
     63     -32.3536      2.00000
     64     -32.3388      2.00000
     65     -32.2863      2.00000
     66     -32.2849      2.00000
     67     -32.2690      2.00000
     68     -32.2492      2.00000
     69     -32.2419      2.00000
     70     -32.2404      2.00000
     71     -32.2362      2.00000
     72     -32.2280      2.00000
     73     -32.1934      2.00000
     74     -32.1801      2.00000
     75     -32.1465      2.00000
     76     -32.1428      2.00000
     77     -32.1373      2.00000
     78     -32.1253      2.00000
     79     -32.1183      2.00000
     80     -32.1126      2.00000
     81     -32.1089      2.00000
     82     -32.0895      2.00000
     83     -32.0845      2.00000
     84     -32.0765      2.00000
     85     -32.0756      2.00000
     86     -32.0728      2.00000
     87     -32.0619      2.00000
     88     -32.0534      2.00000
     89     -32.0527      2.00000
     90     -32.0447      2.00000
     91     -32.0429      2.00000
     92     -32.0351      2.00000
     93     -32.0334      2.00000
     94     -32.0258      2.00000
     95     -32.0162      2.00000
     96     -32.0066      2.00000
     97     -31.9997      2.00000
     98     -31.9948      2.00000
     99     -31.9856      2.00000
    100     -31.9445      2.00000
    101     -31.9375      2.00000
    102     -31.9303      2.00000
    103     -31.9254      2.00000
    104     -31.9157      2.00000
    105     -31.9137      2.00000
    106     -31.9036      2.00000
    107     -31.8993      2.00000
    108     -31.8780      2.00000
    109     -31.8746      2.00000
    110     -31.8666      2.00000
    111     -31.8556      2.00000
    112     -31.8512      2.00000
    113     -31.8403      2.00000
    114     -31.8308      2.00000
    115     -31.7739      2.00000
    116     -31.7670      2.00000
    117     -31.7658      2.00000
    118     -31.7656      2.00000
    119     -31.7652      2.00000
    120     -31.7557      2.00000
    121     -31.7548      2.00000
    122     -31.7348      2.00000
    123     -31.7048      2.00000
    124     -31.6969      2.00000
    125     -31.6827      2.00000
    126     -31.6785      2.00000
    127     -31.6615      2.00000
    128     -31.6590      2.00000
    129     -31.6528      2.00000
    130     -31.6365      2.00000
    131     -31.6314      2.00000
    132     -31.6267      2.00000
    133     -31.6202      2.00000
    134     -31.6135      2.00000
    135     -31.6099      2.00000
    136     -31.6072      2.00000
    137     -31.6023      2.00000
    138     -31.5863      2.00000
    139     -31.5835      2.00000
    140     -31.5819      2.00000
    141     -31.5686      2.00000
    142     -31.5550      2.00000
    143     -31.5517      2.00000
    144     -31.5499      2.00000
    145     -31.5458      2.00000
    146     -31.5354      2.00000
    147     -31.5239      2.00000
    148     -31.5133      2.00000
    149     -31.5121      2.00000
    150     -31.5105      2.00000
    151     -31.5017      2.00000
    152     -31.4976      2.00000
    153     -31.4951      2.00000
    154     -31.4911      2.00000
    155     -31.4908      2.00000
    156     -31.4897      2.00000
    157     -31.4885      2.00000
    158     -31.4876      2.00000
    159     -31.4847      2.00000
    160     -31.4790      2.00000
    161     -31.4680      2.00000
    162     -31.4639      2.00000
    163     -31.4616      2.00000
    164     -31.4556      2.00000
    165     -31.4487      2.00000
    166     -31.4321      2.00000
    167     -31.4297      2.00000
    168     -31.4124      2.00000
    169     -31.4069      2.00000
    170     -31.3970      2.00000
    171     -31.3883      2.00000
    172     -31.3578      2.00000
    173     -31.3534      2.00000
    174     -31.3358      2.00000
    175     -31.3138      2.00000
    176     -31.3054      2.00000
    177     -31.2988      2.00000
    178     -31.2980      2.00000
    179     -31.2975      2.00000
    180     -31.2940      2.00000
    181     -31.2824      2.00000
    182     -31.2730      2.00000
    183     -31.2682      2.00000
    184     -31.2658      2.00000
    185     -31.2606      2.00000
    186     -31.2562      2.00000
    187     -31.2482      2.00000
    188     -31.2462      2.00000
    189     -31.2440      2.00000
    190     -31.2389      2.00000
    191     -31.2304      2.00000
    192     -31.2283      2.00000
    193     -31.2248      2.00000
    194     -31.2185      2.00000
    195     -31.2142      2.00000
    196     -31.2099      2.00000
    197     -31.2065      2.00000
    198     -31.1972      2.00000
    199     -31.1966      2.00000
    200     -31.1909      2.00000
    201     -31.1875      2.00000
    202     -31.1855      2.00000
    203     -31.1811      2.00000
    204     -31.1773      2.00000
    205     -31.1753      2.00000
    206     -31.1709      2.00000
    207     -31.1643      2.00000
    208     -31.1611      2.00000
    209     -31.1483      2.00000
    210     -31.1389      2.00000
    211     -31.1264      2.00000
    212     -31.1256      2.00000
    213     -31.1183      2.00000
    214     -31.1005      2.00000
    215     -31.0993      2.00000
    216     -31.0980      2.00000
    217     -31.0972      2.00000
    218     -31.0933      2.00000
    219     -31.0881      2.00000
    220     -31.0872      2.00000
    221     -31.0866      2.00000
    222     -31.0859      2.00000
    223     -31.0820      2.00000
    224     -31.0799      2.00000
    225     -31.0542      2.00000
    226     -31.0536      2.00000
    227     -31.0520      2.00000
    228     -31.0504      2.00000
    229     -31.0409      2.00000
    230     -31.0376      2.00000
    231     -31.0361      2.00000
    232     -31.0359      2.00000
    233     -31.0299      2.00000
    234     -31.0275      2.00000
    235     -31.0039      2.00000
    236     -30.9915      2.00000
    237     -30.9681      2.00000
    238     -30.9607      2.00000
    239     -30.9565      2.00000
    240     -30.9369      2.00000
    241     -30.9287      2.00000
    242     -30.9130      2.00000
    243     -27.9821      2.00000
    244     -27.9454      2.00000
    245     -27.8698      2.00000
    246     -27.8447      2.00000
    247     -27.7365      2.00000
    248     -27.7306      2.00000
    249     -16.1862      2.00000
    250      -2.9554      2.00000
    251      -2.5851      2.00000
    252      -2.5199      2.00000
    253      -2.2113      2.00000
    254      -2.2070      2.00000
    255      -2.2036      2.00000
    256      -2.1252      2.00000
    257      -1.4127      2.00000
    258      -1.3928      2.00000
    259      -1.3835      2.00000
    260      -1.3415      2.00000
    261      -1.3013      2.00000
    262      -1.2446      2.00000
    263      -0.9922      2.00000
    264      -0.9775      2.00000
    265      -0.9371      2.00000
    266      -0.9276      2.00000
    267      -0.9219      2.00000
    268      -0.9197      2.00000
    269      -0.9053      2.00000
    270      -0.8935      2.00000
    271      -0.8505      2.00000
    272      -0.8102      2.00000
    273      -0.8025      2.00000
    274      -0.7975      2.00000
    275      -0.7451      2.00000
    276      -0.7076      2.00000
    277      -0.6962      2.00000
    278      -0.6634      2.00000
    279      -0.5566      2.00000
    280      -0.5365      2.00000
    281      -0.5287      2.00000
    282      -0.5210      2.00000
    283      -0.4991      2.00000
    284      -0.4960      2.00000
    285      -0.4913      2.00000
    286      -0.4735      2.00000
    287      -0.4618      2.00000
    288      -0.4569      2.00000
    289      -0.4066      2.00000
    290      -0.3918      2.00000
    291      -0.3788      2.00000
    292      -0.3664      2.00000
    293      -0.3152      2.00000
    294      -0.2944      2.00000
    295      -0.2671      2.00000
    296      -0.2432      2.00000
    297      -0.2155      2.00000
    298      -0.1986      2.00000
    299      -0.1786      2.00000
    300      -0.1499      2.00000
    301      -0.1344      2.00000
    302      -0.1275      2.00000
    303      -0.1015      2.00000
    304      -0.0424      2.00000
    305       0.0154      2.00000
    306       0.0815      2.00000
    307       0.1361      2.00000
    308       0.1410      2.00000
    309       0.1944      2.00000
    310       0.2245      2.00000
    311       0.2250      2.00000
    312       0.2560      2.00000
    313       0.2705      2.00000
    314       0.3139      2.00000
    315       0.3224      2.00000
    316       0.3259      2.00000
    317       0.3482      2.00000
    318       0.3498      2.00000
    319       0.3574      2.00000
    320       0.3864      2.00000
    321       0.3889      2.00000
    322       0.3923      2.00000
    323       0.4035      2.00000
    324       0.4088      2.00000
    325       0.4157      2.00000
    326       0.4266      2.00000
    327       0.4350      2.00000
    328       0.4486      2.00000
    329       0.4525      2.00000
    330       0.4656      2.00000
    331       0.4828      2.00000
    332       0.5082      2.00000
    333       0.5329      2.00000
    334       0.5937      2.00000
    335       0.6253      2.00000
    336       0.6421      2.00000
    337       0.6698      2.00000
    338       0.7169      2.00000
    339       0.7492      2.00000
    340       0.7624      2.00000
    341       0.8132      2.00000
    342       0.8513      2.00000
    343       0.8945      2.00000
    344       0.8969      2.00000
    345       0.9054      2.00000
    346       0.9104      2.00000
    347       0.9328      2.00000
    348       0.9720      2.00000
    349       1.0101      2.00000
    350       1.0217      2.00000
    351       1.0298      2.00000
    352       1.1127      2.00000
    353       1.1218      2.00000
    354       1.1561      2.00000
    355       1.1589      2.00000
    356       1.1809      2.00000
    357       1.1867      2.00000
    358       1.1929      2.00000
    359       1.2018      2.00000
    360       1.2566      2.00000
    361       1.2825      2.00000
    362       1.3156      2.00000
    363       1.3249      2.00000
    364       1.3718      2.00000
    365       1.3809      2.00000
    366       1.4207      2.00000
    367       1.4398      2.00000
    368       1.4689      2.00000
    369       1.4773      2.00000
    370       1.4889      2.00000
    371       1.5061      2.00000
    372       1.5080      2.00000
    373       1.5088      2.00000
    374       1.5200      2.00000
    375       1.5266      2.00000
    376       1.5347      2.00000
    377       1.5588      2.00000
    378       1.5816      2.00000
    379       1.6029      2.00000
    380       1.6369      2.00000
    381       1.7104      2.00000
    382       1.7576      2.00000
    383       1.7680      2.00000
    384       1.8047      2.00000
    385       1.8206      2.00000
    386       1.8281      2.00000
    387       1.8360      2.00000
    388       1.8844      2.00000
    389       1.8964      2.00000
    390       1.9319      2.00000
    391       1.9595      2.00000
    392       2.0039      2.00000
    393       2.0077      2.00000
    394       2.0370      2.00000
    395       2.0682      2.00000
    396       2.0927      2.00000
    397       2.1064      2.00000
    398       2.1962      2.00000
    399       2.3152      2.00000
    400       2.3440      2.00000
    401       2.3619      2.00000
    402       2.3817      2.00000
    403       2.4517      2.00000
    404       2.5505      2.00000
    405       2.5769      2.00000
    406       2.7001      2.00000
    407       2.7085      2.00000
    408       2.7543      2.00000
    409       2.7639      2.00000
    410       2.7953      2.00000
    411       2.8214      2.00000
    412       2.8767      2.00000
    413       2.9162      2.00000
    414       2.9470      2.00000
    415       2.9663      2.00000
    416       2.9930      2.00000
    417       3.0217      2.00000
    418       3.0251      2.00000
    419       3.0262      2.00000
    420       3.0272      2.00000
    421       3.0281      2.00000
    422       3.0592      2.00000
    423       3.0804      2.00000
    424       3.0850      2.00000
    425       3.1089      2.00000
    426       3.1283      2.00000
    427       3.1624      2.00000
    428       3.1897      2.00000
    429       3.2668      2.00000
    430       3.3823      2.00000
    431       3.3928      2.00000
    432       3.4241      2.00000
    433       3.4836      1.97635
    434       3.5316      1.15496
    435       3.5407      0.76806
    436       3.5498     -0.14728
    437       3.5617     -0.44638
    438       3.5811      0.00000
    439       3.6201      0.00000
    440       3.6472      0.00000
    441       3.6833      0.00000
    442       3.7214      0.00000
    443       3.7270      0.00000
    444       3.7520      0.00000
    445       3.7595      0.00000
    446       3.7776      0.00000
    447       3.9142      0.00000
    448       3.9177      0.00000
    449       3.9860      0.00000
    450       4.0026      0.00000
    451       4.0265      0.00000
    452       4.0656      0.00000
    453       4.1127      0.00000
    454       4.1639      0.00000
    455       4.1796      0.00000
    456       4.1990      0.00000
    457       4.2131      0.00000
    458       4.2215      0.00000
    459       4.2716      0.00000
    460       4.2888      0.00000
    461       4.3182      0.00000
    462       4.3275      0.00000
    463       4.3421      0.00000
    464       4.3582      0.00000
    465       4.3738      0.00000
    466       4.4040      0.00000
    467       4.4243      0.00000
    468       4.4333      0.00000
    469       4.4482      0.00000
    470       4.4845      0.00000
    471       4.5182      0.00000
    472       4.5738      0.00000
    473       4.5850      0.00000
    474       4.6182      0.00000
    475       4.6308      0.00000
    476       4.6387      0.00000
    477       4.6530      0.00000
    478       4.7624      0.00000
    479       4.7804      0.00000
    480       4.8112      0.00000
    481       4.8326      0.00000
    482       4.8660      0.00000
    483       4.8823      0.00000
    484       4.8962      0.00000
    485       4.9109      0.00000
    486       4.9353      0.00000
    487       4.9535      0.00000
    488       4.9698      0.00000
    489       4.9777      0.00000
    490       4.9927      0.00000
    491       4.9979      0.00000
    492       5.0102      0.00000
    493       5.0248      0.00000
    494       5.0407      0.00000
    495       5.0475      0.00000
    496       5.0633      0.00000
    497       5.0758      0.00000
    498       5.0955      0.00000
    499       5.1010      0.00000
    500       5.1172      0.00000
    501       5.1281      0.00000
    502       5.1368      0.00000
    503       5.1654      0.00000
    504       5.1800      0.00000
    505       5.1992      0.00000
    506       5.2087      0.00000
    507       5.2420      0.00000
    508       5.2546      0.00000
    509       5.2713      0.00000
    510       5.2830      0.00000
    511       5.2894      0.00000
    512       5.3403      0.00000
    513       5.3527      0.00000
    514       5.3793      0.00000
    515       5.3855      0.00000
    516       5.3892      0.00000
    517       5.4454      0.00000
    518       5.4813      0.00000
    519       5.5149      0.00000
    520       5.5360      0.00000
    521       5.5757      0.00000
    522       5.5904      0.00000
    523       5.6429      0.00000


--------------------------------------------------------------------------------------------------------


 soft charge-density along one line, spin component           1
         0         1         2         3         4         5         6         7         8         9
 total charge-density along one line
 
 pseudopotential strength for first ion, spin component:           1
 -5.003  11.907  -0.000   0.013  -0.000   0.000  -0.002   0.000
 11.907   3.242   0.000  -0.007   0.000  -0.000  -0.014  -0.000
 -0.000   0.000 -18.690  -0.001  -0.000   9.539   0.001   0.000
  0.013  -0.007  -0.001 -18.720  -0.001   0.001   9.569   0.001
 -0.000   0.000  -0.000  -0.001 -18.690   0.000   0.001   9.539
  0.000  -0.000   9.539   0.001   0.000   5.401  -0.000  -0.000
 -0.002  -0.014   0.001   9.569   0.001  -0.000   5.387  -0.000
  0.000  -0.000   0.000   0.001   9.539  -0.000  -0.000   5.401
 -0.000  -0.000  -0.000   0.000  -0.000   0.000  -0.000   0.000
 -0.001   0.000   0.006  -0.000   0.000   0.001   0.000  -0.000
 -0.022   0.012   0.000   0.015   0.000  -0.000  -0.003  -0.000
 -0.001   0.000   0.000  -0.000   0.006  -0.000   0.000   0.001
 -0.000   0.000   0.000  -0.000  -0.000  -0.000   0.000   0.000
 -0.000  -0.000  -0.000   0.000  -0.000   0.000  -0.000   0.000
 -0.001   0.000   0.006  -0.000   0.000   0.001   0.000  -0.000
 -0.023   0.012   0.000   0.015   0.000  -0.000  -0.003  -0.000
 -0.001   0.000   0.000  -0.000   0.006  -0.000   0.000   0.001
 -0.000   0.000   0.000  -0.000  -0.000  -0.000   0.000   0.000
 total augmentation occupancy for first ion, spin component:           1
  2.000   0.000   0.000   0.000   0.000   0.000   0.000   0.000   0.000   0.000   0.000   0.000   0.000   0.000   0.000   0.000
  0.000   1.000   0.000   0.000   0.000   0.000   0.000   0.000   0.000   0.000   0.000   0.000   0.000   0.000   0.000   0.000
  0.000   0.000   2.000   0.000   0.000   0.000   0.000   0.000   0.000   0.000   0.000   0.000   0.000   0.000   0.000   0.000
  0.000   0.000   0.000   2.000   0.000   0.000   0.000   0.000   0.000   0.000   0.000   0.000   0.000   0.000   0.000   0.000
  0.000   0.000   0.000   0.000   2.000   0.000   0.000   0.000   0.000   0.000   0.000   0.000   0.000   0.000   0.000   0.000
  0.000   0.000   0.000   0.000   0.000   0.000   0.000   0.000   0.000   0.000   0.000   0.000   0.000   0.000   0.000   0.000
  0.000   0.000   0.000   0.000   0.000   0.000   0.000   0.000   0.000   0.000   0.000   0.000   0.000   0.000   0.000   0.000
  0.000   0.000   0.000   0.000   0.000   0.000   0.000   0.000   0.000   0.000   0.000   0.000   0.000   0.000   0.000   0.000
  0.000   0.000   0.000   0.000   0.000   0.000   0.000   0.000   1.000   0.000   0.000   0.000   0.000   0.000   0.000   0.000
  0.000   0.000   0.000   0.000   0.000   0.000   0.000   0.000   0.000   1.000   0.000   0.000   0.000   0.000   0.000   0.000
  0.000   0.000   0.000   0.000   0.000   0.000   0.000   0.000   0.000   0.000   1.000   0.000   0.000   0.000   0.000   0.000
  0.000   0.000   0.000   0.000   0.000   0.000   0.000   0.000   0.000   0.000   0.000   1.000   0.000   0.000   0.000   0.000
  0.000   0.000   0.000   0.000   0.000   0.000   0.000   0.000   0.000   0.000   0.000   0.000   1.000   0.000   0.000   0.000
  0.000   0.000   0.000   0.000   0.000   0.000   0.000   0.000   0.000   0.000   0.000   0.000   0.000   0.000   0.000   0.000
  0.000   0.000   0.000   0.000   0.000   0.000   0.000   0.000   0.000   0.000   0.000   0.000   0.000   0.000   0.000   0.000
  0.000   0.000   0.000   0.000   0.000   0.000   0.000   0.000   0.000   0.000   0.000   0.000   0.000   0.000   0.000   0.000
  0.000   0.000   0.000   0.000   0.000   0.000   0.000   0.000   0.000   0.000   0.000   0.000   0.000   0.000   0.000   0.000
  0.000   0.000   0.000   0.000   0.000   0.000   0.000   0.000   0.000   0.000   0.000   0.000   0.000   0.000   0.000   0.000


------------------------ aborting loop because EDIFF is reached ----------------------------------------





 total charge

# of ion       s       p       d       tot
------------------------------------------
    1        2.336   6.064   3.903  12.304
    2        2.369   6.096   3.960  12.425
    3        2.377   6.190   3.872  12.439
    4        2.337   6.065   3.897  12.299
    5        2.380   6.072   4.028  12.479
    6        2.377   6.190   3.872  12.440
    7        2.336   6.065   3.894  12.295
    8        2.367   6.097   3.962  12.427
    9        2.377   6.189   3.874  12.441
   10        2.337   6.065   3.898  12.300
   11        2.377   6.190   3.872  12.439
   12        2.336   6.066   3.892  12.294
   13        2.378   6.190   3.874  12.441
   14        2.337   6.065   3.890  12.293
   15        2.377   6.191   3.872  12.439
   16        2.336   6.065   3.895  12.296
   17        2.367   6.099   3.957  12.423
   18        2.377   6.189   3.874  12.441
   19        2.337   6.066   3.893  12.295
   20        2.377   6.191   3.872  12.439
   21        2.337   6.065   3.896  12.297
   22        2.342   6.116   3.932  12.390
   23        2.377   6.190   3.872  12.439
   24        2.375   6.201   3.873  12.449
   25        2.374   6.200   3.893  12.467
   26        2.376   6.201   3.878  12.454
   27        2.374   6.202   3.889  12.465
   28        2.375   6.201   3.871  12.447
   29        2.374   6.202   3.892  12.468
   30        2.376   6.201   3.877  12.454
   31        2.374   6.202   3.890  12.466
   32        2.373   6.200   3.875  12.449
   33        2.375   6.207   3.881  12.464
   34        2.376   6.202   3.871  12.448
   35        2.374   6.202   3.892  12.468
   36        2.375   6.201   3.871  12.447
   37        2.374   6.202   3.892  12.468
   38        2.376   6.202   3.872  12.449
   39        2.374   6.201   3.893  12.468
   40        2.375   6.201   3.877  12.453
   41        2.375   6.202   3.892  12.469
   42        2.373   6.203   3.871  12.447
   43        2.376   6.171   3.915  12.463
   44        2.375   6.201   3.875  12.451
   45        2.378   6.175   3.931  12.483
   46        2.373   6.203   3.873  12.449
   47        2.393   6.196   3.953  12.541
   48        2.374   6.200   3.876  12.451
   49        2.376   6.174   3.925  12.474
   50        2.384   6.197   3.877  12.458
   51        2.366   6.198   4.001  12.565
   52        2.376   6.202   3.872  12.450
   53        2.386   6.193   3.912  12.491
   54        2.373   6.202   3.874  12.449
   55        2.395   6.197   3.956  12.549
   56        2.376   6.202   3.872  12.450
   57        2.384   6.191   3.906  12.481
   58        2.373   6.204   3.887  12.464
   59        2.416   6.215   4.015  12.646
   60        2.381   6.069   4.032  12.482
   61        2.207   5.970   2.470  10.647
   62        2.207   5.969   2.468  10.645
   63        1.567   3.405   0.000   4.972
--------------------------------------------------
tot        148.200 385.344 238.991 772.535
 
    CHARGE:  cpu time      2.7664: real time      0.9077
    FORLOC:  cpu time      1.4540: real time      0.3059
    FORNL :  cpu time     12.6486: real time      4.8232
    STRESS:  cpu time     40.9214: real time     14.6679
    FORCOR:  cpu time      9.8656: real time      1.5784
    FORHAR:  cpu time      1.7957: real time      1.4585
    OFIELD:  cpu time      0.0128: real time      0.0064

  FORCE on cell =-STRESS in cart. coord.  units (eV):
  Direction    XX          YY          ZZ          XY          YZ          ZX
  --------------------------------------------------------------------------------------
  Alpha Z  3214.99793  3214.99793  3214.99793
  Ewald  450705.15428450710.27622************  -209.20147  -120.34749  -124.29457
  Hartree478996.90655478997.62574************  -137.56989   -83.45874   -85.44746
  E(xc)   -4166.60284 -4166.58221 -4173.50967    -0.15300    -0.07581    -0.07864
  Local  ************************967055.84611   342.82022   200.29877   205.96737
  n-local -1571.12257 -1571.13645 -1605.34534    -7.05078    -2.78657    -3.01265
  augment  2095.12455  2095.23122  2090.66611     0.64762     1.16420     1.28936
  Kinetic 15748.32057 15749.26629 15749.73727    11.16170     4.86811     5.31503
  Fock        0.00000     0.00000     0.00000     0.00000     0.00000     0.00000
  -------------------------------------------------------------------------------------
  Total     -56.30292   -55.99732   -28.22180     0.65440    -0.33752    -0.26156
  in kB     -40.80592   -40.58443   -20.45394     0.47428    -0.24462    -0.18957
  external pressure =      -33.95 kB  Pullay stress =        0.00 kB


 VOLUME and BASIS-vectors are now :
 -----------------------------------------------------------------------------
  energy-cutoff  :      530.00
  volume of cell :     2210.64
      direct lattice vectors                 reciprocal lattice vectors
     9.498399734  0.000000000  0.000000000     0.105280892  0.000000000  0.000000000
     0.000000000  9.498399734  0.000000000     0.000000000  0.105280892  0.000000000
     0.000000000  0.000000000 24.502899170     0.000000000  0.000000000  0.040811497

  length of vectors
     9.498399734  9.498399734 24.502899170     0.105280892  0.105280892  0.040811497


 FORCES acting on ions
    electron-ion (+dipol)            ewald-force                    non-local-force                 convergence-correction
 -----------------------------------------------------------------------------------------------
   -.726E+00 -.789E+00 0.560E+04   0.766E+00 0.781E+00 -.559E+04   0.253E-01 0.278E-01 -.830E+01   -.855E-01 -.314E-01 -.239E+00
   -.151E+03 -.177E+03 -.567E+04   0.150E+03 0.176E+03 0.567E+04   0.819E+00 0.113E+01 0.738E+01   -.297E-01 -.390E-01 -.148E+00
   -.171E+01 -.176E+01 0.384E+04   0.170E+01 0.176E+01 -.385E+04   -.360E-02 -.129E-02 0.900E+00   0.264E-01 0.245E-01 0.770E-01
   0.787E-01 -.657E+00 0.559E+04   -.152E+00 0.821E+00 -.558E+04   -.338E-01 -.115E-01 -.820E+01   0.124E+00 -.126E+00 -.186E+00
   -.236E+01 -.185E+03 -.565E+04   0.239E+01 0.184E+03 0.564E+04   -.717E-01 0.112E+01 0.956E+01   0.475E-01 -.101E+00 -.264E-01
   0.207E+01 -.155E+01 0.385E+04   -.225E+01 0.147E+01 -.385E+04   -.224E-02 0.121E-01 0.868E+00   0.178E+00 0.310E-01 -.797E-01
   0.645E+00 -.636E+00 0.560E+04   -.614E+00 0.777E+00 -.559E+04   -.181E-01 -.506E-01 -.824E+01   -.315E-01 -.877E-01 -.176E+00
   0.162E+03 -.858E+02 -.565E+04   -.161E+03 0.864E+02 0.564E+04   -.984E+00 -.589E+00 0.771E+01   0.122E-01 -.325E-01 -.110E+00
   -.358E+00 -.153E+01 0.385E+04   0.549E+00 0.155E+01 -.385E+04   0.890E-02 0.505E-01 0.828E+00   -.206E+00 -.521E-01 -.459E-01
   -.485E+00 0.132E+00 0.559E+04   0.812E+00 -.150E+00 -.558E+04   -.173E-01 -.364E-01 -.820E+01   -.264E+00 0.628E-01 -.179E+00
   -.149E+01 0.217E+01 0.385E+04   0.143E+01 -.228E+01 -.385E+04   0.117E-01 -.230E-02 0.866E+00   0.128E-01 0.106E+00 0.122E-01
   -.353E-03 0.166E+00 0.559E+04   -.222E+00 -.214E+00 -.558E+04   0.293E-01 0.145E-01 -.819E+01   0.183E+00 0.374E-01 0.160E-01
   0.226E+01 0.238E+01 0.385E+04   -.226E+01 -.228E+01 -.385E+04   -.204E-01 -.221E-01 0.812E+00   0.243E-01 -.740E-01 -.125E+00
   0.556E+00 0.219E+00 0.559E+04   -.590E+00 -.216E+00 -.558E+04   -.194E-01 -.132E-01 -.821E+01   0.539E-01 -.761E-02 -.968E-01
   -.798E+00 0.204E+01 0.385E+04   0.832E+00 -.208E+01 -.385E+04   0.108E-01 0.936E-02 0.837E+00   -.363E-01 0.454E-01 -.203E+00
   -.539E+00 0.655E+00 0.560E+04   0.768E+00 -.631E+00 -.559E+04   -.485E-01 -.167E-01 -.825E+01   -.171E+00 -.275E-01 -.167E+00
   -.111E+03 0.183E+03 -.565E+04   0.111E+03 -.182E+03 0.564E+04   -.106E+00 -.134E+01 0.752E+01   -.554E-01 -.723E-01 0.969E-02
   -.145E+01 -.399E+00 0.385E+04   0.151E+01 0.524E+00 -.385E+04   0.481E-01 0.890E-02 0.835E+00   -.875E-01 -.135E+00 -.230E-01
   0.188E+00 0.568E+00 0.559E+04   -.219E+00 -.607E+00 -.558E+04   -.251E-01 -.150E-01 -.820E+01   0.353E-01 0.583E-01 -.516E-01
   0.194E+01 -.857E+00 0.385E+04   -.205E+01 0.807E+00 -.385E+04   0.982E-02 0.965E-02 0.831E+00   0.112E+00 0.475E-01 -.215E+00
   0.388E+00 0.450E+00 0.560E+04   -.549E+00 -.561E+00 -.559E+04   0.917E-02 0.389E-02 -.827E+01   0.140E+00 0.984E-01 -.257E+00
   -.584E+02 -.782E+02 -.559E+04   0.596E+02 0.793E+02 0.558E+04   -.107E+01 -.815E+00 0.794E+01   -.988E-01 -.191E+00 0.365E-01
   -.510E+00 -.545E+00 0.385E+04   0.540E+00 0.537E+00 -.385E+04   0.190E-01 0.175E-01 0.784E+00   -.380E-01 0.441E-02 -.673E-01
   -.583E+01 -.608E+01 0.189E+04   0.593E+01 0.611E+01 -.188E+04   0.169E-01 0.272E-01 -.669E+00   -.148E+00 -.833E-01 0.249E-01
   -.166E+02 -.172E+02 -.102E+03   0.166E+02 0.172E+02 0.102E+03   0.770E-01 0.745E-01 0.214E-01   -.727E-01 -.205E-01 -.145E+00
   0.939E+00 -.684E+01 0.188E+04   -.944E+00 0.679E+01 -.188E+04   -.596E-02 0.132E-02 -.722E+00   0.663E-01 0.137E-01 -.763E-01
   0.187E+02 -.132E+02 -.954E+02   -.190E+02 0.130E+02 0.955E+02   0.428E-02 0.978E-01 0.169E-01   0.183E+00 0.490E-01 -.124E+00
   0.490E+01 -.607E+01 0.189E+04   -.499E+01 0.599E+01 -.189E+04   -.195E-01 -.292E-01 -.684E+00   0.911E-01 0.478E-01 -.188E-01
   -.223E+01 -.119E+02 -.688E+02   0.239E+01 0.122E+02 0.688E+02   -.128E-01 0.365E-01 -.109E-01   -.150E+00 -.219E+00 -.537E-01
   -.671E+01 0.102E+01 0.188E+04   0.672E+01 -.959E+00 -.188E+04   -.363E-02 -.166E-01 -.724E+00   -.273E-01 0.169E-01 -.629E-01
   -.129E+02 0.189E+02 -.958E+02   0.127E+02 -.191E+02 0.959E+02   0.990E-01 0.117E-01 0.644E-02   0.506E-01 0.138E+00 -.130E+00
   0.230E+01 0.225E+01 0.187E+04   -.233E+01 -.225E+01 -.187E+04   -.934E-01 -.841E-01 -.439E+00   0.783E-01 0.573E-01 -.991E-02
   0.200E+02 0.200E+02 -.706E+02   -.198E+02 -.197E+02 0.709E+02   -.978E-01 -.101E+00 -.412E+00   -.924E-01 -.123E+00 -.875E-01
   0.441E+01 0.239E+01 0.188E+04   -.439E+01 -.226E+01 -.188E+04   0.522E-01 -.248E-01 -.702E+00   -.312E-01 -.851E-01 -.463E-01
   -.733E+01 0.148E+02 -.659E+02   0.735E+01 -.150E+02 0.661E+02   -.303E-01 -.291E-01 0.261E-02   0.292E-01 0.810E-01 -.147E+00
   -.594E+01 0.508E+01 0.189E+04   0.593E+01 -.515E+01 -.189E+04   -.276E-01 -.245E-01 -.676E+00   -.579E-02 0.635E-01 -.244E-02
   -.117E+02 -.177E+01 -.674E+02   0.120E+02 0.192E+01 0.674E+02   0.381E-01 -.165E-01 -.357E-01   -.205E+00 -.128E+00 -.230E-01
   0.237E+01 0.459E+01 0.188E+04   -.225E+01 -.455E+01 -.188E+04   -.182E-01 0.508E-01 -.707E+00   -.725E-01 -.517E-01 -.126E-01
   0.145E+02 -.697E+01 -.659E+02   -.147E+02 0.695E+01 0.661E+02   -.311E-01 -.328E-01 0.129E-01   0.121E+00 0.602E-01 -.871E-01
   0.361E+01 0.369E+01 0.189E+04   -.367E+01 -.373E+01 -.189E+04   0.187E-01 0.250E-01 -.716E+00   0.695E-01 0.370E-01 -.877E-01
   -.265E+01 -.256E+01 -.393E+02   0.255E+01 0.245E+01 0.390E+02   -.185E-01 -.245E-01 -.180E-01   0.901E-01 0.140E+00 -.376E-01
   -.460E+02 -.497E+02 -.198E+04   0.465E+02 0.502E+02 0.198E+04   -.268E+00 -.288E+00 0.582E+00   -.182E+00 -.148E+00 -.214E+00
   -.180E+03 -.181E+03 -.417E+04   0.179E+03 0.180E+03 0.417E+04   0.653E+00 0.626E+00 0.785E+00   -.186E-01 0.219E-01 -.229E+00
   0.163E+01 -.552E+02 -.203E+04   -.148E+01 0.555E+02 0.203E+04   -.118E+00 -.298E-01 0.510E+00   0.313E-01 -.115E+00 -.178E+00
   0.174E+03 -.173E+03 -.413E+04   -.173E+03 0.173E+03 0.413E+04   -.805E+00 0.802E+00 0.552E+00   0.148E+00 0.156E+00 -.189E+00
   0.437E+02 -.427E+02 -.198E+04   -.443E+02 0.429E+02 0.198E+04   0.320E+00 -.143E+00 0.444E+00   0.162E+00 0.133E-01 -.191E+00
   0.145E+01 -.102E+03 -.399E+04   -.137E+01 0.102E+03 0.399E+04   0.799E-01 0.173E+00 -.936E+00   -.146E+00 -.453E-01 -.245E+00
   -.537E+02 0.273E+01 -.203E+04   0.540E+02 -.256E+01 0.203E+04   -.627E-01 -.108E+00 0.536E+00   -.950E-01 0.147E-02 -.169E+00
   -.170E+03 0.161E+03 -.414E+04   0.169E+03 -.161E+03 0.414E+04   0.724E+00 -.744E+00 0.664E+00   0.136E+00 0.135E+00 -.120E+00
   0.273E+02 0.270E+02 -.219E+04   -.274E+02 -.271E+02 0.219E+04   -.195E+00 -.240E+00 0.179E+00   0.119E+00 0.137E+00 -.166E+00
   0.204E+03 0.199E+03 -.384E+04   -.204E+03 -.199E+03 0.383E+04   0.450E-01 0.337E-01 0.329E+01   0.255E-01 0.895E-02 0.106E+00
   0.276E+02 0.279E+02 -.203E+04   -.275E+02 -.279E+02 0.203E+04   0.205E-02 -.122E+00 0.464E+00   -.144E-01 -.777E-01 -.125E+00
   -.506E+02 0.811E+02 -.401E+04   0.506E+02 -.811E+02 0.401E+04   0.131E+00 -.729E-01 -.725E+00   -.190E+00 0.694E-01 -.358E-01
   -.429E+02 0.452E+02 -.199E+04   0.431E+02 -.459E+02 0.199E+04   -.185E+00 0.354E+00 0.485E+00   0.132E-01 0.150E+00 -.174E+00
   -.104E+03 0.176E+02 -.398E+04   0.104E+03 -.174E+02 0.398E+04   0.167E+00 -.168E-01 -.985E+00   -.564E-01 -.190E+00 -.224E+00
   0.274E+02 0.291E+02 -.204E+04   -.273E+02 -.290E+02 0.203E+04   -.117E+00 0.139E-01 0.461E+00   -.645E-01 -.215E-01 -.100E+00
   0.687E+02 -.397E+02 -.402E+04   -.688E+02 0.398E+02 0.402E+04   0.510E-02 0.510E-01 -.650E+00   0.938E-01 -.168E+00 -.135E+00
   0.173E+02 0.158E+02 -.196E+04   -.178E+02 -.163E+02 0.196E+04   0.428E+00 0.391E+00 0.621E+00   0.586E-01 0.656E-01 -.120E-01
   0.290E+02 0.144E+02 -.382E+04   -.289E+02 -.143E+02 0.382E+04   -.765E-01 -.621E-01 -.167E+01   -.453E-01 -.496E-02 -.370E+00
   -.182E+03 0.232E+01 -.565E+04   0.181E+03 -.238E+01 0.564E+04   0.107E+01 -.522E-01 0.967E+01   -.114E+00 0.121E+00 0.154E-01
   0.372E+02 0.199E+03 -.522E+04   -.367E+02 -.200E+03 0.521E+04   -.443E+00 0.684E-01 0.687E+01   -.128E-02 0.170E+00 0.781E-01
   0.202E+03 0.382E+02 -.521E+04   -.202E+03 -.378E+02 0.521E+04   -.307E-01 -.385E+00 0.687E+01   0.116E+00 -.442E-01 0.430E-01
   0.126E+03 0.122E+03 -.260E+04   -.130E+03 -.126E+03 0.261E+04   0.449E+01 0.444E+01 -.160E+02   0.144E-01 -.189E-01 0.250E-01
 -----------------------------------------------------------------------------------------------
   -.414E+01 -.387E+01 0.269E+02   0.284E-13 -.568E-12 0.105E-10   0.433E+01 0.412E+01 -.208E+02   -.189E+00 -.252E+00 -.598E+01
 
 
 POSITION                                       TOTAL-FORCE (eV/Angst)
 -----------------------------------------------------------------------------------
      0.00000      0.00000      0.00000        -0.019620     -0.012242      1.577090
      9.38217      9.34897      9.38037        -0.011851     -0.018547     -0.008904
      1.58310      1.58310      1.58387         0.012797      0.017686     -1.325387
      3.16610      0.00000      0.00000         0.016852      0.026708      1.540497
      3.15988      0.02884      9.30087         0.003160     -0.011270     -0.004385
      4.74920      1.58310      1.58387        -0.000444     -0.033206     -1.287557
      6.33230      0.00000      0.00000        -0.018827      0.003282      1.567224
      6.49347      0.05036      9.34802         0.001224      0.007574      0.005933
      7.91530      1.58310      1.58387        -0.006331      0.016442     -1.324320
      0.00000      3.16610      0.00000         0.045109      0.008516      1.544151
      1.58310      4.74920      1.58387        -0.032504     -0.004801     -1.282858
      3.16610      3.16610      0.00000        -0.010301      0.003932      1.506923
      4.74920      4.74920      1.58387         0.001446      0.008093     -1.293006
      6.33230      3.16610      0.00000         0.000614     -0.017315      1.515723
      7.91530      4.74920      1.58387         0.008103      0.011584     -1.201165
      0.00000      6.33230      0.00000         0.010077     -0.020565      1.559290
      0.00725      6.52747      9.35711         0.009434      0.006647      0.009044
      1.58310      7.91530      1.58387         0.017410     -0.000837     -1.316840
      3.16610      6.33230      0.00000        -0.021015      0.004633      1.510268
      4.74920      7.91530      1.58387         0.014078      0.007640     -1.197036
      6.33230      6.33230      0.00000        -0.011524     -0.009233      1.514959
      6.39932      6.35401      9.38840         0.006135      0.003973     -0.009744
      7.91530      7.91530      1.58387         0.010706      0.014030     -1.461968
      0.00000      0.00000      3.16773        -0.028803     -0.023326      0.077802
      1.58310      1.58310      4.75136         0.057403      0.059815      0.028189
      3.16610      0.00000      3.16773         0.055587     -0.035764     -0.189982
      4.74920      1.58310      4.75136        -0.072596     -0.042930     -0.052029
      6.33230      0.00000      3.16773        -0.019318     -0.058285     -0.066454
      7.91530      1.58310      4.75136         0.002806      0.154152     -0.047600
      0.00000      3.16610      3.16773        -0.026575      0.063012     -0.202300
      1.58310      4.74920      4.75136        -0.037807     -0.085804     -0.044693
      3.16610      3.16610      3.16773        -0.044703     -0.028314     -0.020029
      4.74920      4.74920      4.75136         0.063334      0.085321     -0.206697
      6.33230      3.16610      3.16773         0.043490      0.011242     -0.154512
      7.91530      4.74920      4.75136         0.013302     -0.112520      0.068647
      0.00000      6.33230      3.16773        -0.047895     -0.026570     -0.058159
      1.58310      7.91530      4.75136         0.153823      0.003565     -0.084645
      3.16610      6.33230      3.16773         0.027932      0.036334     -0.168624
      4.74920      7.91530      4.75136        -0.106451      0.006660      0.083559
      6.33230      6.33230      3.16773         0.024524      0.028759     -0.072732
      7.91530      7.91530      4.75136        -0.023363      0.003547     -0.433264
      0.00000      0.00000      6.33522         0.043746      0.043240      0.122385
      1.58091      1.58362      7.95692        -0.001683     -0.001316      0.013907
      3.16610      0.00000      6.33522         0.066286      0.153779     -0.280288
      4.74245      1.57377      7.93208         0.003986      0.000397     -0.001657
      6.33230      0.00000      6.33522        -0.157972      0.060283     -0.180761
      7.92203      1.60561      7.94252         0.012918     -0.004780      0.018996
      0.00000      3.16610      6.33522         0.168244      0.065273     -0.286830
      1.57584      4.74296      7.93021         0.001848     -0.003112     -0.000654
      3.16610      3.16610      6.33522        -0.189706     -0.181718      0.213880
      4.74109      4.74245      7.84525        -0.000660      0.001494     -0.011882
      6.33230      3.16610      6.33522         0.108318     -0.135877     -0.000509
      7.91065      4.74942      7.95731        -0.004932     -0.003193      0.007104
      0.00000      6.33230      6.33522         0.026435     -0.134339     -0.084434
      1.60571      7.92269      7.93490        -0.002720      0.011958      0.017318
      3.16610      6.33230      6.33522        -0.095727      0.111963     -0.017011
      4.75105      7.90981      7.95756        -0.001824     -0.005891      0.012781
      6.33230      6.33230      6.33522        -0.033082     -0.027259     -0.166446
      7.91155      7.92218      7.89022         0.011516      0.002991      0.011891
      0.04299      3.16905      9.29999        -0.005890      0.003044     -0.013565
      6.16389      3.24078      9.46423        -0.002122     -0.012796      0.016651
      3.24780      6.17839      9.46538        -0.008751     -0.008135      0.013468
      4.91630      4.92160     10.00897         0.002357      0.012376      0.001246
 -----------------------------------------------------------------------------------
    total drift:                                0.000317      0.000738      0.019063


--------------------------------------------------------------------------------------------------------



  FREE ENERGIE OF THE ION-ELECTRON SYSTEM (eV)
  ---------------------------------------------------
  free  energy   TOTEN  =      -649.37975917 eV

  energy  without entropy=     -649.37975917  energy(sigma->0) =     -649.37975917
 


--------------------------------------------------------------------------------------------------------


    POTLOK:  cpu time     11.6626: real time      1.9246


--------------------------------------------------------------------------------------------------------


 stress matrix after NEB project (eV)
    -56.30292      0.65440     -0.26156
      0.65440    -55.99732     -0.33752
     -0.26156     -0.33752    -28.22180
  FORCES: max atom, RMS     0.023743    0.008242
  FORCE total and by dimension    0.065418    0.018996
  Stress total and by dimension   84.281730   56.302923
 writing wavefunctions
     LOOP+:  cpu time    447.8263: real time    133.8623
 -----------------------------------------------------------------------------
|                                                                             |
|           W    W    AA    RRRRR   N    N  II  N    N   GGGG   !!!           |
|           W    W   A  A   R    R  NN   N  II  NN   N  G    G  !!!           |
|           W    W  A    A  R    R  N N  N  II  N N  N  G       !!!           |
|           W WW W  AAAAAA  RRRRR   N  N N  II  N  N N  G  GGG   !            |
|           WW  WW  A    A  R   R   N   NN  II  N   NN  G    G                |
|           W    W  A    A  R    R  N    N  II  N    N   GGGG   !!!           |
|                                                                             |
|     Tetrahedron method does not include variations of the Fermi             |
|     occupations, so forces and stress will be inaccurate. We suggest        |
|     using a different smearing scheme ISMEAR = 1 or 2 for metals in         |
|     relaxations.                                                            |
|                                                                             |
 -----------------------------------------------------------------------------

    4ORBIT:  cpu time      0.0000: real time      0.0000



 total charge

# of ion       s       p       d       tot
------------------------------------------
    1        2.336   6.064   3.903  12.304
    2        2.369   6.096   3.960  12.425
    3        2.377   6.190   3.872  12.439
    4        2.337   6.065   3.897  12.299
    5        2.380   6.072   4.028  12.479
    6        2.377   6.190   3.872  12.440
    7        2.336   6.065   3.894  12.295
    8        2.367   6.097   3.962  12.427
    9        2.377   6.189   3.874  12.441
   10        2.337   6.065   3.898  12.300
   11        2.377   6.190   3.872  12.439
   12        2.336   6.066   3.892  12.294
   13        2.378   6.190   3.874  12.441
   14        2.337   6.065   3.890  12.293
   15        2.377   6.191   3.872  12.439
   16        2.336   6.065   3.895  12.296
   17        2.367   6.099   3.957  12.423
   18        2.377   6.189   3.874  12.441
   19        2.337   6.066   3.893  12.295
   20        2.377   6.191   3.872  12.439
   21        2.337   6.065   3.896  12.297
   22        2.342   6.116   3.932  12.390
   23        2.377   6.190   3.872  12.439
   24        2.375   6.201   3.873  12.449
   25        2.374   6.200   3.893  12.467
   26        2.376   6.201   3.878  12.454
   27        2.374   6.202   3.889  12.465
   28        2.375   6.201   3.871  12.447
   29        2.374   6.202   3.892  12.468
   30        2.376   6.201   3.877  12.454
   31        2.374   6.202   3.890  12.466
   32        2.373   6.200   3.875  12.449
   33        2.375   6.207   3.881  12.464
   34        2.376   6.202   3.871  12.448
   35        2.374   6.202   3.892  12.468
   36        2.375   6.201   3.871  12.447
   37        2.374   6.202   3.892  12.468
   38        2.376   6.202   3.872  12.449
   39        2.374   6.201   3.893  12.468
   40        2.375   6.201   3.877  12.453
   41        2.375   6.202   3.892  12.469
   42        2.373   6.203   3.871  12.447
   43        2.376   6.171   3.915  12.463
   44        2.375   6.201   3.875  12.451
   45        2.378   6.175   3.931  12.483
   46        2.373   6.203   3.873  12.449
   47        2.393   6.196   3.953  12.541
   48        2.374   6.200   3.876  12.451
   49        2.376   6.174   3.925  12.474
   50        2.384   6.197   3.877  12.458
   51        2.366   6.198   4.001  12.565
   52        2.376   6.202   3.872  12.450
   53        2.386   6.193   3.912  12.491
   54        2.373   6.202   3.874  12.449
   55        2.395   6.197   3.956  12.549
   56        2.376   6.202   3.872  12.450
   57        2.384   6.191   3.906  12.481
   58        2.373   6.204   3.887  12.464
   59        2.416   6.215   4.015  12.646
   60        2.381   6.069   4.032  12.482
   61        2.207   5.970   2.470  10.647
   62        2.207   5.969   2.468  10.645
   63        1.567   3.405   0.000   4.972
--------------------------------------------------
tot        148.200 385.344 238.991 772.535
 
 BZINTS: Fermi energy:    3.480834;  872.000000 electrons
         Band energy:-0.184926E+05;  BLOECHL correction:   -0.030341

 total amount of memory used by VASP MPI-rank0  2504821. kBytes
=======================================================================

   base      :      30000. kBytes
   nonlr-proj:      83542. kBytes
   fftplans  :     272216. kBytes
   grid      :     551494. kBytes
   one-center:        979. kBytes
   wavefun   :    1566590. kBytes
 
  
  
 General timing and accounting informations for this job:
 ========================================================
  
                  Total CPU time used (sec):      620.305
                            User time (sec):      415.313
                          System time (sec):      204.993
                         Elapsed time (sec):      219.942
  
                   Maximum memory used (kb):     5117772.
                   Average memory used (kb):          N/A
  
                          Minor page faults:       624485
                          Major page faults:          158
                 Voluntary context switches:       151044
 
 PROFILE, used timers:     190
 =============================
 
 index                 routine                    time                            calls level
----------------------------------------------------------------------------------------------
    1    total_time                          219.942661                                1   1
    2      init_hip                              0.531954                              1   2
    3      crpa_reader                           0.000076                              1   2
    4      hip_init_hipblas                      0.000204                              1   2
    5      hip_init_rocsolver                    0.000070                              1   2
    6      inisym                                0.012101                              1   2
    7        posmap                                0.000017                            2   3
    8      hip_hipfft_makeplans                  0.002628                              3   2
    9        hip_hipfft_makeplan                   0.002627                            6   3
   10      m_bcast_z                             2.250989                           5234   2
   11      m_bcast_d                             0.000429                              6   2
   12      stufak                                0.594705                              2   2
   13      fft3d_mpi                             3.842786                              4   2
   14        fftbrc_mpi                            3.807247                            4   3
   15          fftbas_plan_mpi                       3.807232                          4   4
   16            dfftw_execute                         0.143791                       12   5
   17            map_backward                          0.017428                        2   5
   18              map_gather                            0.013031                      1   6
   19            map_forward                           0.041630                        6   5
   20              map_scatter                           0.025713                      3   6
   21      rspher_all                            0.116116                              2   2
   22      setdij_                               0.244918                              2   2
   23      vectorpot                             0.000016                              1   2
   24      proall                                1.795593                              1   2
   25        phaser                                0.081110                            3   3
   26        rpro_isp                              1.465655                            3   3
   27          fftwav_mpi                            0.314250                       1569   4
   28            fftwav                                0.312183                     1569   5
   29              fft3d                                 0.252075                   1569   6
   30          rpromu_acc                            1.148976                        393   4
   31      orthch                                4.201539                              1   2
   32        overl                                 0.000821                            3   3
   33        orth1                                 3.296464                            3   3
   34        choleski                              0.448523                            3   3
   35        lincom                                0.140574                            3   3
   36      redis_pw_over_bands                   0.000000                              1   2
   37      fewald                                0.006194                              1   2
   38        rsp                                   0.004158                            1   3
   39        rcp                                   0.000328                            1   3
   40        m_sumb_d                              0.000193                            5   3
   41      elmin                                75.180301                              1   2
   42        potlok                                1.753761                            1   3
   43          fft3d_mpi                             0.547945                         13   4
   44            fftbrc_mpi                            0.440071                       13   5
   45              fftbas_plan_mpi                       0.440054                     13   6
   46                dfftw_execute                         0.280238                   39   7
   47                map_forward                           0.079441                   14   7
   48                  map_scatter                           0.047509                  7   8
   49                map_backward                          0.078553                   12   7
   50                  map_gather                            0.051805                  6   8
   51          ggaall_grid                           0.293589                          1   4
   52          pothar                                0.048394                          1   4
   53        potlok_metagga                        0.000005                            1   3
   54        vectorpot                             0.000004                            1   3
   55        setdij_                               0.122037                            1   3
   56        set_dd_magatom                        0.000009                            1   3
   57        set_dd_paw                            0.116096                            1   3
   58          m_sumb_d                              0.088839                          7   4
   59        eddav                                72.442392                            5   3
   60          phaser                                0.446341                         15   4
   61          newband                               2.955605                       2380   4
   62            w1_copy                               0.166204                    15690   5
   63            fftwav_mpi                            0.183810                     7845   5
   64              fftwav                                0.172055                   7845   6
   65                fft3d                                 0.105372                 7845   7
   66            eccp                                  0.187377                     7845   5
   67            truncate_high_frequency_w1            0.001057                     7845   5
   68            setup_precond                         0.063756                     7845   5
   69          hamiltmu                              9.238211                       2365   4
   70            vhamil                                0.063632                    18545   5
   71            raccmu_                               4.492759                     2365   5
   72              overl_mu                              0.200316                   2365   6
   73              racc0mu_acc                           3.113620                   2365   6
   74            kinhamil                              0.398157                    18545   5
   75              fftext_mpi                            0.315548                  18545   6
   76                fft3d_mpi                             0.236064                18545   7
   77                  fft3d                                 0.226513              18545   8
   78          overl                                 0.217551                      29245   4
   79          truncate_high_frequency_w1            0.002476                      18545   4
   80          w1_copy                               0.350846                      39945   4
   81          orth1                                 0.246165                       7095   4
   82          lapack                                1.862551                       2365   4
   83          apply_precond                         0.039149                      10700   4
   84          fftwav_mpi                            0.488822                      21400   4
   85            fftwav                                0.457252                    21400   5
   86              fft3d                                 0.287260                  21400   6
   87          w1_projall                            4.095637                       1375   4
   88            rpromu_acc                            4.094318                     1375   5
   89          ggemm                                 0.161762                       3355   4
   90          lincom                                0.479810                         15   4
   91          m_bcast_z                             0.000315                          5   4
   92          m_sumb_d                              0.000078                         10   4
   93        m_sumb_d                              0.000319                           10   3
   94        densta                                0.281817                            5   3
   95          m_bcast_z                             0.000203                          5   4
   96        m_bcast_z                             0.000066                            1   3
   97      rotate_active_occupied_orbital        0.000007                              1   2
   98      sphpro_fast                           6.897937                              2   2
   99        m_sumb_d                              0.017123                            5   3
  100      force_and_stress                     23.904584                              1   2
  101        set_charge                            0.713239                            1   3
  102          soft_charge                           0.478168                          1   4
  103            fftwav_mpi                            0.021089                     1311   5
  104              fftwav                                0.019360                   1311   6
  105                fft3d                                 0.012217                 1311   7
  106            pw_charge                             0.003695                     1311   5
  107            m_sumb_d                              0.436138                        1   5
  108            fft_gq                                0.010662                        1   5
  109              fft3d_mpi                             0.010062                      1   6
  110                fftbrc_mpi                            0.005028                    1   7
  111                  fftbas_plan_mpi                       0.005027                  1   8
  112                    dfftw_execute                         0.002205                3   9
  113                    map_backward                          0.001108                2   9
  114                      map_gather                            0.000718              1  10
  115          depsum                                0.026321                          1   4
  116            m_sumb_d                              0.007841                        1   5
  117          augmentation_charge                   0.199212                          1   4
  118            fft3d_mpi                             0.044048                        1   5
  119              fftbrc_mpi                            0.035873                      1   6
  120                fftbas_plan_mpi                       0.035871                    1   7
  121                  dfftw_execute                         0.022598                  3   8
  122                  map_backward                          0.013141                  2   8
  123                    map_gather                            0.008729                1   9
  124        forloc                                0.299741                            1   3
  125        fornlr                                4.092720                            1   3
  126          rspher_all                            0.305452                          3   4
  127          phaser                                0.236513                          9   4
  128          rpro_isp                              3.489481                          9   4
  129            fftwav_mpi                            0.111517                     4707   5
  130              fftwav                                0.105267                   4707   6
  131                fft3d                                 0.062956                 4707   7
  132            rpromu_acc                            3.366985                     1179   5
  133          m_sumb_d                              0.024052                          1   4
  134        fordep                                0.730254                            1   3
  135          setdij_                               0.730200                          6   4
  136        setdij_                               2.436264                           20   3
  137        set_dd_magatom                        0.000004                            1   3
  138        set_dd_paw                            0.031381                            1   3
  139          m_sumb_d                              0.004291                          7   4
  140        strkin                                0.069060                            1   3
  141          m_sumb_d                              0.001780                          1   4
  142        strelo                                0.024970                            1   3
  143        strnlr                               12.258323                            1   3
  144          rspher_all                            0.910799                          9   4
  145          phaser                                0.718055                         27   4
  146          rpro_isp                             10.490932                         27   4
  147            fftwav_mpi                            0.332926                    14121   5
  148              fftwav                                0.314177                  14121   6
  149                fft3d                                 0.188271                14121   7
  150            rpromu_acc                           10.125303                     3537   5
  151          m_sumb_d                              0.028276                          9   4
  152        fft3d_mpi                             0.492760                           11   3
  153          fftbrc_mpi                            0.399600                         11   4
  154            fftbas_plan_mpi                       0.399582                       11   5
  155              dfftw_execute                         0.253700                     33   6
  156              map_forward                           0.065930                     10   6
  157                map_scatter                           0.039592                    5   7
  158              map_backward                          0.078636                     12   6
  159                map_gather                            0.051782                    6   7
  160        ggaall_grid                           0.293358                            1   3
  161        forhar                                0.596006                            2   3
  162        strehar                               0.015268                            1   3
  163        chggra                                1.160913                            1   3
  164          fft3d_mpi                             1.149401                          3   4
  165            fftbrc_mpi                            1.145661                        3   5
  166              fftbas_plan_mpi                       1.145658                      3   6
  167                map_forward                           0.000060                    4   7
  168                  map_scatter                           0.000008                  2   8
  169                map_backward                          0.000016                    2   7
  170                  map_gather                            0.000003                  1   8
  171          pothar                                0.001435                          1   4
  172        m_bcast_d                             0.001256                            2   3
  173      potlok                                1.725729                              1   2
  174        fft3d_mpi                             0.534472                           13   3
  175          fftbrc_mpi                            0.428358                         13   4
  176            fftbas_plan_mpi                       0.428334                       13   5
  177              dfftw_execute                         0.273691                     39   6
  178              map_forward                           0.076942                     14   6
  179                map_scatter                           0.045049                    7   7
  180              map_backward                          0.076123                     12   6
  181                map_gather                            0.049528                    6   7
  182        ggaall_grid                           0.292892                            1   3
  183        pothar                                0.049457                            1   3
  184      potlok_metagga                        0.000001                              1   2
  185      set_dd_magatom                        0.000005                              1   2
  186      set_dd_paw                            0.064706                              1   2
  187        m_sumb_d                              0.037672                            7   3
  188      densta                               10.925138                              1   2
  189        m_bcast_z                             0.000053                            1   3
  190      m_sumb_d                              0.129336                              1   2
 
 Flat profile
 ============
 
             routine name                   CPU           calls
 ---------------------------------------------------------------
 total_time                             87.514600           1
 eddav                                  51.857071           5
 rpromu_acc                             18.735582        6484
 densta                                 11.206699           6
 sphpro_fast                             6.880814           2
 fftbas_plan_mpi                         4.756526          46
 hamiltmu                                4.283663        2365
 orth1                                   3.542629        7098
 setdij_                                 3.533419          29
 racc0mu_acc                             3.113620        2365
 newband                                 2.353401        2380
 m_bcast_z                               2.251625        5246
 lapack                                  1.862551        2365
 potlok                                  1.712740           2
 phaser                                  1.482019          54
 rspher_all                              1.332367          14
 raccmu_                                 1.178823        2365
 fft3d                                   1.134663       69498
 dfftw_execute                           0.976223         129
 ggaall_grid                             0.879839           3
 m_sumb_d                                0.775939          65
 force_and_stress                        0.689066           1
 lincom                                  0.620384          18
 forhar                                  0.596006           2
 stufak                                  0.594705           2
 init_hip                                0.531954           1
 w1_copy                                 0.517051       55635
 fftwav                                  0.472144       50953
 elmin                                   0.463794           1
 choleski                                0.448523           3
 fft3d_mpi                               0.369189       18591
 orthch                                  0.315156           1
 forloc                                  0.299741           1
 proall                                  0.248828           1
 overl                                   0.218373       29248
 overl_mu                                0.200316        2365
 eccp                                    0.187377        7845
 map_gather                              0.175596          22
 ggemm                                   0.161762        3355
 map_scatter                             0.157871          24
 augmentation_charge                     0.155164           1
 strnlr                                  0.110261           1
 map_forward                             0.106133          48
 pothar                                  0.099286           3
 map_backward                            0.089410          44
 kinhamil                                0.082609       18545
 set_dd_paw                              0.081381           3
 fftext_mpi                              0.079483       18545
 fftwav_mpi                              0.072120       50953
 strkin                                  0.067280           1
 setup_precond                           0.063756        7845
 vhamil                                  0.063632       18545
 rpro_isp                                0.046111          39
 apply_precond                           0.039149       10700
 fornlr                                  0.037222           1
 strelo                                  0.024970           1
 depsum                                  0.018480           1
 strehar                                 0.015268           1
 inisym                                  0.012084           1
 chggra                                  0.010077           1
 set_charge                              0.009538           1
 soft_charge                             0.006584           1
 rsp                                     0.004158           1
 pw_charge                               0.003695        1311
 truncate_high_frequency_w1              0.003533       26390
 hip_hipfft_makeplan                     0.002627           6
 m_bcast_d                               0.001685           8
 fewald                                  0.001515           1
 w1_projall                              0.001319        1375
 fft_gq                                  0.000600           1
 rcp                                     0.000328           1
 hip_init_hipblas                        0.000204           1
 fftbrc_mpi                              0.000080          46
 crpa_reader                             0.000076           1
 hip_init_rocsolver                      0.000070           1
 fordep                                  0.000054           1
 vectorpot                               0.000020           2
 set_dd_magatom                          0.000018           3
 posmap                                  0.000017           2
 rotate_active_occupied_orbital          0.000007           1
 potlok_metagga                          0.000006           2
 hip_hipfft_makeplans                    0.000001           3
 redis_pw_over_bands                     0.000000           1
 ---------------------------------------------------------------
  summed up times    219.942661046982     
 
 Accumulative profile
 ====================
 
             routine name                   CPU           calls
 ---------------------------------------------------------------
 total_time                            219.942661           1
 elmin                                  75.180301           1
 eddav                                  72.442392           5
 force_and_stress                       23.904584           1
 rpromu_acc                             18.735582        6484
 rpro_isp                               15.446068          39
 strnlr                                 12.258323           1
 densta                                 11.206955           6
 hamiltmu                                9.238211        2365
 sphpro_fast                             6.897937           2
 fft3d_mpi                               6.857540       18591
 fftbrc_mpi                              6.261838          46
 fftbas_plan_mpi                         6.261758          46
 raccmu_                                 4.492759        2365
 orthch                                  4.201539           1
 w1_projall                              4.095637        1375
 fornlr                                  4.092720           1
 orth1                                   3.542629        7098
 setdij_                                 3.533419          29
 potlok                                  3.479490           2
 racc0mu_acc                             3.113620        2365
 newband                                 2.955605        2380
 m_bcast_z                               2.251625        5246
 lapack                                  1.862551        2365
 proall                                  1.795593           1
 phaser                                  1.482019          54
 fftwav_mpi                              1.452414       50953
 fftwav                                  1.380294       50953
 rspher_all                              1.332367          14
 chggra                                  1.160913           1
 fft3d                                   1.134663       69498
 dfftw_execute                           0.976223         129
 ggaall_grid                             0.879839           3
 m_sumb_d                                0.775939          65
 fordep                                  0.730254           1
 set_charge                              0.713239           1
 lincom                                  0.620384          18
 forhar                                  0.596006           2
 stufak                                  0.594705           2
 init_hip                                0.531954           1
 w1_copy                                 0.517051       55635
 soft_charge                             0.478168           1
 choleski                                0.448523           3
 kinhamil                                0.398157       18545
 fftext_mpi                              0.315548       18545
 forloc                                  0.299741           1
 map_backward                            0.265006          44
 map_forward                             0.264003          48
 overl                                   0.218373       29248
 set_dd_paw                              0.212183           3
 overl_mu                                0.200316        2365
 augmentation_charge                     0.199212           1
 eccp                                    0.187377        7845
 map_gather                              0.175596          22
 ggemm                                   0.161762        3355
 map_scatter                             0.157871          24
 pothar                                  0.099286           3
 strkin                                  0.069060           1
 setup_precond                           0.063756        7845
 vhamil                                  0.063632       18545
 apply_precond                           0.039149       10700
 depsum                                  0.026321           1
 strelo                                  0.024970           1
 strehar                                 0.015268           1
 inisym                                  0.012101           1
 fft_gq                                  0.010662           1
 fewald                                  0.006194           1
 rsp                                     0.004158           1
 pw_charge                               0.003695        1311
 truncate_high_frequency_w1              0.003533       26390
 hip_hipfft_makeplans                    0.002628           3
 hip_hipfft_makeplan                     0.002627           6
 m_bcast_d                               0.001685           8
 rcp                                     0.000328           1
 hip_init_hipblas                        0.000204           1
 crpa_reader                             0.000076           1
 hip_init_rocsolver                      0.000070           1
 vectorpot                               0.000020           2
 set_dd_magatom                          0.000018           3
 posmap                                  0.000017           2
 rotate_active_occupied_orbital          0.000007           1
 potlok_metagga                          0.000006           2
 redis_pw_over_bands                     0.000000           1
 ---------------------------------------------------------------
 
Profiling took   0.080464  0.047613  0.002902  0.002737 seconds
Profiling took   0.055913 seconds
