srun: ROUTE: split_hostlist: hl=b05r2n16 tree_width 0
 running on    4 total cores
 distrk:  each k-point on    1 cores,    4 groups
 distr:  one band on    1 cores,    1 groups
 HIP runtime initialized ...    4 DCUs will be used
 Created    4 streams on each DCU
 vasp.6.3.2 27Jun22 (build Mar 15 2023 15:45:48) complex                        
  
 POSCAR found type information on POSCAR MoNbO 
 POSCAR found :  3 types and      63 ions
 Reading from existing POTCAR
 scaLAPACK will be used selectively (only on CPU)
 Reading from existing POTCAR
 LDA part: xc-table for Pade appr. of Perdew
 POSCAR found type information on POSCAR MoNbO 
 POSCAR found :  3 types and      63 ions
 Optimize memory usage for KPAR
 found WAVECAR, reading the header
 WARNING: stress and forces are not correct
 POSCAR, INCAR and KPOINTS ok, starting setup
 FFT: planning ... GRIDC
 FFT: planning ... GRID_SOFT
 FFT: planning ... GRID
 reading WAVECAR
 the WAVECAR file was read successfully
 charge-density read from file: ni3al                                   
 entering main loop
       N       E                     dE             d eps       ncg     rms          rms(c)
DAV:   1    -0.649379759016E+03   -0.64938E+03   -0.12413E-05 11216   0.788E-03
DAV:   2    -0.649379759124E+03   -0.10774E-06   -0.10790E-06  6592   0.214E-03
DAV:   3    -0.649379759148E+03   -0.23574E-07   -0.23066E-07  5976   0.119E-03
DAV:   4    -0.649379759161E+03   -0.13097E-07   -0.13085E-07  5936   0.692E-04
DAV:   5    -0.649379759170E+03   -0.87894E-08   -0.88008E-08  5896   0.600E-04
   1 F= -.64937976E+03 E0= -.64937976E+03  d E =0.000000E+00
 writing wavefunctions
 -----------------------------------------------------------------------------
|                                                                             |
|           W    W    AA    RRRRR   N    N  II  N    N   GGGG   !!!           |
|           W    W   A  A   R    R  NN   N  II  NN   N  G    G  !!!           |
|           W    W  A    A  R    R  N N  N  II  N N  N  G       !!!           |
|           W WW W  AAAAAA  RRRRR   N  N N  II  N  N N  G  GGG   !            |
|           WW  WW  A    A  R   R   N   NN  II  N   NN  G    G                |
|           W    W  A    A  R    R  N    N  II  N    N   GGGG   !!!           |
|                                                                             |
|     Tetrahedron method does not include variations of the Fermi             |
|     occupations, so forces and stress will be inaccurate. We suggest        |
|     using a different smearing scheme ISMEAR = 1 or 2 for metals in         |
|     relaxations.                                                            |
|                                                                             |
 -----------------------------------------------------------------------------

 PROFILE, used timers:     190
