Generated by VASPKIT code               
   1.00000000000000     
     9.4983997344999995    0.0000000000000000    0.0000000000000000
     0.0000000000000000    9.4983997344999995    0.0000000000000000
     0.0000000000000000    0.0000000000000000   24.5028991699000009
   Mo   Nb
    60     2
Selective dynamics
Direct
  0.0000000000000000  0.0000000000000000  0.0000000000000000   F   F   F
 -0.0044723556028842  0.9806647089602581  0.3827501562212344   T   T   T
  0.1666700000000034  0.1666700000000034  0.0646399999999971   F   F   F
  0.3333299999999966  0.0000000000000000  0.0000000000000000   F   F   F
  0.3310533678140762  0.0048525669484677  0.3796759301335143   T   T   T
  0.5000000000000000  0.1666700000000034  0.0646399999999971   F   F   F
  0.6666700000000034  0.0000000000000000  0.0000000000000000   F   F   F
  0.6774585579010639  0.0014756876759092  0.3811820193477691   T   T   T
  0.8333299999999966  0.1666700000000034  0.0646399999999971   F   F   F
  0.0000000000000000  0.3333299999999966  0.0000000000000000   F   F   F
  0.1666700000000034  0.5000000000000000  0.0646399999999971   F   F   F
  0.3333299999999966  0.3333299999999966  0.0000000000000000   F   F   F
  0.5000000000000000  0.5000000000000000  0.0646399999999971   F   F   F
  0.6666700000000034  0.3333299999999966  0.0000000000000000   F   F   F
  0.8333299999999966  0.5000000000000000  0.0646399999999971   F   F   F
  0.0000000000000000  0.6666700000000034  0.0000000000000000   F   F   F
  0.9890991014994244  0.6877997092134013  0.3829668372944142   T   T   T
  0.1666700000000034  0.8333299999999966  0.0646399999999971   F   F   F
  0.3333299999999966  0.6666700000000034  0.0000000000000000   F   F   F
  0.5000000000000000  0.8333299999999966  0.0646399999999971   F   F   F
  0.6666700000000034  0.6666700000000034  0.0000000000000000   F   F   F
  0.6854975147129386  0.6638779012779379  0.3817017941354842   T   T   T
  0.8333299999999966  0.8333299999999966  0.0646399999999971   F   F   F
  0.0000000000000000  0.0000000000000000  0.1292800000000014   F   F   F
  0.1666700000000034  0.1666700000000034  0.1939100000000025   F   F   F
  0.3333299999999966  0.0000000000000000  0.1292800000000014   F   F   F
  0.5000000000000000  0.1666700000000034  0.1939100000000025   F   F   F
  0.6666700000000034  0.0000000000000000  0.1292800000000014   F   F   F
  0.8333299999999966  0.1666700000000034  0.1939100000000025   F   F   F
  0.0000000000000000  0.3333299999999966  0.1292800000000014   F   F   F
  0.1666700000000034  0.5000000000000000  0.1939100000000025   F   F   F
  0.3333299999999966  0.3333299999999966  0.1292800000000014   F   F   F
  0.5000000000000000  0.5000000000000000  0.1939100000000025   F   F   F
  0.6666700000000034  0.3333299999999966  0.1292800000000014   F   F   F
  0.8333299999999966  0.5000000000000000  0.1939100000000025   F   F   F
  0.0000000000000000  0.6666700000000034  0.1292800000000014   F   F   F
  0.1666700000000034  0.8333299999999966  0.1939100000000025   F   F   F
  0.3333299999999966  0.6666700000000034  0.1292800000000014   F   F   F
  0.5000000000000000  0.8333299999999966  0.1939100000000025   F   F   F
  0.6666700000000034  0.6666700000000034  0.1292800000000014   F   F   F
  0.8333299999999966  0.8333299999999966  0.1939100000000025   F   F   F
  0.0000000000000000  0.0000000000000000  0.2585499999999996   F   F   F
  0.1664389563463904  0.1667401615033960  0.3246210356986109   T   T   T
  0.3333299999999966  0.0000000000000000  0.2585499999999996   F   F   F
  0.4990175946350675  0.1653470621182193  0.3239708322004876   T   T   T
  0.6666700000000034  0.0000000000000000  0.2585499999999996   F   F   F
  0.8333889896418420  0.1675889987884536  0.3245096404855673   T   T   T
  0.0000000000000000  0.3333299999999966  0.2585499999999996   F   F   F
  0.1654506329446346  0.4987282373756937  0.3233869711350724   T   T   T
  0.3333299999999966  0.3333299999999966  0.2585499999999996   F   F   F
  0.4994738224665543  0.5006519419662695  0.3228054216487132   T   T   T
  0.6666700000000034  0.3333299999999966  0.2585499999999996   F   F   F
  0.8339097775592800  0.4984185609807562  0.3240346339742642   T   T   T
  0.0000000000000000  0.6666700000000034  0.2585499999999996   F   F   F
  0.1681258076937268  0.8334733193814302  0.3232942381218775   T   T   T
  0.3333299999999966  0.6666700000000034  0.2585499999999996   F   F   F
  0.4998059561025624  0.8337162032922427  0.3245280577865282   T   T   T
  0.6666700000000034  0.6666700000000034  0.2585499999999996   F   F   F
  0.8312781238898609  0.8345760837917224  0.3219510375027425   T   T   T
  0.0077422312497918  0.3333170712540466  0.3796181517058042   T   T   T
  0.6525309576968570  0.3366961092971968  0.3842011486477590   T   T   T
  0.3304948149901124  0.6599228360782339  0.3839355193951363   T   T   T
 
  0.00000000E+00  0.00000000E+00  0.00000000E+00
  0.00000000E+00  0.00000000E+00  0.00000000E+00
  0.00000000E+00  0.00000000E+00  0.00000000E+00
  0.00000000E+00  0.00000000E+00  0.00000000E+00
  0.00000000E+00  0.00000000E+00  0.00000000E+00
  0.00000000E+00  0.00000000E+00  0.00000000E+00
  0.00000000E+00  0.00000000E+00  0.00000000E+00
  0.00000000E+00  0.00000000E+00  0.00000000E+00
  0.00000000E+00  0.00000000E+00  0.00000000E+00
  0.00000000E+00  0.00000000E+00  0.00000000E+00
  0.00000000E+00  0.00000000E+00  0.00000000E+00
  0.00000000E+00  0.00000000E+00  0.00000000E+00
  0.00000000E+00  0.00000000E+00  0.00000000E+00
  0.00000000E+00  0.00000000E+00  0.00000000E+00
  0.00000000E+00  0.00000000E+00  0.00000000E+00
  0.00000000E+00  0.00000000E+00  0.00000000E+00
  0.00000000E+00  0.00000000E+00  0.00000000E+00
  0.00000000E+00  0.00000000E+00  0.00000000E+00
  0.00000000E+00  0.00000000E+00  0.00000000E+00
  0.00000000E+00  0.00000000E+00  0.00000000E+00
  0.00000000E+00  0.00000000E+00  0.00000000E+00
  0.00000000E+00  0.00000000E+00  0.00000000E+00
  0.00000000E+00  0.00000000E+00  0.00000000E+00
  0.00000000E+00  0.00000000E+00  0.00000000E+00
  0.00000000E+00  0.00000000E+00  0.00000000E+00
  0.00000000E+00  0.00000000E+00  0.00000000E+00
  0.00000000E+00  0.00000000E+00  0.00000000E+00
  0.00000000E+00  0.00000000E+00  0.00000000E+00
  0.00000000E+00  0.00000000E+00  0.00000000E+00
  0.00000000E+00  0.00000000E+00  0.00000000E+00
  0.00000000E+00  0.00000000E+00  0.00000000E+00
  0.00000000E+00  0.00000000E+00  0.00000000E+00
  0.00000000E+00  0.00000000E+00  0.00000000E+00
  0.00000000E+00  0.00000000E+00  0.00000000E+00
  0.00000000E+00  0.00000000E+00  0.00000000E+00
  0.00000000E+00  0.00000000E+00  0.00000000E+00
  0.00000000E+00  0.00000000E+00  0.00000000E+00
  0.00000000E+00  0.00000000E+00  0.00000000E+00
  0.00000000E+00  0.00000000E+00  0.00000000E+00
  0.00000000E+00  0.00000000E+00  0.00000000E+00
  0.00000000E+00  0.00000000E+00  0.00000000E+00
  0.00000000E+00  0.00000000E+00  0.00000000E+00
  0.00000000E+00  0.00000000E+00  0.00000000E+00
  0.00000000E+00  0.00000000E+00  0.00000000E+00
  0.00000000E+00  0.00000000E+00  0.00000000E+00
  0.00000000E+00  0.00000000E+00  0.00000000E+00
  0.00000000E+00  0.00000000E+00  0.00000000E+00
  0.00000000E+00  0.00000000E+00  0.00000000E+00
  0.00000000E+00  0.00000000E+00  0.00000000E+00
  0.00000000E+00  0.00000000E+00  0.00000000E+00
  0.00000000E+00  0.00000000E+00  0.00000000E+00
  0.00000000E+00  0.00000000E+00  0.00000000E+00
  0.00000000E+00  0.00000000E+00  0.00000000E+00
  0.00000000E+00  0.00000000E+00  0.00000000E+00
  0.00000000E+00  0.00000000E+00  0.00000000E+00
  0.00000000E+00  0.00000000E+00  0.00000000E+00
  0.00000000E+00  0.00000000E+00  0.00000000E+00
  0.00000000E+00  0.00000000E+00  0.00000000E+00
  0.00000000E+00  0.00000000E+00  0.00000000E+00
  0.00000000E+00  0.00000000E+00  0.00000000E+00
  0.00000000E+00  0.00000000E+00  0.00000000E+00
  0.00000000E+00  0.00000000E+00  0.00000000E+00
