  62  62   0   0
  0.3565551E+02  0.9498400E-09  0.9498400E-09  0.2450290E-08  0.5000000E-15
  1.000000000000000E-004
  CAR 
 ni3al                                   
      8.72649282    -60.93768637  301      3.43038026      1.00000000
    -60.938  0.0000E+00  0.0000E+00
    -60.705  0.0000E+00  0.0000E+00
    -60.473  0.0000E+00  0.0000E+00
    -60.241  0.0000E+00  0.0000E+00
    -60.009  0.0000E+00  0.0000E+00
    -59.777  0.0000E+00  0.0000E+00
    -59.544  0.0000E+00  0.0000E+00
    -59.312  0.0000E+00  0.0000E+00
    -59.080  0.0000E+00  0.0000E+00
    -58.848  0.0000E+00  0.0000E+00
    -58.616 -0.1223E-32 -0.2841E-33
    -58.383 -0.6034E-18 -0.1401E-18
    -58.151 -0.5867E-08 -0.1362E-08
    -57.919 -0.1138E-02 -0.2642E-03
    -57.687  0.1169E+00  0.2688E-01
    -57.454  0.8587E+00  0.2263E+00
    -57.222  0.6806E+00  0.3843E+00
    -56.990  0.6778E-01  0.4001E+00
    -56.758 -0.2937E-03  0.4000E+00
    -56.526 -0.8959E-10  0.4000E+00
    -56.293  0.0000E+00  0.4000E+00
    -56.061  0.0000E+00  0.4000E+00
    -55.829  0.0000E+00  0.4000E+00
    -55.597  0.0000E+00  0.4000E+00
    -55.365  0.0000E+00  0.4000E+00
    -55.132  0.0000E+00  0.4000E+00
    -54.900  0.0000E+00  0.4000E+00
    -54.668  0.0000E+00  0.4000E+00
    -54.436  0.0000E+00  0.4000E+00
    -54.203  0.0000E+00  0.4000E+00
    -53.971  0.0000E+00  0.4000E+00
    -53.739  0.0000E+00  0.4000E+00
    -53.507  0.0000E+00  0.4000E+00
    -53.275  0.0000E+00  0.4000E+00
    -53.042  0.0000E+00  0.4000E+00
    -52.810  0.0000E+00  0.4000E+00
    -52.578  0.0000E+00  0.4000E+00
    -52.346 -0.1195E-30  0.4000E+00
    -52.114 -0.2053E-16  0.4000E+00
    -51.881 -0.6188E-07  0.4000E+00
    -51.649 -0.1764E-02  0.3996E+00
    -51.417  0.5970E-01  0.4135E+00
    -51.185 -0.5211E-03  0.4133E+00
    -50.952 -0.1643E-05  0.4133E+00
    -50.720 -0.5826E-14  0.4133E+00
    -50.488  0.0000E+00  0.4133E+00
    -50.256  0.0000E+00  0.4133E+00
    -50.024  0.0000E+00  0.4133E+00
    -49.791  0.0000E+00  0.4133E+00
    -49.559  0.0000E+00  0.4133E+00
    -49.327  0.0000E+00  0.4133E+00
    -49.095  0.0000E+00  0.4133E+00
    -48.863  0.0000E+00  0.4133E+00
    -48.630  0.0000E+00  0.4133E+00
    -48.398  0.0000E+00  0.4133E+00
    -48.166  0.0000E+00  0.4133E+00
    -47.934  0.0000E+00  0.4133E+00
    -47.701  0.0000E+00  0.4133E+00
    -47.469  0.0000E+00  0.4133E+00
    -47.237  0.0000E+00  0.4133E+00
    -47.005  0.0000E+00  0.4133E+00
    -46.773  0.0000E+00  0.4133E+00
    -46.540  0.0000E+00  0.4133E+00
    -46.308  0.0000E+00  0.4133E+00
    -46.076  0.0000E+00  0.4133E+00
    -45.844  0.0000E+00  0.4133E+00
    -45.612  0.0000E+00  0.4133E+00
    -45.379  0.0000E+00  0.4133E+00
    -45.147  0.0000E+00  0.4133E+00
    -44.915  0.0000E+00  0.4133E+00
    -44.683  0.0000E+00  0.4133E+00
    -44.450  0.0000E+00  0.4133E+00
    -44.218  0.0000E+00  0.4133E+00
    -43.986  0.0000E+00  0.4133E+00
    -43.754  0.0000E+00  0.4133E+00
    -43.522  0.0000E+00  0.4133E+00
    -43.289  0.0000E+00  0.4133E+00
    -43.057  0.0000E+00  0.4133E+00
    -42.825  0.0000E+00  0.4133E+00
    -42.593  0.0000E+00  0.4133E+00
    -42.361  0.0000E+00  0.4133E+00
    -42.128  0.0000E+00  0.4133E+00
    -41.896  0.0000E+00  0.4133E+00
    -41.664  0.0000E+00  0.4133E+00
    -41.432  0.0000E+00  0.4133E+00
    -41.200  0.0000E+00  0.4133E+00
    -40.967  0.0000E+00  0.4133E+00
    -40.735  0.0000E+00  0.4133E+00
    -40.503  0.0000E+00  0.4133E+00
    -40.271  0.0000E+00  0.4133E+00
    -40.038  0.0000E+00  0.4133E+00
    -39.806  0.0000E+00  0.4133E+00
    -39.574  0.0000E+00  0.4133E+00
    -39.342  0.0000E+00  0.4133E+00
    -39.110  0.0000E+00  0.4133E+00
    -38.877  0.0000E+00  0.4133E+00
    -38.645  0.0000E+00  0.4133E+00
    -38.413  0.0000E+00  0.4133E+00
    -38.181  0.0000E+00  0.4133E+00
    -37.949  0.0000E+00  0.4133E+00
    -37.716  0.0000E+00  0.4133E+00
    -37.484  0.0000E+00  0.4133E+00
    -37.252  0.0000E+00  0.4133E+00
    -37.020  0.0000E+00  0.4133E+00
    -36.787  0.0000E+00  0.4133E+00
    -36.555  0.0000E+00  0.4133E+00
    -36.323  0.0000E+00  0.4133E+00
    -36.091  0.0000E+00  0.4133E+00
    -35.859  0.0000E+00  0.4133E+00
    -35.626  0.0000E+00  0.4133E+00
    -35.394  0.0000E+00  0.4133E+00
    -35.162  0.0000E+00  0.4133E+00
    -34.930  0.0000E+00  0.4133E+00
    -34.698  0.0000E+00  0.4133E+00
    -34.465  0.0000E+00  0.4133E+00
    -34.233  0.0000E+00  0.4133E+00
    -34.001  0.0000E+00  0.4133E+00
    -33.769  0.0000E+00  0.4133E+00
    -33.536  0.0000E+00  0.4133E+00
    -33.304 -0.1075E-38  0.4133E+00
    -33.072 -0.2277E-22  0.4133E+00
    -32.840 -0.9603E-11  0.4133E+00
    -32.608 -0.8032E-04  0.4133E+00
    -32.375  0.1650E-01  0.4171E+00
    -32.143  0.5538E+00  0.5457E+00
    -31.911  0.6844E+00  0.7047E+00
    -31.679  0.7277E+00  0.8736E+00
    -31.447  0.9094E+00  0.1085E+01
    -31.214  0.1080E+01  0.1336E+01
    -30.982  0.1083E+01  0.1587E+01
    -30.750  0.1141E+00  0.1614E+01
    -30.518 -0.1117E-02  0.1613E+01
    -30.285 -0.2153E-08  0.1613E+01
    -30.053  0.0000E+00  0.1613E+01
    -29.821  0.0000E+00  0.1613E+01
    -29.589  0.0000E+00  0.1613E+01
    -29.357  0.0000E+00  0.1613E+01
    -29.124  0.0000E+00  0.1613E+01
    -28.892  0.0000E+00  0.1613E+01
    -28.660 -0.6073E-42  0.1613E+01
    -28.428 -0.8933E-25  0.1613E+01
    -28.196 -0.2417E-12  0.1613E+01
    -27.963 -0.1121E-04  0.1613E+01
    -27.731  0.4688E-02  0.1614E+01
    -27.499  0.1184E+00  0.1642E+01
    -27.267  0.4954E-01  0.1653E+01
    -27.034 -0.3664E-03  0.1653E+01
    -26.802 -0.2609E-09  0.1653E+01
    -26.570  0.0000E+00  0.1653E+01
    -26.338  0.0000E+00  0.1653E+01
    -26.106  0.0000E+00  0.1653E+01
    -25.873  0.0000E+00  0.1653E+01
    -25.641  0.0000E+00  0.1653E+01
    -25.409  0.0000E+00  0.1653E+01
    -25.177  0.0000E+00  0.1653E+01
    -24.945  0.0000E+00  0.1653E+01
    -24.712  0.0000E+00  0.1653E+01
    -24.480  0.0000E+00  0.1653E+01
    -24.248  0.0000E+00  0.1653E+01
    -24.016  0.0000E+00  0.1653E+01
    -23.783  0.0000E+00  0.1653E+01
    -23.551  0.0000E+00  0.1653E+01
    -23.319  0.0000E+00  0.1653E+01
    -23.087  0.0000E+00  0.1653E+01
    -22.855  0.0000E+00  0.1653E+01
    -22.622  0.0000E+00  0.1653E+01
    -22.390  0.0000E+00  0.1653E+01
    -22.158  0.0000E+00  0.1653E+01
    -21.926  0.0000E+00  0.1653E+01
    -21.694  0.0000E+00  0.1653E+01
    -21.461  0.0000E+00  0.1653E+01
    -21.229  0.0000E+00  0.1653E+01
    -20.997  0.0000E+00  0.1653E+01
    -20.765  0.0000E+00  0.1653E+01
    -20.532  0.0000E+00  0.1653E+01
    -20.300  0.0000E+00  0.1653E+01
    -20.068  0.0000E+00  0.1653E+01
    -19.836  0.0000E+00  0.1653E+01
    -19.604  0.0000E+00  0.1653E+01
    -19.371  0.0000E+00  0.1653E+01
    -19.139  0.0000E+00  0.1653E+01
    -18.907  0.0000E+00  0.1653E+01
    -18.675  0.0000E+00  0.1653E+01
    -18.443  0.0000E+00  0.1653E+01
    -18.210  0.0000E+00  0.1653E+01
    -17.978  0.0000E+00  0.1653E+01
    -17.746  0.0000E+00  0.1653E+01
    -17.514  0.0000E+00  0.1653E+01
    -17.281  0.0000E+00  0.1653E+01
    -17.049  0.0000E+00  0.1653E+01
    -16.817  0.0000E+00  0.1653E+01
    -16.585  0.0000E+00  0.1653E+01
    -16.353  0.0000E+00  0.1653E+01
    -16.120  0.0000E+00  0.1653E+01
    -15.888  0.0000E+00  0.1653E+01
    -15.656  0.0000E+00  0.1653E+01
    -15.424  0.0000E+00  0.1653E+01
    -15.192  0.0000E+00  0.1653E+01
    -14.959  0.0000E+00  0.1653E+01
    -14.727  0.0000E+00  0.1653E+01
    -14.495  0.0000E+00  0.1653E+01
    -14.263  0.0000E+00  0.1653E+01
    -14.030  0.0000E+00  0.1653E+01
    -13.798  0.0000E+00  0.1653E+01
    -13.566  0.0000E+00  0.1653E+01
    -13.334  0.0000E+00  0.1653E+01
    -13.102  0.0000E+00  0.1653E+01
    -12.869  0.0000E+00  0.1653E+01
    -12.637  0.0000E+00  0.1653E+01
    -12.405  0.0000E+00  0.1653E+01
    -12.173  0.0000E+00  0.1653E+01
    -11.941  0.0000E+00  0.1653E+01
    -11.708  0.0000E+00  0.1653E+01
    -11.476  0.0000E+00  0.1653E+01
    -11.244  0.0000E+00  0.1653E+01
    -11.012  0.0000E+00  0.1653E+01
    -10.779  0.0000E+00  0.1653E+01
    -10.547  0.0000E+00  0.1653E+01
    -10.315  0.0000E+00  0.1653E+01
    -10.083  0.0000E+00  0.1653E+01
     -9.851  0.0000E+00  0.1653E+01
     -9.618  0.0000E+00  0.1653E+01
     -9.386  0.0000E+00  0.1653E+01
     -9.154  0.0000E+00  0.1653E+01
     -8.922  0.0000E+00  0.1653E+01
     -8.690  0.0000E+00  0.1653E+01
     -8.457  0.0000E+00  0.1653E+01
     -8.225  0.0000E+00  0.1653E+01
     -7.993  0.0000E+00  0.1653E+01
     -7.761  0.0000E+00  0.1653E+01
     -7.528  0.0000E+00  0.1653E+01
     -7.296  0.0000E+00  0.1653E+01
     -7.064  0.0000E+00  0.1653E+01
     -6.832  0.0000E+00  0.1653E+01
     -6.600  0.0000E+00  0.1653E+01
     -6.367  0.0000E+00  0.1653E+01
     -6.135  0.0000E+00  0.1653E+01
     -5.903  0.0000E+00  0.1653E+01
     -5.671  0.0000E+00  0.1653E+01
     -5.439  0.0000E+00  0.1653E+01
     -5.206  0.0000E+00  0.1653E+01
     -4.974  0.0000E+00  0.1653E+01
     -4.742  0.0000E+00  0.1653E+01
     -4.510  0.0000E+00  0.1653E+01
     -4.277 -0.2973E-44  0.1653E+01
     -4.045 -0.7997E-27  0.1653E+01
     -3.813 -0.3887E-14  0.1653E+01
     -3.581 -0.2996E-06  0.1653E+01
     -3.349  0.1103E-03  0.1653E+01
     -3.116  0.6910E-02  0.1655E+01
     -2.884  0.9174E-02  0.1657E+01
     -2.652  0.9823E-02  0.1659E+01
     -2.420  0.1163E-01  0.1662E+01
     -2.188  0.1172E-01  0.1665E+01
     -1.955  0.3247E-01  0.1672E+01
     -1.723  0.2500E-01  0.1678E+01
     -1.491  0.3758E-01  0.1687E+01
     -1.259  0.1621E+00  0.1725E+01
     -1.026  0.1478E+00  0.1759E+01
     -0.794  0.2633E+00  0.1820E+01
     -0.562  0.1743E+00  0.1860E+01
     -0.330  0.2336E+00  0.1915E+01
     -0.098  0.2623E+00  0.1976E+01
      0.135  0.2462E+00  0.2033E+01
      0.367  0.2646E+00  0.2094E+01
      0.599  0.3944E+00  0.2186E+01
      0.831  0.3265E+00  0.2262E+01
      1.063  0.2652E+00  0.2323E+01
      1.296  0.2438E+00  0.2380E+01
      1.528  0.2864E+00  0.2446E+01
      1.760  0.2617E+00  0.2507E+01
      1.992  0.2940E+00  0.2575E+01
      2.225  0.2607E+00  0.2636E+01
      2.457  0.2195E+00  0.2687E+01
      2.689  0.1606E+00  0.2724E+01
      2.921  0.2323E+00  0.2778E+01
      3.153  0.2241E+00  0.2830E+01
      3.386  0.2123E+00  0.2880E+01
      3.618  0.1840E+00  0.2922E+01
      3.850  0.1802E+00  0.2964E+01
      4.082  0.2472E+00  0.3022E+01
      4.314  0.2111E+00  0.3071E+01
      4.547  0.2634E+00  0.3132E+01
      4.779  0.3534E+00  0.3214E+01
      5.011  0.3514E+00  0.3295E+01
      5.243  0.3500E+00  0.3377E+01
      5.475  0.3251E+00  0.3452E+01
      5.708  0.3427E-01  0.3460E+01
      5.940 -0.2553E-03  0.3460E+01
      6.172 -0.1155E-08  0.3460E+01
      6.404  0.0000E+00  0.3460E+01
      6.637  0.0000E+00  0.3460E+01
      6.869  0.0000E+00  0.3460E+01
      7.101  0.0000E+00  0.3460E+01
      7.333  0.0000E+00  0.3460E+01
      7.565  0.0000E+00  0.3460E+01
      7.798  0.0000E+00  0.3460E+01
      8.030  0.0000E+00  0.3460E+01
      8.262  0.0000E+00  0.3460E+01
      8.494  0.0000E+00  0.3460E+01
      8.726  0.0000E+00  0.3460E+01
