       N       E                     dE             d eps       ncg     rms          rms(c)
DAV:   1     0.957709960304E+04    0.95771E+04   -0.52003E+05 12748   0.142E+03
DAV:   2    -0.189251562063E+03   -0.97664E+04   -0.94690E+04 11399   0.476E+02
DAV:   3    -0.663822124505E+03   -0.47457E+03   -0.44498E+03 14904   0.978E+01
DAV:   4    -0.694921368830E+03   -0.31099E+02   -0.29686E+02 14112   0.191E+01
DAV:   5    -0.698276192769E+03   -0.33548E+01   -0.32790E+01 20088   0.550E+00    0.101E+02
DAV:   6    -0.699785684577E+03   -0.15095E+01   -0.40089E+02 13968   0.284E+01    0.625E+01
DAV:   7    -0.732432258471E+03   -0.32647E+02   -0.86390E+02 13232   0.407E+01    0.527E+01
DAV:   8    -0.652785162784E+03    0.79647E+02   -0.18203E+02 13521   0.219E+01    0.258E+01
DAV:   9    -0.642121019735E+03    0.10664E+02   -0.33267E+01 13976   0.939E+00    0.147E+01
DAV:  10    -0.641595971732E+03    0.52505E+00   -0.58814E+00 15024   0.320E+00    0.117E+01
DAV:  11    -0.641371390329E+03    0.22458E+00   -0.10745E+00 13752   0.208E+00    0.108E+01
DAV:  12    -0.640834400076E+03    0.53699E+00   -0.14145E+00 13192   0.241E+00    0.840E+00
DAV:  13    -0.640180791402E+03    0.65361E+00   -0.29482E+00 13368   0.318E+00    0.564E+00
DAV:  14    -0.639922971488E+03    0.25782E+00   -0.16054E+00 14240   0.278E+00    0.399E+00
DAV:  15    -0.639856000009E+03    0.66971E-01   -0.72982E-01 13720   0.180E+00    0.340E+00
DAV:  16    -0.639708333517E+03    0.14767E+00   -0.28517E-01 13784   0.125E+00    0.207E+00
DAV:  17    -0.639654592771E+03    0.53741E-01   -0.15048E-01 14040   0.881E-01    0.118E+00
DAV:  18    -0.639597921524E+03    0.56671E-01   -0.94820E-02 12536   0.693E-01    0.839E-01
DAV:  19    -0.639565713658E+03    0.32208E-01   -0.29145E-02 14304   0.432E-01    0.956E-01
DAV:  20    -0.639507021508E+03    0.58692E-01   -0.29808E-02 13272   0.382E-01    0.877E-01
DAV:  21    -0.639451450523E+03    0.55571E-01   -0.48343E-02 13416   0.476E-01    0.797E-01
DAV:  22    -0.639394322832E+03    0.57128E-01   -0.40629E-02 13288   0.434E-01    0.555E-01
DAV:  23    -0.639354242773E+03    0.40080E-01   -0.23837E-02 13472   0.336E-01    0.513E-01
DAV:  24    -0.639312602354E+03    0.41640E-01   -0.20691E-02 12960   0.284E-01    0.413E-01
DAV:  25    -0.639290379827E+03    0.22223E-01   -0.24575E-02 12472   0.303E-01    0.323E-01
DAV:  26    -0.639298080366E+03   -0.77005E-02   -0.10243E-02 13984   0.213E-01    0.305E-01
DAV:  27    -0.639314790784E+03   -0.16710E-01   -0.75428E-03 12992   0.176E-01    0.247E-01
DAV:  28    -0.639329701651E+03   -0.14911E-01   -0.57038E-03 13320   0.150E-01    0.197E-01
DAV:  29    -0.639346629707E+03   -0.16928E-01   -0.62360E-03 12928   0.136E-01    0.177E-01
DAV:  30    -0.639360094643E+03   -0.13465E-01   -0.47766E-03 13424   0.116E-01    0.845E-02
DAV:  31    -0.639365693405E+03   -0.55988E-02   -0.14570E-03 14000   0.630E-02    0.734E-02
DAV:  32    -0.639369967615E+03   -0.42742E-02   -0.81395E-04 12928   0.466E-02    0.434E-02
DAV:  33    -0.639372051038E+03   -0.20834E-02   -0.35331E-04 13344   0.307E-02    0.303E-02
DAV:  34    -0.639374039712E+03   -0.19887E-02   -0.34882E-04 11944   0.194E-02    0.195E-02
DAV:  35    -0.639374680698E+03   -0.64099E-03   -0.10069E-04 12144   0.142E-02    0.111E-02
DAV:  36    -0.639375222367E+03   -0.54167E-03   -0.68706E-05 10400   0.903E-03    0.933E-03
DAV:  37    -0.639375520637E+03   -0.29827E-03   -0.36893E-05 10424   0.681E-03    0.707E-03
DAV:  38    -0.639375703506E+03   -0.18287E-03   -0.24272E-05  9672   0.498E-03    0.456E-03
DAV:  39    -0.639375815610E+03   -0.11210E-03   -0.13541E-05  9360   0.330E-03    0.167E-03
DAV:  40    -0.639375838332E+03   -0.22722E-04   -0.17718E-06  8392   0.171E-03    0.124E-03
DAV:  41    -0.639375852500E+03   -0.14168E-04   -0.86602E-07  7856   0.128E-03    0.102E-03
DAV:  42    -0.639375859827E+03   -0.73272E-05   -0.49331E-07  7688   0.105E-03    0.568E-04
DAV:  43    -0.639375864588E+03   -0.47606E-05   -0.37005E-07  7616   0.683E-04    0.429E-04
DAV:  44    -0.639375867174E+03   -0.25862E-05   -0.22498E-07  7264   0.593E-04    0.288E-04
DAV:  45    -0.639375868974E+03   -0.18001E-05   -0.23381E-07  7336   0.485E-04    0.221E-04
DAV:  46    -0.639375869713E+03   -0.73877E-06   -0.88722E-08  6168   0.413E-04
   1 F= -.63937587E+03 E0= -.63937681E+03  d E =-.639376E+03
       N       E                     dE             d eps       ncg     rms          rms(c)
DAV:   1    -0.639313351200E+03    0.62518E-01   -0.39182E+01 10380   0.125E+01    0.129E+00
DAV:   2    -0.639468038842E+03   -0.15469E+00   -0.15547E+00 10944   0.232E+00    0.828E-01
DAV:   3    -0.639478531648E+03   -0.10493E-01   -0.14286E-01 14855   0.899E-01    0.858E-01
DAV:   4    -0.639467015019E+03    0.11517E-01   -0.47560E-02 13384   0.516E-01    0.399E-01
DAV:   5    -0.639468609610E+03   -0.15946E-02   -0.20715E-02 14423   0.290E-01    0.435E-01
DAV:   6    -0.639466626887E+03    0.19827E-02   -0.11794E-02 13816   0.254E-01    0.203E-01
DAV:   7    -0.639466373122E+03    0.25376E-03   -0.58775E-03 14784   0.161E-01    0.132E-01
DAV:   8    -0.639466103217E+03    0.26991E-03   -0.16016E-03 14360   0.873E-02    0.713E-02
DAV:   9    -0.639466039325E+03    0.63891E-04   -0.59871E-04 13768   0.558E-02    0.370E-02
DAV:  10    -0.639466034137E+03    0.51880E-05   -0.15531E-04 14352   0.296E-02    0.269E-02
DAV:  11    -0.639466028321E+03    0.58166E-05   -0.61870E-05 13616   0.208E-02    0.156E-02
DAV:  12    -0.639466026944E+03    0.13771E-05   -0.20773E-05 12944   0.110E-02    0.901E-03
DAV:  13    -0.639466027176E+03   -0.23280E-06   -0.61319E-06 10392   0.644E-03
   2 F= -.63946603E+03 E0= -.63946696E+03  d E =-.901575E-01
       N       E                     dE             d eps       ncg     rms          rms(c)
DAV:   1    -0.639382313623E+03    0.83713E-01   -0.28348E+01 10380   0.106E+01    0.112E+00
DAV:   2    -0.639493621882E+03   -0.11131E+00   -0.11121E+00 11168   0.196E+00    0.747E-01
DAV:   3    -0.639499809217E+03   -0.61873E-02   -0.10879E-01 14827   0.797E-01    0.729E-01
DAV:   4    -0.639491736134E+03    0.80731E-02   -0.35246E-02 13352   0.443E-01    0.353E-01
DAV:   5    -0.639492647349E+03   -0.91121E-03   -0.16359E-02 14355   0.264E-01    0.377E-01
DAV:   6    -0.639491397298E+03    0.12501E-02   -0.91997E-03 13808   0.224E-01    0.190E-01
DAV:   7    -0.639490981951E+03    0.41535E-03   -0.44230E-03 14800   0.142E-01    0.101E-01
DAV:   8    -0.639490866863E+03    0.11509E-03   -0.11864E-03 13752   0.768E-02    0.684E-02
DAV:   9    -0.639490795746E+03    0.71117E-04   -0.46600E-04 13792   0.490E-02    0.294E-02
DAV:  10    -0.639490797135E+03   -0.13892E-05   -0.11218E-04 14528   0.254E-02    0.237E-02
DAV:  11    -0.639490793525E+03    0.36107E-05   -0.46209E-05 13496   0.182E-02    0.149E-02
DAV:  12    -0.639490791809E+03    0.17160E-05   -0.15685E-05 12056   0.967E-03    0.670E-03
DAV:  13    -0.639490792867E+03   -0.10586E-05   -0.39289E-06  9584   0.530E-03    0.449E-03
DAV:  14    -0.639490793620E+03   -0.75277E-06   -0.14340E-06  7712   0.356E-03
   3 F= -.63949079E+03 E0= -.63949200E+03  d E =-.114924E+00
       N       E                     dE             d eps       ncg     rms          rms(c)
DAV:   1    -0.639424721181E+03    0.66072E-01   -0.29466E+01 10380   0.105E+01    0.100E+00
DAV:   2    -0.639535338122E+03   -0.11062E+00   -0.11144E+00 10554   0.194E+00    0.727E-01
DAV:   3    -0.639539351608E+03   -0.40135E-02   -0.97574E-02 15088   0.731E-01    0.648E-01
DAV:   4    -0.639533854990E+03    0.54966E-02   -0.23808E-02 13705   0.343E-01    0.348E-01
DAV:   5    -0.639534565053E+03   -0.71006E-03   -0.13174E-02 14376   0.245E-01    0.347E-01
DAV:   6    -0.639533370216E+03    0.11948E-02   -0.88849E-03 13352   0.219E-01    0.164E-01
DAV:   7    -0.639533251653E+03    0.11856E-03   -0.35090E-03 14672   0.125E-01    0.102E-01
DAV:   8    -0.639533086440E+03    0.16521E-03   -0.10647E-03 14256   0.746E-02    0.634E-02
DAV:   9    -0.639533028109E+03    0.58331E-04   -0.32920E-04 13768   0.414E-02    0.266E-02
DAV:  10    -0.639533035687E+03   -0.75781E-05   -0.10673E-04 14952   0.238E-02    0.281E-02
DAV:  11    -0.639533028243E+03    0.74446E-05   -0.54264E-05 13280   0.184E-02    0.165E-02
DAV:  12    -0.639533025414E+03    0.28292E-05   -0.20622E-05 12440   0.108E-02    0.681E-03
DAV:  13    -0.639533025989E+03   -0.57553E-06   -0.53289E-06 10288   0.579E-03
   4 F= -.63953303E+03 E0= -.63953505E+03  d E =-.422324E-01
       N       E                     dE             d eps       ncg     rms          rms(c)
DAV:   1    -0.639303508756E+03    0.22952E+00   -0.64872E+01 10380   0.156E+01    0.154E+00
DAV:   2    -0.639560932646E+03   -0.25742E+00   -0.25909E+00 10672   0.294E+00    0.111E+00
DAV:   3    -0.639569930253E+03   -0.89976E-02   -0.22405E-01 15024   0.114E+00    0.986E-01
DAV:   4    -0.639556756340E+03    0.13174E-01   -0.55304E-02 13608   0.515E-01    0.533E-01
DAV:   5    -0.639558443192E+03   -0.16869E-02   -0.27387E-02 14384   0.350E-01    0.531E-01
DAV:   6    -0.639555895613E+03    0.25476E-02   -0.20167E-02 13320   0.328E-01    0.258E-01
DAV:   7    -0.639555701851E+03    0.19376E-03   -0.84150E-03 14696   0.195E-01    0.173E-01
DAV:   8    -0.639555177446E+03    0.52440E-03   -0.27097E-03 14056   0.119E-01    0.951E-02
DAV:   9    -0.639555053081E+03    0.12437E-03   -0.78224E-04 13904   0.617E-02    0.415E-02
DAV:  10    -0.639555076081E+03   -0.23000E-04   -0.26171E-04 14520   0.375E-02    0.454E-02
DAV:  11    -0.639555055905E+03    0.20176E-04   -0.13808E-04 13640   0.293E-02    0.256E-02
DAV:  12    -0.639555049571E+03    0.63342E-05   -0.49617E-05 13800   0.167E-02    0.112E-02
DAV:  13    -0.639555051298E+03   -0.17272E-05   -0.14896E-05 11712   0.945E-03    0.863E-03
DAV:  14    -0.639555051808E+03   -0.50991E-06   -0.55098E-06 10592   0.545E-03
   5 F= -.63955505E+03 E0= -.63955837E+03  d E =-.642582E-01
       N       E                     dE             d eps       ncg     rms          rms(c)
DAV:   1    -0.639448472331E+03    0.10658E+00   -0.39255E+01 10380   0.125E+01    0.107E+00
DAV:   2    -0.639585398849E+03   -0.13693E+00   -0.14035E+00 10388   0.225E+00    0.674E-01
DAV:   3    -0.639594051967E+03   -0.86531E-02   -0.11075E-01 15184   0.732E-01    0.668E-01
DAV:   4    -0.639587534233E+03    0.65177E-02   -0.26948E-02 14008   0.367E-01    0.346E-01
DAV:   5    -0.639588589665E+03   -0.10554E-02   -0.13716E-02 14256   0.248E-01    0.347E-01
DAV:   6    -0.639587334636E+03    0.12550E-02   -0.97075E-03 13440   0.230E-01    0.167E-01
DAV:   7    -0.639587374989E+03   -0.40352E-04   -0.44305E-03 14648   0.138E-01    0.122E-01
DAV:   8    -0.639587076961E+03    0.29803E-03   -0.13517E-03 14184   0.868E-02    0.648E-02
DAV:   9    -0.639587028730E+03    0.48231E-04   -0.38950E-04 13968   0.449E-02    0.326E-02
DAV:  10    -0.639587034936E+03   -0.62067E-05   -0.12706E-04 14680   0.269E-02    0.291E-02
DAV:  11    -0.639587026839E+03    0.80974E-05   -0.61135E-05 13400   0.202E-02    0.160E-02
DAV:  12    -0.639587026011E+03    0.82811E-06   -0.23129E-05 12752   0.114E-02    0.795E-03
DAV:  13    -0.639587027696E+03   -0.16851E-05   -0.52660E-06 10392   0.596E-03    0.432E-03
DAV:  14    -0.639587029203E+03   -0.15066E-05   -0.13660E-06  7400   0.326E-03    0.320E-03
DAV:  15    -0.639587033283E+03   -0.40800E-05   -0.64808E-07  7024   0.251E-03    0.292E-03
DAV:  16    -0.639587036995E+03   -0.37120E-05   -0.45136E-07  6864   0.214E-03    0.236E-03
DAV:  17    -0.639587040547E+03   -0.35526E-05   -0.38267E-07  6768   0.165E-03    0.203E-03
DAV:  18    -0.639587047026E+03   -0.64786E-05   -0.52359E-07  7568   0.140E-03    0.173E-03
DAV:  19    -0.639587055730E+03   -0.87043E-05   -0.69667E-07  7648   0.154E-03    0.163E-03
DAV:  20    -0.639587063754E+03   -0.80236E-05   -0.64508E-07  7696   0.151E-03    0.117E-03
DAV:  21    -0.639587070097E+03   -0.63433E-05   -0.50681E-07  7552   0.115E-03    0.910E-04
DAV:  22    -0.639587074324E+03   -0.42269E-05   -0.28180E-07  7104   0.999E-04    0.927E-04
DAV:  23    -0.639587078216E+03   -0.38914E-05   -0.31681E-07  7296   0.912E-04    0.793E-04
DAV:  24    -0.639587080435E+03   -0.22193E-05   -0.15424E-07  6384   0.754E-04    0.622E-04
DAV:  25    -0.639587082465E+03   -0.20298E-05   -0.13825E-07  6704   0.564E-04    0.528E-04
DAV:  26    -0.639587084918E+03   -0.24539E-05   -0.15462E-07  6824   0.520E-04    0.468E-04
DAV:  27    -0.639587086625E+03   -0.17068E-05   -0.13636E-07  6744   0.469E-04    0.414E-04
DAV:  28    -0.639587087990E+03   -0.13647E-05   -0.18157E-07  6792   0.465E-04    0.323E-04
DAV:  29    -0.639587088619E+03   -0.62927E-06   -0.10149E-07  6104   0.419E-04
   6 F= -.63958709E+03 E0= -.63959092E+03  d E =-.320368E-01
       N       E                     dE             d eps       ncg     rms          rms(c)
DAV:   1    -0.639522890848E+03    0.64197E-01   -0.20619E+01 10380   0.904E+00    0.765E-01
DAV:   2    -0.639592913558E+03   -0.70023E-01   -0.72055E-01 10388   0.162E+00    0.470E-01
DAV:   3    -0.639597540914E+03   -0.46274E-02   -0.56535E-02 15160   0.512E-01    0.465E-01
DAV:   4    -0.639594415821E+03    0.31251E-02   -0.13875E-02 13888   0.264E-01    0.246E-01
DAV:   5    -0.639595049443E+03   -0.63362E-03   -0.73606E-03 14280   0.178E-01    0.251E-01
DAV:   6    -0.639594312058E+03    0.73738E-03   -0.51509E-03 13416   0.166E-01    0.118E-01
DAV:   7    -0.639594341875E+03   -0.29817E-04   -0.22846E-03 14616   0.995E-02    0.904E-02
DAV:   8    -0.639594186811E+03    0.15506E-03   -0.71506E-04 14168   0.619E-02    0.468E-02
DAV:   9    -0.639594158711E+03    0.28099E-04   -0.20679E-04 13928   0.324E-02    0.222E-02
DAV:  10    -0.639594161098E+03   -0.23867E-05   -0.63810E-05 14528   0.189E-02    0.202E-02
DAV:  11    -0.639594156610E+03    0.44881E-05   -0.30792E-05 12848   0.143E-02    0.120E-02
DAV:  12    -0.639594155102E+03    0.15077E-05   -0.11902E-05 11536   0.824E-03    0.535E-03
DAV:  13    -0.639594154770E+03    0.33190E-06   -0.22726E-06  8616   0.416E-03
   7 F= -.63959415E+03 E0= -.63959823E+03  d E =-.391030E-01
       N       E                     dE             d eps       ncg     rms          rms(c)
DAV:   1    -0.639558510744E+03    0.35644E-01   -0.12929E+01 10380   0.720E+00    0.604E-01
DAV:   2    -0.639602869295E+03   -0.44359E-01   -0.45127E-01 10452   0.128E+00    0.405E-01
DAV:   3    -0.639605355826E+03   -0.24865E-02   -0.37817E-02 15104   0.434E-01    0.394E-01
DAV:   4    -0.639603241283E+03    0.21145E-02   -0.11043E-02 13648   0.242E-01    0.205E-01
DAV:   5    -0.639603713521E+03   -0.47224E-03   -0.57067E-03 14840   0.151E-01    0.214E-01
DAV:   6    -0.639603209531E+03    0.50399E-03   -0.35350E-03 13872   0.138E-01    0.121E-01
DAV:   7    -0.639603035986E+03    0.17355E-03   -0.16602E-03 14616   0.819E-02    0.568E-02
DAV:   8    -0.639603006815E+03    0.29171E-04   -0.38482E-04 13552   0.434E-02    0.393E-02
DAV:   9    -0.639602982057E+03    0.24758E-04   -0.14718E-04 13712   0.277E-02    0.161E-02
DAV:  10    -0.639602982016E+03    0.41793E-07   -0.37059E-05 13544   0.143E-02    0.131E-02
DAV:  11    -0.639602980408E+03    0.16079E-05   -0.14119E-05 11752   0.983E-03    0.837E-03
DAV:  12    -0.639602979689E+03    0.71911E-06   -0.47935E-06  9968   0.552E-03
   8 F= -.63960298E+03 E0= -.63960734E+03  d E =-.882492E-02
       N       E                     dE             d eps       ncg     rms          rms(c)
DAV:   1    -0.639598792112E+03    0.41883E-02   -0.13903E+00 10412   0.236E+00    0.197E-01
DAV:   2    -0.639603490917E+03   -0.46988E-02   -0.47869E-02 10578   0.416E-01    0.129E-01
DAV:   3    -0.639603772194E+03   -0.28128E-03   -0.39838E-03 15122   0.139E-01    0.128E-01
DAV:   4    -0.639603549265E+03    0.22293E-03   -0.11242E-03 13688   0.776E-02    0.664E-02
DAV:   5    -0.639603602542E+03   -0.53277E-04   -0.61251E-04 14874   0.499E-02    0.698E-02
DAV:   6    -0.639603545660E+03    0.56882E-04   -0.38319E-04 13872   0.455E-02    0.388E-02
DAV:   7    -0.639603527740E+03    0.17920E-04   -0.17155E-04 14401   0.268E-02    0.181E-02
DAV:   8    -0.639603525523E+03    0.22171E-05   -0.38350E-05 12928   0.140E-02    0.123E-02
DAV:   9    -0.639603523530E+03    0.19927E-05   -0.14313E-05 11792   0.888E-03    0.534E-03
DAV:  10    -0.639603524277E+03   -0.74685E-06   -0.35182E-06  9504   0.474E-03
   9 F= -.63960352E+03 E0= -.63960797E+03  d E =-.936951E-02
       N       E                     dE             d eps       ncg     rms          rms(c)
DAV:   1    -0.639578934873E+03    0.24589E-01   -0.82606E+00 10428   0.574E+00    0.490E-01
DAV:   2    -0.639607614609E+03   -0.28680E-01   -0.29662E-01 10396   0.102E+00    0.296E-01
DAV:   3    -0.639609837752E+03   -0.22231E-02   -0.22270E-02 15304   0.321E-01    0.322E-01
DAV:   4    -0.639608343802E+03    0.14940E-02   -0.58922E-03 13600   0.178E-01    0.152E-01
DAV:   5    -0.639608867856E+03   -0.52405E-03   -0.34627E-03 14344   0.124E-01    0.193E-01
DAV:   6    -0.639608331159E+03    0.53670E-03   -0.25489E-03 13304   0.115E-01    0.686E-02
DAV:   7    -0.639608349098E+03   -0.17940E-04   -0.78302E-04 14160   0.652E-02    0.568E-02
DAV:   8    -0.639608291139E+03    0.57959E-04   -0.25937E-04 13184   0.407E-02    0.260E-02
DAV:   9    -0.639608285189E+03    0.59499E-05   -0.80453E-05 13760   0.214E-02    0.152E-02
DAV:  10    -0.639608286377E+03   -0.11882E-05   -0.24593E-05 12792   0.125E-02    0.135E-02
DAV:  11    -0.639608284793E+03    0.15839E-05   -0.11426E-05 11264   0.862E-03    0.644E-03
DAV:  12    -0.639608285239E+03   -0.44612E-06   -0.29291E-06  9016   0.445E-03
  10 F= -.63960829E+03 E0= -.63961292E+03  d E =-.476096E-02
       N       E                     dE             d eps       ncg     rms          rms(c)
DAV:   1    -0.639604265999E+03    0.40188E-02   -0.12489E+00 10460   0.223E+00    0.190E-01
DAV:   2    -0.639608539220E+03   -0.42732E-02   -0.44228E-02 10480   0.396E-01    0.114E-01
DAV:   3    -0.639608876745E+03   -0.33752E-03   -0.33640E-03 15315   0.125E-01    0.124E-01
DAV:   4    -0.639608652022E+03    0.22472E-03   -0.91155E-04 13546   0.704E-02    0.580E-02
DAV:   5    -0.639608731534E+03   -0.79512E-04   -0.51505E-04 14294   0.476E-02    0.751E-02
DAV:   6    -0.639608649661E+03    0.81873E-04   -0.37056E-04 13312   0.437E-02    0.257E-02
DAV:   7    -0.639608653198E+03   -0.35372E-05   -0.10847E-04 14107   0.244E-02    0.212E-02
DAV:   8    -0.639608646189E+03    0.70090E-05   -0.37081E-05 12600   0.152E-02    0.101E-02
DAV:   9    -0.639608645893E+03    0.29564E-06   -0.11613E-05 11672   0.825E-03    0.569E-03
DAV:  10    -0.639608647132E+03   -0.12391E-05   -0.30246E-06  8960   0.468E-03    0.464E-03
DAV:  11    -0.639608647574E+03   -0.44121E-06   -0.11159E-06  7280   0.331E-03
  11 F= -.63960865E+03 E0= -.63961335E+03  d E =-.512330E-02
       N       E                     dE             d eps       ncg     rms          rms(c)
DAV:   1    -0.639596349957E+03    0.12297E-01   -0.40173E+00 10388   0.393E+00    0.359E-01
DAV:   2    -0.639610374143E+03   -0.14024E-01   -0.14500E-01 10512   0.706E-01    0.209E-01
DAV:   3    -0.639611445356E+03   -0.10712E-02   -0.11638E-02 15360   0.230E-01    0.222E-01
DAV:   4    -0.639610724897E+03    0.72046E-03   -0.32213E-03 13592   0.133E-01    0.112E-01
DAV:   5    -0.639610894498E+03   -0.16960E-03   -0.16750E-03 14568   0.854E-02    0.119E-01
DAV:   6    -0.639610688452E+03    0.20605E-03   -0.10677E-03 14160   0.782E-02    0.561E-02
DAV:   7    -0.639610663870E+03    0.24581E-04   -0.44455E-04 14336   0.442E-02    0.329E-02
DAV:   8    -0.639610648806E+03    0.15064E-04   -0.10741E-04 13304   0.240E-02    0.185E-02
DAV:   9    -0.639610645508E+03    0.32988E-05   -0.37310E-05 13320   0.148E-02    0.108E-02
DAV:  10    -0.639610645540E+03   -0.32363E-07   -0.13451E-05 12264   0.924E-03    0.840E-03
DAV:  11    -0.639610645325E+03    0.21484E-06   -0.54847E-06  9920   0.609E-03
  12 F= -.63961065E+03 E0= -.63961547E+03  d E =-.199775E-02
       N       E                     dE             d eps       ncg     rms          rms(c)
DAV:   1    -0.639609961186E+03    0.68435E-03   -0.21322E-01 10388   0.904E-01    0.816E-02
DAV:   2    -0.639610705690E+03   -0.74450E-03   -0.76807E-03 10650   0.162E-01    0.486E-02
DAV:   3    -0.639610760165E+03   -0.54475E-04   -0.61117E-04 15281   0.525E-02    0.506E-02
DAV:   4    -0.639610724699E+03    0.35466E-04   -0.17120E-04 13432   0.304E-02    0.262E-02
DAV:   5    -0.639610733960E+03   -0.92616E-05   -0.90958E-05 14390   0.201E-02    0.277E-02
DAV:   6    -0.639610723028E+03    0.10932E-04   -0.56732E-05 13752   0.181E-02    0.122E-02
DAV:   7    -0.639610722377E+03    0.65065E-06   -0.22214E-05 12632   0.985E-03    0.726E-03
DAV:   8    -0.639610722153E+03    0.22459E-06   -0.49825E-06  9864   0.535E-03
  13 F= -.63961072E+03 E0= -.63961558E+03  d E =-.207458E-02
       N       E                     dE             d eps       ncg     rms          rms(c)
DAV:   1    -0.639602736553E+03    0.79858E-02   -0.25099E+00 10380   0.309E+00    0.264E-01
DAV:   2    -0.639611769992E+03   -0.90334E-02   -0.92899E-02 10618   0.560E-01    0.179E-01
DAV:   3    -0.639612349790E+03   -0.57980E-03   -0.75770E-03 15224   0.190E-01    0.177E-01
DAV:   4    -0.639611932691E+03    0.41710E-03   -0.17225E-03 13608   0.939E-02    0.896E-02
DAV:   5    -0.639612034015E+03   -0.10132E-03   -0.97356E-04 14784   0.681E-02    0.951E-02
DAV:   6    -0.639611917905E+03    0.11611E-03   -0.68903E-04 13632   0.640E-02    0.437E-02
DAV:   7    -0.639611905758E+03    0.12148E-04   -0.27618E-04 14240   0.362E-02    0.270E-02
DAV:   8    -0.639611895515E+03    0.10243E-04   -0.74703E-05 13416   0.210E-02    0.169E-02
DAV:   9    -0.639611892617E+03    0.28981E-05   -0.23935E-05 12520   0.117E-02    0.929E-03
DAV:  10    -0.639611893158E+03   -0.54143E-06   -0.95018E-06 11400   0.757E-03
  14 F= -.63961189E+03 E0= -.63961688E+03  d E =-.117101E-02
       N       E                     dE             d eps       ncg     rms          rms(c)
DAV:   1    -0.639611477831E+03    0.41479E-03   -0.12725E-01 10444   0.697E-01    0.593E-02
DAV:   2    -0.639611937754E+03   -0.45992E-03   -0.46932E-03 10728   0.126E-01    0.416E-02
DAV:   3    -0.639611969890E+03   -0.32137E-04   -0.39766E-04 15136   0.446E-02    0.427E-02
DAV:   4    -0.639611944103E+03    0.25788E-04   -0.93860E-05 13224   0.227E-02    0.199E-02
DAV:   5    -0.639611951393E+03   -0.72902E-05   -0.54582E-05 14171   0.160E-02    0.227E-02
DAV:   6    -0.639611945150E+03    0.62425E-05   -0.39447E-05 13232   0.151E-02    0.108E-02
DAV:   7    -0.639611944418E+03    0.73267E-06   -0.15305E-05 11848   0.847E-03    0.600E-03
DAV:   8    -0.639611944271E+03    0.14703E-06   -0.33423E-06  9224   0.454E-03
  15 F= -.63961194E+03 E0= -.63961697E+03  d E =-.122212E-02
       N       E                     dE             d eps       ncg     rms          rms(c)
DAV:   1    -0.639608706659E+03    0.32378E-02   -0.11041E+00 10428   0.207E+00    0.185E-01
DAV:   2    -0.639612473835E+03   -0.37672E-02   -0.39088E-02 10426   0.371E-01    0.113E-01
DAV:   3    -0.639612743572E+03   -0.26974E-03   -0.31679E-03 15160   0.120E-01    0.113E-01
DAV:   4    -0.639612573749E+03    0.16982E-03   -0.10822E-03 13393   0.720E-02    0.613E-02
DAV:   5    -0.639612613388E+03   -0.39639E-04   -0.43183E-04 14096   0.463E-02    0.610E-02
DAV:   6    -0.639612556345E+03    0.57042E-04   -0.25082E-04 13624   0.384E-02    0.231E-02
DAV:   7    -0.639612557429E+03   -0.10839E-05   -0.88988E-05 14560   0.201E-02    0.195E-02
DAV:   8    -0.639612551762E+03    0.56670E-05   -0.28088E-05 12232   0.124E-02    0.981E-03
DAV:   9    -0.639612550589E+03    0.11731E-05   -0.99981E-06 11528   0.727E-03    0.496E-03
DAV:  10    -0.639612550810E+03   -0.22032E-06   -0.23292E-06  8800   0.388E-03
  16 F= -.63961255E+03 E0= -.63961765E+03  d E =-.606539E-03
       N       E                     dE             d eps       ncg     rms          rms(c)
DAV:   1    -0.639611504135E+03    0.10465E-02   -0.32758E-01 10444   0.113E+00    0.101E-01
DAV:   2    -0.639612622314E+03   -0.11182E-02   -0.11591E-02 10466   0.202E-01    0.619E-02
DAV:   3    -0.639612703872E+03   -0.81558E-04   -0.94915E-04 15130   0.660E-02    0.629E-02
DAV:   4    -0.639612652273E+03    0.51599E-04   -0.33433E-04 13299   0.405E-02    0.340E-02
DAV:   5    -0.639612665583E+03   -0.13310E-04   -0.13625E-04 13945   0.264E-02    0.349E-02
DAV:   6    -0.639612647451E+03    0.18132E-04   -0.80410E-05 13321   0.220E-02    0.136E-02
DAV:   7    -0.639612647556E+03   -0.10463E-06   -0.28465E-05 13080   0.117E-02    0.109E-02
DAV:   8    -0.639612645902E+03    0.16541E-05   -0.85052E-06 10752   0.704E-03    0.541E-03
DAV:   9    -0.639612645609E+03    0.29306E-06   -0.27042E-06  9144   0.413E-03
  17 F= -.63961265E+03 E0= -.63961778E+03  d E =-.701338E-03
       N       E                     dE             d eps       ncg     rms          rms(c)
DAV:   1    -0.639608497932E+03    0.41480E-02   -0.12828E+00 10460   0.224E+00    0.184E-01
DAV:   2    -0.639612910037E+03   -0.44121E-02   -0.45755E-02 10458   0.400E-01    0.116E-01
DAV:   3    -0.639613209435E+03   -0.29940E-03   -0.35081E-03 15328   0.122E-01    0.113E-01
DAV:   4    -0.639613054639E+03    0.15480E-03   -0.91094E-04 13424   0.682E-02    0.649E-02
DAV:   5    -0.639613094486E+03   -0.39847E-04   -0.40919E-04 14680   0.422E-02    0.625E-02
DAV:   6    -0.639613042665E+03    0.51821E-04   -0.29105E-04 14008   0.404E-02    0.274E-02
DAV:   7    -0.639613040148E+03    0.25170E-05   -0.12877E-04 14832   0.235E-02    0.205E-02
DAV:   8    -0.639613032659E+03    0.74888E-05   -0.36491E-05 13336   0.135E-02    0.100E-02
DAV:   9    -0.639613031943E+03    0.71614E-06   -0.11435E-05 11392   0.733E-03    0.606E-03
DAV:  10    -0.639613032164E+03   -0.22115E-06   -0.32430E-06  9248   0.474E-03
  18 F= -.63961303E+03 E0= -.63961819E+03  d E =-.386555E-03
       N       E                     dE             d eps       ncg     rms          rms(c)
DAV:   1    -0.639613013568E+03    0.18375E-04   -0.58116E-03 10742   0.151E-01    0.128E-02
DAV:   2    -0.639613034887E+03   -0.21318E-04   -0.20910E-04 10816   0.278E-02    0.106E-02
DAV:   3    -0.639613036488E+03   -0.16015E-05   -0.21030E-05 14355   0.112E-02    0.113E-02
DAV:   4    -0.639613034807E+03    0.16808E-05   -0.60968E-06  9776   0.587E-03    0.439E-03
DAV:   5    -0.639613035386E+03   -0.57906E-06   -0.22907E-06  8731   0.377E-03
  19 F= -.63961304E+03 E0= -.63961820E+03  d E =-.389778E-03
       N       E                     dE             d eps       ncg     rms          rms(c)
DAV:   1    -0.639609683314E+03    0.33515E-02   -0.10440E+00 10460   0.197E+00    0.165E-01
DAV:   2    -0.639613242956E+03   -0.35596E-02   -0.37038E-02 10477   0.350E-01    0.972E-02
DAV:   3    -0.639613467256E+03   -0.22430E-03   -0.26567E-03 15353   0.102E-01    0.933E-02
DAV:   4    -0.639613385147E+03    0.82109E-04   -0.78472E-04 13368   0.621E-02    0.606E-02
DAV:   5    -0.639613394952E+03   -0.98057E-05   -0.31179E-04 14497   0.414E-02    0.508E-02
DAV:   6    -0.639613362273E+03    0.32679E-04   -0.21431E-04 13456   0.355E-02    0.233E-02
DAV:   7    -0.639613360693E+03    0.15806E-05   -0.70146E-05 13952   0.194E-02    0.182E-02
DAV:   8    -0.639613355738E+03    0.49553E-05   -0.22319E-05 11872   0.121E-02    0.908E-03
DAV:   9    -0.639613354803E+03    0.93417E-06   -0.70224E-06 11208   0.643E-03
  20 F= -.63961335E+03 E0= -.63961853E+03  d E =-.319417E-03
       N       E                     dE             d eps       ncg     rms          rms(c)
DAV:   1    -0.639613075167E+03    0.28057E-03   -0.88065E-02 10460   0.572E-01    0.481E-02
DAV:   2    -0.639613376141E+03   -0.30097E-03   -0.31225E-03 10580   0.102E-01    0.291E-02
DAV:   3    -0.639613396519E+03   -0.20379E-04   -0.23346E-04 15224   0.312E-02    0.291E-02
DAV:   4    -0.639613387689E+03    0.88307E-05   -0.71985E-05 13144   0.192E-02    0.177E-02
DAV:   5    -0.639613389857E+03   -0.21682E-05   -0.30512E-05 13743   0.129E-02    0.164E-02
DAV:   6    -0.639613386244E+03    0.36125E-05   -0.20570E-05 11848   0.111E-02    0.715E-03
DAV:   7    -0.639613386227E+03    0.17099E-07   -0.69482E-06 10857   0.600E-03
  21 F= -.63961339E+03 E0= -.63961857E+03  d E =-.350841E-03
       N       E                     dE             d eps       ncg     rms          rms(c)
DAV:   1    -0.639612289349E+03    0.10969E-02   -0.37301E-01 10380   0.120E+00    0.100E-01
DAV:   2    -0.639613522205E+03   -0.12329E-02   -0.12771E-02 10460   0.213E-01    0.618E-02
DAV:   3    -0.639613611621E+03   -0.89416E-04   -0.10029E-03 15185   0.678E-02    0.646E-02
DAV:   4    -0.639613555845E+03    0.55775E-04   -0.32950E-04 13320   0.407E-02    0.340E-02
DAV:   5    -0.639613569215E+03   -0.13369E-04   -0.12927E-04 14009   0.248E-02    0.341E-02
DAV:   6    -0.639613551219E+03    0.17996E-04   -0.82839E-05 13392   0.212E-02    0.136E-02
DAV:   7    -0.639613551008E+03    0.21017E-06   -0.28010E-05 13440   0.106E-02    0.950E-03
DAV:   8    -0.639613549835E+03    0.11733E-05   -0.85445E-06 11536   0.644E-03    0.550E-03
DAV:   9    -0.639613549554E+03    0.28072E-06   -0.27544E-06  9024   0.391E-03
  22 F= -.63961355E+03 E0= -.63961869E+03  d E =-.163327E-03
       N       E                     dE             d eps       ncg     rms          rms(c)
DAV:   1    -0.639613467662E+03    0.82173E-04   -0.27292E-02 10412   0.325E-01    0.273E-02
DAV:   2    -0.639613557751E+03   -0.90089E-04   -0.93364E-04 10538   0.573E-02    0.167E-02
DAV:   3    -0.639613564502E+03   -0.67511E-05   -0.72616E-05 14993   0.183E-02    0.176E-02
DAV:   4    -0.639613560565E+03    0.39366E-05   -0.24232E-05 12512   0.113E-02    0.960E-03
DAV:   5    -0.639613561812E+03   -0.12466E-05   -0.11061E-05 11597   0.714E-03    0.973E-03
DAV:   6    -0.639613560351E+03    0.14615E-05   -0.69050E-06 10704   0.616E-03    0.373E-03
DAV:   7    -0.639613560372E+03   -0.21610E-07   -0.18137E-06  8688   0.313E-03
  23 F= -.63961356E+03 E0= -.63961869E+03  d E =-.174145E-03
       N       E                     dE             d eps       ncg     rms          rms(c)
DAV:   1    -0.639612428989E+03    0.11314E-02   -0.37383E-01 10420   0.121E+00    0.956E-02
DAV:   2    -0.639613648015E+03   -0.12190E-02   -0.12595E-02 10410   0.210E-01    0.577E-02
DAV:   3    -0.639613739353E+03   -0.91338E-04   -0.93106E-04 15377   0.611E-02    0.609E-02
DAV:   4    -0.639613684627E+03    0.54726E-04   -0.22080E-04 13512   0.343E-02    0.302E-02
DAV:   5    -0.639613700887E+03   -0.16260E-04   -0.10711E-04 14306   0.220E-02    0.310E-02
DAV:   6    -0.639613684554E+03    0.16332E-04   -0.75959E-05 13824   0.210E-02    0.122E-02
DAV:   7    -0.639613685247E+03   -0.69309E-06   -0.27173E-05 13104   0.104E-02    0.982E-03
DAV:   8    -0.639613683738E+03    0.15097E-05   -0.82980E-06 11480   0.643E-03    0.488E-03
DAV:   9    -0.639613683611E+03    0.12713E-06   -0.23983E-06  8664   0.390E-03
  24 F= -.63961368E+03 E0= -.63961877E+03  d E =-.123238E-03
       N       E                     dE             d eps       ncg     rms          rms(c)
DAV:   1    -0.639613344373E+03    0.33936E-03   -0.10744E-01 10420   0.646E-01    0.514E-02
DAV:   2    -0.639613695438E+03   -0.35107E-03   -0.36229E-03 10480   0.113E-01    0.316E-02
DAV:   3    -0.639613722178E+03   -0.26740E-04   -0.27273E-04 15285   0.336E-02    0.337E-02
DAV:   4    -0.639613705345E+03    0.16834E-04   -0.66381E-05 13480   0.187E-02    0.163E-02
DAV:   5    -0.639613710472E+03   -0.51270E-05   -0.32438E-05 13610   0.119E-02    0.166E-02
DAV:   6    -0.639613705684E+03    0.47881E-05   -0.22442E-05 12688   0.112E-02    0.602E-03
DAV:   7    -0.639613706027E+03   -0.34334E-06   -0.74278E-06 11528   0.536E-03
  25 F= -.63961371E+03 E0= -.63961877E+03  d E =-.145655E-03
       N       E                     dE             d eps       ncg     rms          rms(c)
DAV:   1    -0.639613118257E+03    0.58743E-03   -0.20974E-01 10452   0.889E-01    0.741E-02
DAV:   2    -0.639613784311E+03   -0.66605E-03   -0.68567E-03 10468   0.154E-01    0.466E-02
DAV:   3    -0.639613837060E+03   -0.52749E-04   -0.56401E-04 15258   0.514E-02    0.516E-02
DAV:   4    -0.639613798117E+03    0.38944E-04   -0.18431E-04 13272   0.308E-02    0.235E-02
DAV:   5    -0.639613806762E+03   -0.86452E-05   -0.64062E-05 14203   0.182E-02    0.254E-02
DAV:   6    -0.639613797201E+03    0.95612E-05   -0.42231E-05 12824   0.158E-02    0.102E-02
DAV:   7    -0.639613797144E+03    0.56709E-07   -0.13410E-05 12056   0.833E-03    0.750E-03
DAV:   8    -0.639613796391E+03    0.75236E-06   -0.43917E-06  9704   0.513E-03
  26 F= -.63961380E+03 E0= -.63961883E+03  d E =-.903646E-04
       N       E                     dE             d eps       ncg     rms          rms(c)
DAV:   1    -0.639613671615E+03    0.12553E-03   -0.46925E-02 10452   0.420E-01    0.351E-02
DAV:   2    -0.639613820318E+03   -0.14870E-03   -0.15330E-03 10524   0.726E-02    0.217E-02
DAV:   3    -0.639613831956E+03   -0.11639E-04   -0.12283E-04 15182   0.236E-02    0.236E-02
DAV:   4    -0.639613824151E+03    0.78056E-05   -0.39985E-05 12960   0.142E-02    0.112E-02
DAV:   5    -0.639613826040E+03   -0.18890E-05   -0.13807E-05 12146   0.829E-03    0.117E-02
DAV:   6    -0.639613823996E+03    0.20442E-05   -0.92787E-06 10744   0.731E-03    0.441E-03
DAV:   7    -0.639613824062E+03   -0.66051E-07   -0.23714E-06  8848   0.387E-03
  27 F= -.63961382E+03 E0= -.63961884E+03  d E =-.118035E-03
       N       E                     dE             d eps       ncg     rms          rms(c)
DAV:   1    -0.639613247191E+03    0.57680E-03   -0.18772E-01 10444   0.841E-01    0.700E-02
DAV:   2    -0.639613842725E+03   -0.59553E-03   -0.61404E-03 10440   0.146E-01    0.437E-02
DAV:   3    -0.639613889451E+03   -0.46726E-04   -0.49998E-04 15242   0.479E-02    0.481E-02
DAV:   4    -0.639613855907E+03    0.33544E-04   -0.16804E-04 13272   0.289E-02    0.223E-02
DAV:   5    -0.639613860916E+03   -0.50094E-05   -0.51992E-05 14218   0.162E-02    0.207E-02
DAV:   6    -0.639613854791E+03    0.61245E-05   -0.33118E-05 12864   0.137E-02    0.875E-03
DAV:   7    -0.639613854746E+03    0.45111E-07   -0.99054E-06 11824   0.699E-03
  28 F= -.63961385E+03 E0= -.63961883E+03  d E =-.148719E-03
       N       E                     dE             d eps       ncg     rms          rms(c)
DAV:   1    -0.639613123734E+03    0.73106E-03   -0.24754E-01 10420   0.970E-01    0.824E-02
DAV:   2    -0.639613922783E+03   -0.79905E-03   -0.82631E-03 10424   0.169E-01    0.491E-02
DAV:   3    -0.639613978160E+03   -0.55377E-04   -0.62149E-04 15209   0.539E-02    0.508E-02
DAV:   4    -0.639613944500E+03    0.33660E-04   -0.19820E-04 13240   0.322E-02    0.268E-02
DAV:   5    -0.639613953648E+03   -0.91479E-05   -0.82130E-05 13969   0.191E-02    0.279E-02
DAV:   6    -0.639613942454E+03    0.11194E-04   -0.56427E-05 13520   0.175E-02    0.118E-02
DAV:   7    -0.639613942040E+03    0.41415E-06   -0.19584E-05 12824   0.902E-03    0.778E-03
DAV:   8    -0.639613941085E+03    0.95510E-06   -0.52245E-06 10504   0.537E-03
  29 F= -.63961394E+03 E0= -.63961888E+03  d E =-.863388E-04
