Generated by VASPKIT code
 1.000000
    9.4983997344999995    0.0000000000000000    0.0000000000000000
    0.0000000000000000    9.4983997344999995    0.0000000000000000
    0.0000000000000000    0.0000000000000000   24.5028991699000009
   Mo   Nb
    60     2
Selective Dynamics
Direct
    0.0000000000000000    0.0000000000000000    0.0000000000000000    F  F  F            Mo1
    0.0214695870000000    0.9782769760000000    0.3837971880000000    T  T  T            Mo2
    0.1666700000000000    0.1666700000000000    0.0646400000000000    F  F  F            Mo3
    0.3333300000000000    0.0000000000000000    0.0000000000000000    F  F  F            Mo4
    0.3123794550000000    0.0189055870000000    0.3830927960000000    T  T  T            Mo5
    0.5000000000000000    0.1666700000000000    0.0646400000000000    F  F  F            Mo6
    0.6666700000000000    0.0000000000000000    0.0000000000000000    F  F  F            Mo7
    0.6674049180000000    0.0010000080000000    0.3806669830000000    T  T  T            Mo8
    0.8333300000000000    0.1666700000000000    0.0646400000000000    F  F  F            Mo9
    0.0000000000000000    0.3333300000000000    0.0000000000000000    F  F  F           Mo10
    0.1666700000000000    0.5000000000000000    0.0646400000000000    F  F  F           Mo11
    0.3333300000000000    0.3333300000000000    0.0000000000000000    F  F  F           Mo12
    0.5000000000000000    0.5000000000000000    0.0646400000000000    F  F  F           Mo13
    0.6666700000000000    0.3333300000000000    0.0000000000000000    F  F  F           Mo14
    0.8333300000000000    0.5000000000000000    0.0646400000000000    F  F  F           Mo15
    0.0000000000000000    0.6666700000000000    0.0000000000000000    F  F  F           Mo16
    0.9809946020000000    0.6875602920000000    0.3831037410000000    T  T  T           Mo17
    0.1666700000000000    0.8333300000000000    0.0646400000000000    F  F  F           Mo18
    0.3333300000000000    0.6666700000000000    0.0000000000000000    F  F  F           Mo19
    0.5000000000000000    0.8333300000000000    0.0646400000000000    F  F  F           Mo20
    0.6666700000000000    0.6666700000000000    0.0000000000000000    F  F  F           Mo21
    0.6883798690000000    0.6523154380000000    0.3824094180000000    T  T  T           Mo22
    0.8333300000000000    0.8333300000000000    0.0646400000000000    F  F  F           Mo23
    0.0000000000000000    0.0000000000000000    0.1292800000000000    F  F  F           Mo24
    0.1666700000000000    0.1666700000000000    0.1939100000000000    F  F  F           Mo25
    0.3333300000000000    0.0000000000000000    0.1292800000000000    F  F  F           Mo26
    0.5000000000000000    0.1666700000000000    0.1939100000000000    F  F  F           Mo27
    0.6666700000000000    0.0000000000000000    0.1292800000000000    F  F  F           Mo28
    0.8333300000000000    0.1666700000000000    0.1939100000000000    F  F  F           Mo29
    0.0000000000000000    0.3333300000000000    0.1292800000000000    F  F  F           Mo30
    0.1666700000000000    0.5000000000000000    0.1939100000000000    F  F  F           Mo31
    0.3333300000000000    0.3333300000000000    0.1292800000000000    F  F  F           Mo32
    0.5000000000000000    0.5000000000000000    0.1939100000000000    F  F  F           Mo33
    0.6666700000000000    0.3333300000000000    0.1292800000000000    F  F  F           Mo34
    0.8333300000000000    0.5000000000000000    0.1939100000000000    F  F  F           Mo35
    0.0000000000000000    0.6666700000000000    0.1292800000000000    F  F  F           Mo36
    0.1666700000000000    0.8333300000000000    0.1939100000000000    F  F  F           Mo37
    0.3333300000000000    0.6666700000000000    0.1292800000000000    F  F  F           Mo38
    0.5000000000000000    0.8333300000000000    0.1939100000000000    F  F  F           Mo39
    0.6666700000000000    0.6666700000000000    0.1292800000000000    F  F  F           Mo40
    0.8333300000000000    0.8333300000000000    0.1939100000000000    F  F  F           Mo41
    0.0000000000000000    0.0000000000000000    0.2585500000000000    F  F  F           Mo42
    0.1626786980000000    0.1691892450000000    0.3234537990000000    T  T  T           Mo43
    0.3333300000000000    0.0000000000000000    0.2585500000000000    F  F  F           Mo44
    0.5021517610000000    0.1643787630000000    0.3235612600000000    T  T  T           Mo45
    0.6666700000000000    0.0000000000000000    0.2585500000000000    F  F  F           Mo46
    0.8328374720000000    0.1671841800000000    0.3250533630000000    T  T  T           Mo47
    0.0000000000000000    0.3333300000000000    0.2585500000000000    F  F  F           Mo48
    0.1653460090000000    0.4997079030000000    0.3244631680000000    T  T  T           Mo49
    0.3333300000000000    0.3333300000000000    0.2585500000000000    F  F  F           Mo50
    0.4977288820000000    0.5022429240000000    0.3229330160000000    T  T  T           Mo51
    0.6666700000000000    0.3333300000000000    0.2585500000000000    F  F  F           Mo52
    0.8355925990000000    0.4978334100000000    0.3235692660000000    T  T  T           Mo53
    0.0000000000000000    0.6666700000000000    0.2585500000000000    F  F  F           Mo54
    0.1689316630000000    0.8310477429999999    0.3225720580000000    T  T  T           Mo55
    0.3333300000000000    0.6666700000000000    0.2585500000000000    F  F  F           Mo56
    0.5002988700000000    0.8346596960000000    0.3244654360000000    T  T  T           Mo57
    0.6666700000000000    0.6666700000000000    0.2585500000000000    F  F  F           Mo58
    0.8307744450000000    0.8372881070000000    0.3234431490000000    T  T  T           Mo59
    0.9992729390000000    0.3328966350000000    0.3806643750000000    T  T  T           Mo60
    0.6492295480000000    0.3505985070000000    0.3881470770000000    T  T  T            Nb1
    0.3330800570000000    0.6670624670000000    0.3849349500000000    T  T  T            Nb2
