ni3al                                   
           1
     9.498400    0.000000    0.000000
     0.000000    9.498400    0.000000
     0.000000    0.000000   24.502899
   Mo   Nb
    60     2
Direct configuration=     1
   0.00000000  0.00000000  0.00000000
   0.02146959  0.97827698  0.38379719
   0.16667000  0.16667000  0.06464000
   0.33333000  0.00000000  0.00000000
   0.31237945  0.01890559  0.38309280
   0.50000000  0.16667000  0.06464000
   0.66667000  0.00000000  0.00000000
   0.66740492  0.00100001  0.38066698
   0.83333000  0.16667000  0.06464000
   0.00000000  0.33333000  0.00000000
   0.16667000  0.50000000  0.06464000
   0.33333000  0.33333000  0.00000000
   0.50000000  0.50000000  0.06464000
   0.66667000  0.33333000  0.00000000
   0.83333000  0.50000000  0.06464000
   0.00000000  0.66667000  0.00000000
   0.98099460  0.68756029  0.38310374
   0.16667000  0.83333000  0.06464000
   0.33333000  0.66667000  0.00000000
   0.50000000  0.83333000  0.06464000
   0.66667000  0.66667000  0.00000000
   0.68837987  0.65231544  0.38240942
   0.83333000  0.83333000  0.06464000
   0.00000000  0.00000000  0.12928000
   0.16667000  0.16667000  0.19391000
   0.33333000  0.00000000  0.12928000
   0.50000000  0.16667000  0.19391000
   0.66667000  0.00000000  0.12928000
   0.83333000  0.16667000  0.19391000
   0.00000000  0.33333000  0.12928000
   0.16667000  0.50000000  0.19391000
   0.33333000  0.33333000  0.12928000
   0.50000000  0.50000000  0.19391000
   0.66667000  0.33333000  0.12928000
   0.83333000  0.50000000  0.19391000
   0.00000000  0.66667000  0.12928000
   0.16667000  0.83333000  0.19391000
   0.33333000  0.66667000  0.12928000
   0.50000000  0.83333000  0.19391000
   0.66667000  0.66667000  0.12928000
   0.83333000  0.83333000  0.19391000
   0.00000000  0.00000000  0.25855000
   0.16267870  0.16918924  0.32345380
   0.33333000  0.00000000  0.25855000
   0.50215176  0.16437876  0.32356126
   0.66667000  0.00000000  0.25855000
   0.83283747  0.16718418  0.32505336
   0.00000000  0.33333000  0.25855000
   0.16534601  0.49970790  0.32446317
   0.33333000  0.33333000  0.25855000
   0.49772888  0.50224292  0.32293302
   0.66667000  0.33333000  0.25855000
   0.83559260  0.49783341  0.32356927
   0.00000000  0.66667000  0.25855000
   0.16893166  0.83104774  0.32257206
   0.33333000  0.66667000  0.25855000
   0.50029887  0.83465970  0.32446544
   0.66667000  0.66667000  0.25855000
   0.83077445  0.83728811  0.32344315
   0.99927294  0.33289663  0.38066438
   0.64922955  0.35059851  0.38814708
   0.33308006  0.66706247  0.38493495
Direct configuration=     2
   0.00000000  0.00000000  0.00000000
   0.01965769  0.97891807  0.38372523
   0.16667000  0.16667000  0.06464000
   0.33333000  0.00000000  0.00000000
   0.31411022  0.01743876  0.38160279
   0.50000000  0.16667000  0.06464000
   0.66667000  0.00000000  0.00000000
   0.66712382  0.00138912  0.38052259
   0.83333000  0.16667000  0.06464000
   0.00000000  0.33333000  0.00000000
   0.16667000  0.50000000  0.06464000
   0.33333000  0.33333000  0.00000000
   0.50000000  0.50000000  0.06464000
   0.66667000  0.33333000  0.00000000
   0.83333000  0.50000000  0.06464000
   0.00000000  0.66667000  0.00000000
   0.98168386  0.68715047  0.38333722
   0.16667000  0.83333000  0.06464000
   0.33333000  0.66667000  0.00000000
   0.50000000  0.83333000  0.06464000
   0.66667000  0.66667000  0.00000000
   0.68778774  0.65322836  0.38241834
   0.83333000  0.83333000  0.06464000
   0.00000000  0.00000000  0.12928000
   0.16667000  0.16667000  0.19391000
   0.33333000  0.00000000  0.12928000
   0.50000000  0.16667000  0.19391000
   0.66667000  0.00000000  0.12928000
   0.83333000  0.16667000  0.19391000
   0.00000000  0.33333000  0.12928000
   0.16667000  0.50000000  0.19391000
   0.33333000  0.33333000  0.12928000
   0.50000000  0.50000000  0.19391000
   0.66667000  0.33333000  0.12928000
   0.83333000  0.50000000  0.19391000
   0.00000000  0.66667000  0.12928000
   0.16667000  0.83333000  0.19391000
   0.33333000  0.66667000  0.12928000
   0.50000000  0.83333000  0.19391000
   0.66667000  0.66667000  0.12928000
   0.83333000  0.83333000  0.19391000
   0.00000000  0.00000000  0.25855000
   0.16448518  0.16951748  0.32406381
   0.33333000  0.00000000  0.25855000
   0.50019830  0.16558290  0.32457869
   0.66667000  0.00000000  0.25855000
   0.83281866  0.16778351  0.32533795
   0.00000000  0.33333000  0.25855000
   0.16499455  0.49971291  0.32401533
   0.33333000  0.33333000  0.25855000
   0.49785426  0.50190733  0.32302524
   0.66667000  0.33333000  0.25855000
   0.83495311  0.49718895  0.32350443
   0.00000000  0.66667000  0.25855000
   0.16961772  0.83163691  0.32259686
   0.33333000  0.66667000  0.25855000
   0.49961923  0.83479013  0.32468878
   0.66667000  0.66667000  0.25855000
   0.83091804  0.83715218  0.32327468
   0.99953761  0.33245368  0.38038050
   0.65004491  0.34915916  0.38684849
   0.33331714  0.66712264  0.38461969
Direct configuration=     3
   0.00000000  0.00000000  0.00000000
   0.01812008  0.97946212  0.38366416
   0.16667000  0.16667000  0.06464000
   0.33333000  0.00000000  0.00000000
   0.31557898  0.01619398  0.38033833
   0.50000000  0.16667000  0.06464000
   0.66667000  0.00000000  0.00000000
   0.66688528  0.00171933  0.38040005
   0.83333000  0.16667000  0.06464000
   0.00000000  0.33333000  0.00000000
   0.16667000  0.50000000  0.06464000
   0.33333000  0.33333000  0.00000000
   0.50000000  0.50000000  0.06464000
   0.66667000  0.33333000  0.00000000
   0.83333000  0.50000000  0.06464000
   0.00000000  0.66667000  0.00000000
   0.98226877  0.68680269  0.38353535
   0.16667000  0.83333000  0.06464000
   0.33333000  0.66667000  0.00000000
   0.50000000  0.83333000  0.06464000
   0.66667000  0.66667000  0.00000000
   0.68728524  0.65400308  0.38242592
   0.83333000  0.83333000  0.06464000
   0.00000000  0.00000000  0.12928000
   0.16667000  0.16667000  0.19391000
   0.33333000  0.00000000  0.12928000
   0.50000000  0.16667000  0.19391000
   0.66667000  0.00000000  0.12928000
   0.83333000  0.16667000  0.19391000
   0.00000000  0.33333000  0.12928000
   0.16667000  0.50000000  0.19391000
   0.33333000  0.33333000  0.12928000
   0.50000000  0.50000000  0.19391000
   0.66667000  0.33333000  0.12928000
   0.83333000  0.50000000  0.19391000
   0.00000000  0.66667000  0.12928000
   0.16667000  0.83333000  0.19391000
   0.33333000  0.66667000  0.12928000
   0.50000000  0.83333000  0.19391000
   0.66667000  0.66667000  0.12928000
   0.83333000  0.83333000  0.19391000
   0.00000000  0.00000000  0.25855000
   0.16601820  0.16979603  0.32458147
   0.33333000  0.00000000  0.25855000
   0.49854055  0.16660476  0.32544210
   0.66667000  0.00000000  0.25855000
   0.83280270  0.16829211  0.32557946
   0.00000000  0.33333000  0.25855000
   0.16469629  0.49971716  0.32363528
   0.33333000  0.33333000  0.25855000
   0.49796066  0.50162253  0.32310350
   0.66667000  0.33333000  0.25855000
   0.83441042  0.49664205  0.32344941
   0.00000000  0.66667000  0.25855000
   0.17019992  0.83213689  0.32261792
   0.33333000  0.66667000  0.25855000
   0.49904248  0.83490081  0.32487831
   0.66667000  0.66667000  0.25855000
   0.83103989  0.83703683  0.32313172
   0.99976221  0.33207778  0.38013960
   0.65073684  0.34793771  0.38574649
   0.33351833  0.66717370  0.38435215
Direct configuration=     4
   0.00000000  0.00000000  0.00000000
   0.01524820  0.97969328  0.38327909
   0.16667000  0.16667000  0.06464000
   0.33333000  0.00000000  0.00000000
   0.31919287  0.01398903  0.38004906
   0.50000000  0.16667000  0.06464000
   0.66667000  0.00000000  0.00000000
   0.66682880  0.00183569  0.38046616
   0.83333000  0.16667000  0.06464000
   0.00000000  0.33333000  0.00000000
   0.16667000  0.50000000  0.06464000
   0.33333000  0.33333000  0.00000000
   0.50000000  0.50000000  0.06464000
   0.66667000  0.33333000  0.00000000
   0.83333000  0.50000000  0.06464000
   0.00000000  0.66667000  0.00000000
   0.98265047  0.68684313  0.38341046
   0.16667000  0.83333000  0.06464000
   0.33333000  0.66667000  0.00000000
   0.50000000  0.83333000  0.06464000
   0.66667000  0.66667000  0.00000000
   0.68725922  0.65554611  0.38222270
   0.83333000  0.83333000  0.06464000
   0.00000000  0.00000000  0.12928000
   0.16667000  0.16667000  0.19391000
   0.33333000  0.00000000  0.12928000
   0.50000000  0.16667000  0.19391000
   0.66667000  0.00000000  0.12928000
   0.83333000  0.16667000  0.19391000
   0.00000000  0.33333000  0.12928000
   0.16667000  0.50000000  0.19391000
   0.33333000  0.33333000  0.12928000
   0.50000000  0.50000000  0.19391000
   0.66667000  0.33333000  0.12928000
   0.83333000  0.50000000  0.19391000
   0.00000000  0.66667000  0.12928000
   0.16667000  0.83333000  0.19391000
   0.33333000  0.66667000  0.12928000
   0.50000000  0.83333000  0.19391000
   0.66667000  0.66667000  0.12928000
   0.83333000  0.83333000  0.19391000
   0.00000000  0.00000000  0.25855000
   0.16577725  0.17027939  0.32437475
   0.33333000  0.00000000  0.25855000
   0.49781900  0.16719264  0.32546724
   0.66667000  0.00000000  0.25855000
   0.83283280  0.16795125  0.32542381
   0.00000000  0.33333000  0.25855000
   0.16441444  0.49995660  0.32332211
   0.33333000  0.33333000  0.25855000
   0.49786615  0.50206576  0.32278110
   0.66667000  0.33333000  0.25855000
   0.83412453  0.49755977  0.32335617
   0.00000000  0.66667000  0.25855000
   0.16895117  0.83233956  0.32252597
   0.33333000  0.66667000  0.25855000
   0.49937223  0.83497808  0.32468304
   0.66667000  0.66667000  0.25855000
   0.83136161  0.83659806  0.32315984
   0.00046878  0.33219144  0.38010852
   0.65173892  0.34574357  0.38513781
   0.33341285  0.66675542  0.38419233
Direct configuration=     5
   0.00000000  0.00000000  0.00000000
   0.01097930  0.98003689  0.38270670
   0.16667000  0.16667000  0.06464000
   0.33333000  0.00000000  0.00000000
   0.32456473  0.01071148  0.37961906
   0.50000000  0.16667000  0.06464000
   0.66667000  0.00000000  0.00000000
   0.66674483  0.00200867  0.38056442
   0.83333000  0.16667000  0.06464000
   0.00000000  0.33333000  0.00000000
   0.16667000  0.50000000  0.06464000
   0.33333000  0.33333000  0.00000000
   0.50000000  0.50000000  0.06464000
   0.66667000  0.33333000  0.00000000
   0.83333000  0.50000000  0.06464000
   0.00000000  0.66667000  0.00000000
   0.98321784  0.68690325  0.38322481
   0.16667000  0.83333000  0.06464000
   0.33333000  0.66667000  0.00000000
   0.50000000  0.83333000  0.06464000
   0.66667000  0.66667000  0.00000000
   0.68722054  0.65783974  0.38192062
   0.83333000  0.83333000  0.06464000
   0.00000000  0.00000000  0.12928000
   0.16667000  0.16667000  0.19391000
   0.33333000  0.00000000  0.12928000
   0.50000000  0.16667000  0.19391000
   0.66667000  0.00000000  0.12928000
   0.83333000  0.16667000  0.19391000
   0.00000000  0.33333000  0.12928000
   0.16667000  0.50000000  0.19391000
   0.33333000  0.33333000  0.12928000
   0.50000000  0.50000000  0.19391000
   0.66667000  0.33333000  0.12928000
   0.83333000  0.50000000  0.19391000
   0.00000000  0.66667000  0.12928000
   0.16667000  0.83333000  0.19391000
   0.33333000  0.66667000  0.12928000
   0.50000000  0.83333000  0.19391000
   0.66667000  0.66667000  0.12928000
   0.83333000  0.83333000  0.19391000
   0.00000000  0.00000000  0.25855000
   0.16541909  0.17099789  0.32406746
   0.33333000  0.00000000  0.25855000
   0.49674646  0.16806649  0.32550460
   0.66667000  0.00000000  0.25855000
   0.83287755  0.16744459  0.32519244
   0.00000000  0.33333000  0.25855000
   0.16399548  0.50031251  0.32285660
   0.33333000  0.33333000  0.25855000
   0.49772566  0.50272460  0.32230188
   0.66667000  0.33333000  0.25855000
   0.83369957  0.49892392  0.32321758
   0.00000000  0.66667000  0.25855000
   0.16709497  0.83264081  0.32238929
   0.33333000  0.66667000  0.25855000
   0.49986239  0.83509293  0.32439278
   0.66667000  0.66667000  0.25855000
   0.83183982  0.83594585  0.32320163
   0.00151906  0.33236038  0.38006231
   0.65322846  0.34248208  0.38423304
   0.33325606  0.66613367  0.38395476
Direct configuration=     6
   0.00000000  0.00000000  0.00000000
   0.00753373  0.98078602  0.38241303
   0.16667000  0.16667000  0.06464000
   0.33333000  0.00000000  0.00000000
   0.32754641  0.00847926  0.37942142
   0.50000000  0.16667000  0.06464000
   0.66667000  0.00000000  0.00000000
   0.66720988  0.00195105  0.38074624
   0.83333000  0.16667000  0.06464000
   0.00000000  0.33333000  0.00000000
   0.16667000  0.50000000  0.06464000
   0.33333000  0.33333000  0.00000000
   0.50000000  0.50000000  0.06464000
   0.66667000  0.33333000  0.00000000
   0.83333000  0.50000000  0.06464000
   0.00000000  0.66667000  0.00000000
   0.98393402  0.68656791  0.38322923
   0.16667000  0.83333000  0.06464000
   0.33333000  0.66667000  0.00000000
   0.50000000  0.83333000  0.06464000
   0.66667000  0.66667000  0.00000000
   0.68697991  0.65979725  0.38185183
   0.83333000  0.83333000  0.06464000
   0.00000000  0.00000000  0.12928000
   0.16667000  0.16667000  0.19391000
   0.33333000  0.00000000  0.12928000
   0.50000000  0.16667000  0.19391000
   0.66667000  0.00000000  0.12928000
   0.83333000  0.16667000  0.19391000
   0.00000000  0.33333000  0.12928000
   0.16667000  0.50000000  0.19391000
   0.33333000  0.33333000  0.12928000
   0.50000000  0.50000000  0.19391000
   0.66667000  0.33333000  0.12928000
   0.83333000  0.50000000  0.19391000
   0.00000000  0.66667000  0.12928000
   0.16667000  0.83333000  0.19391000
   0.33333000  0.66667000  0.12928000
   0.50000000  0.83333000  0.19391000
   0.66667000  0.66667000  0.12928000
   0.83333000  0.83333000  0.19391000
   0.00000000  0.00000000  0.25855000
   0.16507111  0.16915933  0.32423495
   0.33333000  0.00000000  0.25855000
   0.49764302  0.16712543  0.32448759
   0.66667000  0.00000000  0.25855000
   0.83253344  0.16694426  0.32481680
   0.00000000  0.33333000  0.25855000
   0.16440393  0.50023630  0.32320515
   0.33333000  0.33333000  0.25855000
   0.49813347  0.50258944  0.32225689
   0.66667000  0.33333000  0.25855000
   0.83386448  0.49894068  0.32329898
   0.00000000  0.66667000  0.25855000
   0.16734284  0.83354871  0.32262334
   0.33333000  0.66667000  0.25855000
   0.49993307  0.83547385  0.32412909
   0.66667000  0.66667000  0.25855000
   0.83103828  0.83640057  0.32274295
   0.00287383  0.33326721  0.37965469
   0.65417628  0.34091005  0.38423003
   0.33225945  0.66522224  0.38361796
Direct configuration=     7
   0.00000000  0.00000000  0.00000000
   0.00503747  0.98132875  0.38220027
   0.16667000  0.16667000  0.06464000
   0.33333000  0.00000000  0.00000000
   0.32970659  0.00686205  0.37927823
   0.50000000  0.16667000  0.06464000
   0.66667000  0.00000000  0.00000000
   0.66754680  0.00190930  0.38087797
   0.83333000  0.16667000  0.06464000
   0.00000000  0.33333000  0.00000000
   0.16667000  0.50000000  0.06464000
   0.33333000  0.33333000  0.00000000
   0.50000000  0.50000000  0.06464000
   0.66667000  0.33333000  0.00000000
   0.83333000  0.50000000  0.06464000
   0.00000000  0.66667000  0.00000000
   0.98445289  0.68632497  0.38323243
   0.16667000  0.83333000  0.06464000
   0.33333000  0.66667000  0.00000000
   0.50000000  0.83333000  0.06464000
   0.66667000  0.66667000  0.00000000
   0.68680558  0.66121544  0.38180199
   0.83333000  0.83333000  0.06464000
   0.00000000  0.00000000  0.12928000
   0.16667000  0.16667000  0.19391000
   0.33333000  0.00000000  0.12928000
   0.50000000  0.16667000  0.19391000
   0.66667000  0.00000000  0.12928000
   0.83333000  0.16667000  0.19391000
   0.00000000  0.33333000  0.12928000
   0.16667000  0.50000000  0.19391000
   0.33333000  0.33333000  0.12928000
   0.50000000  0.50000000  0.19391000
   0.66667000  0.33333000  0.12928000
   0.83333000  0.50000000  0.19391000
   0.00000000  0.66667000  0.12928000
   0.16667000  0.83333000  0.19391000
   0.33333000  0.66667000  0.12928000
   0.50000000  0.83333000  0.19391000
   0.66667000  0.66667000  0.12928000
   0.83333000  0.83333000  0.19391000
   0.00000000  0.00000000  0.25855000
   0.16481900  0.16782732  0.32435630
   0.33333000  0.00000000  0.25855000
   0.49829257  0.16644364  0.32375078
   0.66667000  0.00000000  0.25855000
   0.83228414  0.16658178  0.32454466
   0.00000000  0.33333000  0.25855000
   0.16469985  0.50018109  0.32345766
   0.33333000  0.33333000  0.25855000
   0.49842893  0.50249152  0.32222430
   0.66667000  0.33333000  0.25855000
   0.83398395  0.49895282  0.32335795
   0.00000000  0.66667000  0.25855000
   0.16752242  0.83420648  0.32279290
   0.33333000  0.66667000  0.25855000
   0.49998427  0.83574982  0.32393805
   0.66667000  0.66667000  0.25855000
   0.83045758  0.83673001  0.32241064
   0.00385535  0.33392420  0.37935938
   0.65486296  0.33977113  0.38422786
   0.33153742  0.66456192  0.38337394
Direct configuration=     8
   0.00000000  0.00000000  0.00000000
   0.00283906  0.98188524  0.38231585
   0.16667000  0.16667000  0.06464000
   0.33333000  0.00000000  0.00000000
   0.33068217  0.00592441  0.37927621
   0.50000000  0.16667000  0.06464000
   0.66667000  0.00000000  0.00000000
   0.66851512  0.00159354  0.38081632
   0.83333000  0.16667000  0.06464000
   0.00000000  0.33333000  0.00000000
   0.16667000  0.50000000  0.06464000
   0.33333000  0.33333000  0.00000000
   0.50000000  0.50000000  0.06464000
   0.66667000  0.33333000  0.00000000
   0.83333000  0.50000000  0.06464000
   0.00000000  0.66667000  0.00000000
   0.98443013  0.68643451  0.38297705
   0.16667000  0.83333000  0.06464000
   0.33333000  0.66667000  0.00000000
   0.50000000  0.83333000  0.06464000
   0.66667000  0.66667000  0.00000000
   0.68700130  0.66224285  0.38175480
   0.83333000  0.83333000  0.06464000
   0.00000000  0.00000000  0.12928000
   0.16667000  0.16667000  0.19391000
   0.33333000  0.00000000  0.12928000
   0.50000000  0.16667000  0.19391000
   0.66667000  0.00000000  0.12928000
   0.83333000  0.16667000  0.19391000
   0.00000000  0.33333000  0.12928000
   0.16667000  0.50000000  0.19391000
   0.33333000  0.33333000  0.12928000
   0.50000000  0.50000000  0.19391000
   0.66667000  0.33333000  0.12928000
   0.83333000  0.50000000  0.19391000
   0.00000000  0.66667000  0.12928000
   0.16667000  0.83333000  0.19391000
   0.33333000  0.66667000  0.12928000
   0.50000000  0.83333000  0.19391000
   0.66667000  0.66667000  0.12928000
   0.83333000  0.83333000  0.19391000
   0.00000000  0.00000000  0.25855000
   0.16555846  0.16692734  0.32453992
   0.33333000  0.00000000  0.25855000
   0.49897615  0.16630842  0.32359869
   0.66667000  0.00000000  0.25855000
   0.83228499  0.16711177  0.32461895
   0.00000000  0.33333000  0.25855000
   0.16506528  0.49995019  0.32345638
   0.33333000  0.33333000  0.25855000
   0.49930083  0.50150685  0.32258013
   0.66667000  0.33333000  0.25855000
   0.83393341  0.49863723  0.32361292
   0.00000000  0.66667000  0.25855000
   0.16764494  0.83384648  0.32296731
   0.33333000  0.66667000  0.25855000
   0.49972769  0.83499841  0.32404054
   0.66667000  0.66667000  0.25855000
   0.83093732  0.83595076  0.32248744
   0.00448153  0.33446489  0.37939406
   0.65509183  0.33949024  0.38410741
   0.33083718  0.66377777  0.38359811
Direct configuration=     9
   0.00000000  0.00000000  0.00000000
   0.00211816  0.98206772  0.38235375
   0.16667000  0.16667000  0.06464000
   0.33333000  0.00000000  0.00000000
   0.33100208  0.00561694  0.37927555
   0.50000000  0.16667000  0.06464000
   0.66667000  0.00000000  0.00000000
   0.66883265  0.00149000  0.38079611
   0.83333000  0.16667000  0.06464000
   0.00000000  0.33333000  0.00000000
   0.16667000  0.50000000  0.06464000
   0.33333000  0.33333000  0.00000000
   0.50000000  0.50000000  0.06464000
   0.66667000  0.33333000  0.00000000
   0.83333000  0.50000000  0.06464000
   0.00000000  0.66667000  0.00000000
   0.98442267  0.68647043  0.38289331
   0.16667000  0.83333000  0.06464000
   0.33333000  0.66667000  0.00000000
   0.50000000  0.83333000  0.06464000
   0.66667000  0.66667000  0.00000000
   0.68706548  0.66257975  0.38173932
   0.83333000  0.83333000  0.06464000
   0.00000000  0.00000000  0.12928000
   0.16667000  0.16667000  0.19391000
   0.33333000  0.00000000  0.12928000
   0.50000000  0.16667000  0.19391000
   0.66667000  0.00000000  0.12928000
   0.83333000  0.16667000  0.19391000
   0.00000000  0.33333000  0.12928000
   0.16667000  0.50000000  0.19391000
   0.33333000  0.33333000  0.12928000
   0.50000000  0.50000000  0.19391000
   0.66667000  0.33333000  0.12928000
   0.83333000  0.50000000  0.19391000
   0.00000000  0.66667000  0.12928000
   0.16667000  0.83333000  0.19391000
   0.33333000  0.66667000  0.12928000
   0.50000000  0.83333000  0.19391000
   0.66667000  0.66667000  0.12928000
   0.83333000  0.83333000  0.19391000
   0.00000000  0.00000000  0.25855000
   0.16580095  0.16663222  0.32460013
   0.33333000  0.00000000  0.25855000
   0.49920031  0.16626408  0.32354882
   0.66667000  0.00000000  0.25855000
   0.83228527  0.16728556  0.32464332
   0.00000000  0.33333000  0.25855000
   0.16518511  0.49987448  0.32345595
   0.33333000  0.33333000  0.25855000
   0.49958674  0.50118396  0.32269681
   0.66667000  0.33333000  0.25855000
   0.83391683  0.49853374  0.32369653
   0.00000000  0.66667000  0.25855000
   0.16768512  0.83372843  0.32302450
   0.33333000  0.66667000  0.25855000
   0.49964355  0.83475201  0.32407415
   0.66667000  0.66667000  0.25855000
   0.83109463  0.83569523  0.32251262
   0.00468687  0.33464220  0.37940543
   0.65516688  0.33939813  0.38406791
   0.33060757  0.66352063  0.38367162
Direct configuration=    10
   0.00000000  0.00000000  0.00000000
   0.00053386  0.98248260  0.38244530
   0.16667000  0.16667000  0.06464000
   0.33333000  0.00000000  0.00000000
   0.33146608  0.00503287  0.37940268
   0.50000000  0.16667000  0.06464000
   0.66667000  0.00000000  0.00000000
   0.67001569  0.00108345  0.38073024
   0.83333000  0.16667000  0.06464000
   0.00000000  0.33333000  0.00000000
   0.16667000  0.50000000  0.06464000
   0.33333000  0.33333000  0.00000000
   0.50000000  0.50000000  0.06464000
   0.66667000  0.33333000  0.00000000
   0.83333000  0.50000000  0.06464000
   0.00000000  0.66667000  0.00000000
   0.98499211  0.68630246  0.38301292
   0.16667000  0.83333000  0.06464000
   0.33333000  0.66667000  0.00000000
   0.50000000  0.83333000  0.06464000
   0.66667000  0.66667000  0.00000000
   0.68697056  0.66330550  0.38190417
   0.83333000  0.83333000  0.06464000
   0.00000000  0.00000000  0.12928000
   0.16667000  0.16667000  0.19391000
   0.33333000  0.00000000  0.12928000
   0.50000000  0.16667000  0.19391000
   0.66667000  0.00000000  0.12928000
   0.83333000  0.16667000  0.19391000
   0.00000000  0.33333000  0.12928000
   0.16667000  0.50000000  0.19391000
   0.33333000  0.33333000  0.12928000
   0.50000000  0.50000000  0.19391000
   0.66667000  0.33333000  0.12928000
   0.83333000  0.50000000  0.19391000
   0.00000000  0.66667000  0.12928000
   0.16667000  0.83333000  0.19391000
   0.33333000  0.66667000  0.12928000
   0.50000000  0.83333000  0.19391000
   0.66667000  0.66667000  0.12928000
   0.83333000  0.83333000  0.19391000
   0.00000000  0.00000000  0.25855000
   0.16630323  0.16659085  0.32468484
   0.33333000  0.00000000  0.25855000
   0.49931724  0.16597839  0.32381755
   0.66667000  0.00000000  0.25855000
   0.83302302  0.16732238  0.32470198
   0.00000000  0.33333000  0.25855000
   0.16539609  0.49943284  0.32330149
   0.33333000  0.33333000  0.25855000
   0.49970085  0.50086245  0.32278516
   0.66667000  0.33333000  0.25855000
   0.83422165  0.49845670  0.32364818
   0.00000000  0.66667000  0.25855000
   0.16748384  0.83342366  0.32319016
   0.33333000  0.66667000  0.25855000
   0.49957421  0.83388720  0.32420832
   0.66667000  0.66667000  0.25855000
   0.83126016  0.83584499  0.32219943
   0.00545778  0.33472468  0.37958609
   0.65502778  0.33902185  0.38424755
   0.33018271  0.66249650  0.38396309
Direct configuration=    11
   0.00000000  0.00000000  0.00000000
  -0.00008210  0.98264390  0.38248090
   0.16667000  0.16667000  0.06464000
   0.33333000  0.00000000  0.00000000
   0.33164648  0.00480580  0.37945211
   0.50000000  0.16667000  0.06464000
   0.66667000  0.00000000  0.00000000
   0.67047565  0.00092539  0.38070463
   0.83333000  0.16667000  0.06464000
   0.00000000  0.33333000  0.00000000
   0.16667000  0.50000000  0.06464000
   0.33333000  0.33333000  0.00000000
   0.50000000  0.50000000  0.06464000
   0.66667000  0.33333000  0.00000000
   0.83333000  0.50000000  0.06464000
   0.00000000  0.66667000  0.00000000
   0.98521349  0.68623715  0.38305942
   0.16667000  0.83333000  0.06464000
   0.33333000  0.66667000  0.00000000
   0.50000000  0.83333000  0.06464000
   0.66667000  0.66667000  0.00000000
   0.68693366  0.66358767  0.38196826
   0.83333000  0.83333000  0.06464000
   0.00000000  0.00000000  0.12928000
   0.16667000  0.16667000  0.19391000
   0.33333000  0.00000000  0.12928000
   0.50000000  0.16667000  0.19391000
   0.66667000  0.00000000  0.12928000
   0.83333000  0.16667000  0.19391000
   0.00000000  0.33333000  0.12928000
   0.16667000  0.50000000  0.19391000
   0.33333000  0.33333000  0.12928000
   0.50000000  0.50000000  0.19391000
   0.66667000  0.33333000  0.12928000
   0.83333000  0.50000000  0.19391000
   0.00000000  0.66667000  0.12928000
   0.16667000  0.83333000  0.19391000
   0.33333000  0.66667000  0.12928000
   0.50000000  0.83333000  0.19391000
   0.66667000  0.66667000  0.12928000
   0.83333000  0.83333000  0.19391000
   0.00000000  0.00000000  0.25855000
   0.16649852  0.16657477  0.32471777
   0.33333000  0.00000000  0.25855000
   0.49936269  0.16586732  0.32392203
   0.66667000  0.00000000  0.25855000
   0.83330985  0.16733669  0.32472479
   0.00000000  0.33333000  0.25855000
   0.16547811  0.49926114  0.32324144
   0.33333000  0.33333000  0.25855000
   0.49974522  0.50073745  0.32281951
   0.66667000  0.33333000  0.25855000
   0.83434016  0.49842674  0.32362938
   0.00000000  0.66667000  0.25855000
   0.16740559  0.83330517  0.32325456
   0.33333000  0.66667000  0.25855000
   0.49954725  0.83355097  0.32426048
   0.66667000  0.66667000  0.25855000
   0.83132452  0.83590321  0.32207766
   0.00575750  0.33475675  0.37965633
   0.65497370  0.33887555  0.38431738
   0.33001754  0.66209834  0.38407641
Direct configuration=    12
   0.00000000  0.00000000  0.00000000
  -0.00101797  0.98260706  0.38241032
   0.16667000  0.16667000  0.06464000
   0.33333000  0.00000000  0.00000000
   0.33166900  0.00446483  0.37955633
   0.50000000  0.16667000  0.06464000
   0.66667000  0.00000000  0.00000000
   0.67163974  0.00046982  0.38077233
   0.83333000  0.16667000  0.06464000
   0.00000000  0.33333000  0.00000000
   0.16667000  0.50000000  0.06464000
   0.33333000  0.33333000  0.00000000
   0.50000000  0.50000000  0.06464000
   0.66667000  0.33333000  0.00000000
   0.83333000  0.50000000  0.06464000
   0.00000000  0.66667000  0.00000000
   0.98554241  0.68626253  0.38313142
   0.16667000  0.83333000  0.06464000
   0.33333000  0.66667000  0.00000000
   0.50000000  0.83333000  0.06464000
   0.66667000  0.66667000  0.00000000
   0.68723070  0.66394225  0.38187654
   0.83333000  0.83333000  0.06464000
   0.00000000  0.00000000  0.12928000
   0.16667000  0.16667000  0.19391000
   0.33333000  0.00000000  0.12928000
   0.50000000  0.16667000  0.19391000
   0.66667000  0.00000000  0.12928000
   0.83333000  0.16667000  0.19391000
   0.00000000  0.33333000  0.12928000
   0.16667000  0.50000000  0.19391000
   0.33333000  0.33333000  0.12928000
   0.50000000  0.50000000  0.19391000
   0.66667000  0.33333000  0.12928000
   0.83333000  0.50000000  0.19391000
   0.00000000  0.66667000  0.12928000
   0.16667000  0.83333000  0.19391000
   0.33333000  0.66667000  0.12928000
   0.50000000  0.83333000  0.19391000
   0.66667000  0.66667000  0.12928000
   0.83333000  0.83333000  0.19391000
   0.00000000  0.00000000  0.25855000
   0.16643137  0.16677342  0.32476509
   0.33333000  0.00000000  0.25855000
   0.49941134  0.16547118  0.32413611
   0.66667000  0.00000000  0.25855000
   0.83364205  0.16736354  0.32470059
   0.00000000  0.33333000  0.25855000
   0.16548081  0.49904020  0.32333069
   0.33333000  0.33333000  0.25855000
   0.49947822  0.50086864  0.32283677
   0.66667000  0.33333000  0.25855000
   0.83429409  0.49877608  0.32376146
   0.00000000  0.66667000  0.25855000
   0.16737136  0.83338981  0.32339012
   0.33333000  0.66667000  0.25855000
   0.49950331  0.83350307  0.32436178
   0.66667000  0.66667000  0.25855000
   0.83135709  0.83561710  0.32212534
   0.00653427  0.33457483  0.37962483
   0.65477692  0.33868446  0.38440780
   0.32990934  0.66102125  0.38399697
Direct configuration=    13
   0.00000000  0.00000000  0.00000000
  -0.00123355  0.98259857  0.38239406
   0.16667000  0.16667000  0.06464000
   0.33333000  0.00000000  0.00000000
   0.33167419  0.00438628  0.37958034
   0.50000000  0.16667000  0.06464000
   0.66667000  0.00000000  0.00000000
   0.67190789  0.00036488  0.38078793
   0.83333000  0.16667000  0.06464000
   0.00000000  0.33333000  0.00000000
   0.16667000  0.50000000  0.06464000
   0.33333000  0.33333000  0.00000000
   0.50000000  0.50000000  0.06464000
   0.66667000  0.33333000  0.00000000
   0.83333000  0.50000000  0.06464000
   0.00000000  0.66667000  0.00000000
   0.98561818  0.68626838  0.38314800
   0.16667000  0.83333000  0.06464000
   0.33333000  0.66667000  0.00000000
   0.50000000  0.83333000  0.06464000
   0.66667000  0.66667000  0.00000000
   0.68729912  0.66402393  0.38185541
   0.83333000  0.83333000  0.06464000
   0.00000000  0.00000000  0.12928000
   0.16667000  0.16667000  0.19391000
   0.33333000  0.00000000  0.12928000
   0.50000000  0.16667000  0.19391000
   0.66667000  0.00000000  0.12928000
   0.83333000  0.16667000  0.19391000
   0.00000000  0.33333000  0.12928000
   0.16667000  0.50000000  0.19391000
   0.33333000  0.33333000  0.12928000
   0.50000000  0.50000000  0.19391000
   0.66667000  0.33333000  0.12928000
   0.83333000  0.50000000  0.19391000
   0.00000000  0.66667000  0.12928000
   0.16667000  0.83333000  0.19391000
   0.33333000  0.66667000  0.12928000
   0.50000000  0.83333000  0.19391000
   0.66667000  0.66667000  0.12928000
   0.83333000  0.83333000  0.19391000
   0.00000000  0.00000000  0.25855000
   0.16641590  0.16681918  0.32477599
   0.33333000  0.00000000  0.25855000
   0.49942254  0.16537993  0.32418542
   0.66667000  0.00000000  0.25855000
   0.83371858  0.16736973  0.32469502
   0.00000000  0.33333000  0.25855000
   0.16548143  0.49898930  0.32335125
   0.33333000  0.33333000  0.25855000
   0.49941672  0.50089886  0.32284074
   0.66667000  0.33333000  0.25855000
   0.83428347  0.49885656  0.32379188
   0.00000000  0.66667000  0.25855000
   0.16736348  0.83340931  0.32342135
   0.33333000  0.66667000  0.25855000
   0.49949318  0.83349204  0.32438512
   0.66667000  0.66667000  0.25855000
   0.83136459  0.83555119  0.32213632
   0.00671320  0.33453293  0.37961757
   0.65473159  0.33864044  0.38442862
   0.32988442  0.66077314  0.38397868
Direct configuration=    14
   0.00000000  0.00000000  0.00000000
  -0.00184637  0.98255151  0.38243105
   0.16667000  0.16667000  0.06464000
   0.33333000  0.00000000  0.00000000
   0.33151864  0.00431921  0.37964732
   0.50000000  0.16667000  0.06464000
   0.66667000  0.00000000  0.00000000
   0.67294736  0.00008800  0.38095713
   0.83333000  0.16667000  0.06464000
   0.00000000  0.33333000  0.00000000
   0.16667000  0.50000000  0.06464000
   0.33333000  0.33333000  0.00000000
   0.50000000  0.50000000  0.06464000
   0.66667000  0.33333000  0.00000000
   0.83333000  0.50000000  0.06464000
   0.00000000  0.66667000  0.00000000
   0.98598400  0.68633444  0.38319780
   0.16667000  0.83333000  0.06464000
   0.33333000  0.66667000  0.00000000
   0.50000000  0.83333000  0.06464000
   0.66667000  0.66667000  0.00000000
   0.68734970  0.66418150  0.38190058
   0.83333000  0.83333000  0.06464000
   0.00000000  0.00000000  0.12928000
   0.16667000  0.16667000  0.19391000
   0.33333000  0.00000000  0.12928000
   0.50000000  0.16667000  0.19391000
   0.66667000  0.00000000  0.12928000
   0.83333000  0.16667000  0.19391000
   0.00000000  0.33333000  0.12928000
   0.16667000  0.50000000  0.19391000
   0.33333000  0.33333000  0.12928000
   0.50000000  0.50000000  0.19391000
   0.66667000  0.33333000  0.12928000
   0.83333000  0.50000000  0.19391000
   0.00000000  0.66667000  0.12928000
   0.16667000  0.83333000  0.19391000
   0.33333000  0.66667000  0.12928000
   0.50000000  0.83333000  0.19391000
   0.66667000  0.66667000  0.12928000
   0.83333000  0.83333000  0.19391000
   0.00000000  0.00000000  0.25855000
   0.16646291  0.16680644  0.32473439
   0.33333000  0.00000000  0.25855000
   0.49946565  0.16531261  0.32419451
   0.66667000  0.00000000  0.25855000
   0.83334307  0.16755443  0.32461341
   0.00000000  0.33333000  0.25855000
   0.16541574  0.49895511  0.32335706
   0.33333000  0.33333000  0.25855000
   0.49934557  0.50071512  0.32279318
   0.66667000  0.33333000  0.25855000
   0.83414905  0.49862497  0.32382494
   0.00000000  0.66667000  0.25855000
   0.16761385  0.83346682  0.32335158
   0.33333000  0.66667000  0.25855000
   0.49945499  0.83382871  0.32437907
   0.66667000  0.66667000  0.25855000
   0.83137239  0.83535116  0.32206289
   0.00730840  0.33421679  0.37964760
   0.65445055  0.33854392  0.38432797
   0.33001669  0.65986350  0.38391191
Direct configuration=    15
   0.00000000  0.00000000  0.00000000
  -0.00198436  0.98254092  0.38243938
   0.16667000  0.16667000  0.06464000
   0.33333000  0.00000000  0.00000000
   0.33148361  0.00430410  0.37966240
   0.50000000  0.16667000  0.06464000
   0.66667000  0.00000000  0.00000000
   0.67318142  0.00002566  0.38099523
   0.83333000  0.16667000  0.06464000
   0.00000000  0.33333000  0.00000000
   0.16667000  0.50000000  0.06464000
   0.33333000  0.33333000  0.00000000
   0.50000000  0.50000000  0.06464000
   0.66667000  0.33333000  0.00000000
   0.83333000  0.50000000  0.06464000
   0.00000000  0.66667000  0.00000000
   0.98606637  0.68634932  0.38320901
   0.16667000  0.83333000  0.06464000
   0.33333000  0.66667000  0.00000000
   0.50000000  0.83333000  0.06464000
   0.66667000  0.66667000  0.00000000
   0.68736109  0.66421698  0.38191075
   0.83333000  0.83333000  0.06464000
   0.00000000  0.00000000  0.12928000
   0.16667000  0.16667000  0.19391000
   0.33333000  0.00000000  0.12928000
   0.50000000  0.16667000  0.19391000
   0.66667000  0.00000000  0.12928000
   0.83333000  0.16667000  0.19391000
   0.00000000  0.33333000  0.12928000
   0.16667000  0.50000000  0.19391000
   0.33333000  0.33333000  0.12928000
   0.50000000  0.50000000  0.19391000
   0.66667000  0.33333000  0.12928000
   0.83333000  0.50000000  0.19391000
   0.00000000  0.66667000  0.12928000
   0.16667000  0.83333000  0.19391000
   0.33333000  0.66667000  0.12928000
   0.50000000  0.83333000  0.19391000
   0.66667000  0.66667000  0.12928000
   0.83333000  0.83333000  0.19391000
   0.00000000  0.00000000  0.25855000
   0.16647350  0.16680357  0.32472502
   0.33333000  0.00000000  0.25855000
   0.49947536  0.16529746  0.32419655
   0.66667000  0.00000000  0.25855000
   0.83325851  0.16759602  0.32459503
   0.00000000  0.33333000  0.25855000
   0.16540095  0.49894742  0.32335836
   0.33333000  0.33333000  0.25855000
   0.49932954  0.50067374  0.32278246
   0.66667000  0.33333000  0.25855000
   0.83411878  0.49857282  0.32383239
   0.00000000  0.66667000  0.25855000
   0.16767022  0.83347977  0.32333587
   0.33333000  0.66667000  0.25855000
   0.49944639  0.83390452  0.32437771
   0.66667000  0.66667000  0.25855000
   0.83137414  0.83530612  0.32204635
   0.00744241  0.33414561  0.37965436
   0.65438727  0.33852218  0.38430531
   0.33004647  0.65965868  0.38389688
Direct configuration=    16
   0.00000000  0.00000000  0.00000000
  -0.00233369  0.98232483  0.38244716
   0.16667000  0.16667000  0.06464000
   0.33333000  0.00000000  0.00000000
   0.33135084  0.00445090  0.37960944
   0.50000000  0.16667000  0.06464000
   0.66667000  0.00000000  0.00000000
   0.67391581 -0.00008024  0.38101637
   0.83333000  0.16667000  0.06464000
   0.00000000  0.33333000  0.00000000
   0.16667000  0.50000000  0.06464000
   0.33333000  0.33333000  0.00000000
   0.50000000  0.50000000  0.06464000
   0.66667000  0.33333000  0.00000000
   0.83333000  0.50000000  0.06464000
   0.00000000  0.66667000  0.00000000
   0.98632543  0.68659437  0.38311967
   0.16667000  0.83333000  0.06464000
   0.33333000  0.66667000  0.00000000
   0.50000000  0.83333000  0.06464000
   0.66667000  0.66667000  0.00000000
   0.68729168  0.66433138  0.38194048
   0.83333000  0.83333000  0.06464000
   0.00000000  0.00000000  0.12928000
   0.16667000  0.16667000  0.19391000
   0.33333000  0.00000000  0.12928000
   0.50000000  0.16667000  0.19391000
   0.66667000  0.00000000  0.12928000
   0.83333000  0.16667000  0.19391000
   0.00000000  0.33333000  0.12928000
   0.16667000  0.50000000  0.19391000
   0.33333000  0.33333000  0.12928000
   0.50000000  0.50000000  0.19391000
   0.66667000  0.33333000  0.12928000
   0.83333000  0.50000000  0.19391000
   0.00000000  0.66667000  0.12928000
   0.16667000  0.83333000  0.19391000
   0.33333000  0.66667000  0.12928000
   0.50000000  0.83333000  0.19391000
   0.66667000  0.66667000  0.12928000
   0.83333000  0.83333000  0.19391000
   0.00000000  0.00000000  0.25855000
   0.16651850  0.16669042  0.32469560
   0.33333000  0.00000000  0.25855000
   0.49925787  0.16541129  0.32409933
   0.66667000  0.00000000  0.25855000
   0.83315664  0.16744133  0.32461945
   0.00000000  0.33333000  0.25855000
   0.16538883  0.49885429  0.32330855
   0.33333000  0.33333000  0.25855000
   0.49943005  0.50064510  0.32269986
   0.66667000  0.33333000  0.25855000
   0.83415245  0.49844358  0.32384374
   0.00000000  0.66667000  0.25855000
   0.16769302  0.83337517  0.32336531
   0.33333000  0.66667000  0.25855000
   0.49960017  0.83379830  0.32442294
   0.66667000  0.66667000  0.25855000
   0.83146257  0.83527868  0.32203087
   0.00758262  0.33386143  0.37964944
   0.65405968  0.33834341  0.38424179
   0.33026612  0.65938868  0.38388896
Direct configuration=    17
   0.00000000  0.00000000  0.00000000
  -0.00252399  0.98220711  0.38245140
   0.16667000  0.16667000  0.06464000
   0.33333000  0.00000000  0.00000000
   0.33127850  0.00453087  0.37958059
   0.50000000  0.16667000  0.06464000
   0.66667000  0.00000000  0.00000000
   0.67431590 -0.00013793  0.38102789
   0.83333000  0.16667000  0.06464000
   0.00000000  0.33333000  0.00000000
   0.16667000  0.50000000  0.06464000
   0.33333000  0.33333000  0.00000000
   0.50000000  0.50000000  0.06464000
   0.66667000  0.33333000  0.00000000
   0.83333000  0.50000000  0.06464000
   0.00000000  0.66667000  0.00000000
   0.98646657  0.68672787  0.38307099
   0.16667000  0.83333000  0.06464000
   0.33333000  0.66667000  0.00000000
   0.50000000  0.83333000  0.06464000
   0.66667000  0.66667000  0.00000000
   0.68725386  0.66439371  0.38195668
   0.83333000  0.83333000  0.06464000
   0.00000000  0.00000000  0.12928000
   0.16667000  0.16667000  0.19391000
   0.33333000  0.00000000  0.12928000
   0.50000000  0.16667000  0.19391000
   0.66667000  0.00000000  0.12928000
   0.83333000  0.16667000  0.19391000
   0.00000000  0.33333000  0.12928000
   0.16667000  0.50000000  0.19391000
   0.33333000  0.33333000  0.12928000
   0.50000000  0.50000000  0.19391000
   0.66667000  0.33333000  0.12928000
   0.83333000  0.50000000  0.19391000
   0.00000000  0.66667000  0.12928000
   0.16667000  0.83333000  0.19391000
   0.33333000  0.66667000  0.12928000
   0.50000000  0.83333000  0.19391000
   0.66667000  0.66667000  0.12928000
   0.83333000  0.83333000  0.19391000
   0.00000000  0.00000000  0.25855000
   0.16654302  0.16662878  0.32467957
   0.33333000  0.00000000  0.25855000
   0.49913938  0.16547330  0.32404636
   0.66667000  0.00000000  0.25855000
   0.83310113  0.16735705  0.32463275
   0.00000000  0.33333000  0.25855000
   0.16538223  0.49880356  0.32328141
   0.33333000  0.33333000  0.25855000
   0.49948480  0.50062950  0.32265485
   0.66667000  0.33333000  0.25855000
   0.83417079  0.49837317  0.32384993
   0.00000000  0.66667000  0.25855000
   0.16770544  0.83331818  0.32338135
   0.33333000  0.66667000  0.25855000
   0.49968394  0.83374044  0.32444757
   0.66667000  0.66667000  0.25855000
   0.83151074  0.83526374  0.32202243
   0.00765901  0.33370661  0.37964676
   0.65388121  0.33824601  0.38420718
   0.33038578  0.65924159  0.38388464
Direct configuration=    18
   0.00000000  0.00000000  0.00000000
  -0.00283827  0.98195711  0.38254632
   0.16667000  0.16667000  0.06464000
   0.33333000  0.00000000  0.00000000
   0.33122360  0.00480193  0.37955125
   0.50000000  0.16667000  0.06464000
   0.66667000  0.00000000  0.00000000
   0.67501395 -0.00015818  0.38105873
   0.83333000  0.16667000  0.06464000
   0.00000000  0.33333000  0.00000000
   0.16667000  0.50000000  0.06464000
   0.33333000  0.33333000  0.00000000
   0.50000000  0.50000000  0.06464000
   0.66667000  0.33333000  0.00000000
   0.83333000  0.50000000  0.06464000
   0.00000000  0.66667000  0.00000000
   0.98688341  0.68687504  0.38304189
   0.16667000  0.83333000  0.06464000
   0.33333000  0.66667000  0.00000000
   0.50000000  0.83333000  0.06464000
   0.66667000  0.66667000  0.00000000
   0.68711439  0.66444779  0.38189569
   0.83333000  0.83333000  0.06464000
   0.00000000  0.00000000  0.12928000
   0.16667000  0.16667000  0.19391000
   0.33333000  0.00000000  0.12928000
   0.50000000  0.16667000  0.19391000
   0.66667000  0.00000000  0.12928000
   0.83333000  0.16667000  0.19391000
   0.00000000  0.33333000  0.12928000
   0.16667000  0.50000000  0.19391000
   0.33333000  0.33333000  0.12928000
   0.50000000  0.50000000  0.19391000
   0.66667000  0.33333000  0.12928000
   0.83333000  0.50000000  0.19391000
   0.00000000  0.66667000  0.12928000
   0.16667000  0.83333000  0.19391000
   0.33333000  0.66667000  0.12928000
   0.50000000  0.83333000  0.19391000
   0.66667000  0.66667000  0.12928000
   0.83333000  0.83333000  0.19391000
   0.00000000  0.00000000  0.25855000
   0.16644081  0.16662573  0.32463110
   0.33333000  0.00000000  0.25855000
   0.49901823  0.16543880  0.32395956
   0.66667000  0.00000000  0.25855000
   0.83325782  0.16736970  0.32460800
   0.00000000  0.33333000  0.25855000
   0.16551202  0.49861659  0.32332002
   0.33333000  0.33333000  0.25855000
   0.49952334  0.50068539  0.32266008
   0.66667000  0.33333000  0.25855000
   0.83412650  0.49841168  0.32391345
   0.00000000  0.66667000  0.25855000
   0.16795410  0.83319394  0.32336701
   0.33333000  0.66667000  0.25855000
   0.49977945  0.83352205  0.32448249
   0.66667000  0.66667000  0.25855000
   0.83135384  0.83506109  0.32192099
   0.00763558  0.33344426  0.37958752
   0.65341136  0.33794336  0.38417124
   0.33069915  0.65914487  0.38384806
Direct configuration=    19
   0.00000000  0.00000000  0.00000000
  -0.00285943  0.98194028  0.38255271
   0.16667000  0.16667000  0.06464000
   0.33333000  0.00000000  0.00000000
   0.33121990  0.00482018  0.37954928
   0.50000000  0.16667000  0.06464000
   0.66667000  0.00000000  0.00000000
   0.67506095 -0.00015954  0.38106080
   0.83333000  0.16667000  0.06464000
   0.00000000  0.33333000  0.00000000
   0.16667000  0.50000000  0.06464000
   0.33333000  0.33333000  0.00000000
   0.50000000  0.50000000  0.06464000
   0.66667000  0.33333000  0.00000000
   0.83333000  0.50000000  0.06464000
   0.00000000  0.66667000  0.00000000
   0.98691148  0.68688495  0.38303993
   0.16667000  0.83333000  0.06464000
   0.33333000  0.66667000  0.00000000
   0.50000000  0.83333000  0.06464000
   0.66667000  0.66667000  0.00000000
   0.68710500  0.66445143  0.38189158
   0.83333000  0.83333000  0.06464000
   0.00000000  0.00000000  0.12928000
   0.16667000  0.16667000  0.19391000
   0.33333000  0.00000000  0.12928000
   0.50000000  0.16667000  0.19391000
   0.66667000  0.00000000  0.12928000
   0.83333000  0.16667000  0.19391000
   0.00000000  0.33333000  0.12928000
   0.16667000  0.50000000  0.19391000
   0.33333000  0.33333000  0.12928000
   0.50000000  0.50000000  0.19391000
   0.66667000  0.33333000  0.12928000
   0.83333000  0.50000000  0.19391000
   0.00000000  0.66667000  0.12928000
   0.16667000  0.83333000  0.19391000
   0.33333000  0.66667000  0.12928000
   0.50000000  0.83333000  0.19391000
   0.66667000  0.66667000  0.12928000
   0.83333000  0.83333000  0.19391000
   0.00000000  0.00000000  0.25855000
   0.16643392  0.16662553  0.32462784
   0.33333000  0.00000000  0.25855000
   0.49901007  0.16543648  0.32395372
   0.66667000  0.00000000  0.25855000
   0.83326836  0.16737055  0.32460633
   0.00000000  0.33333000  0.25855000
   0.16552076  0.49860400  0.32332262
   0.33333000  0.33333000  0.25855000
   0.49952593  0.50068915  0.32266043
   0.66667000  0.33333000  0.25855000
   0.83412352  0.49841427  0.32391773
   0.00000000  0.66667000  0.25855000
   0.16797084  0.83318558  0.32336605
   0.33333000  0.66667000  0.25855000
   0.49978588  0.83350735  0.32448484
   0.66667000  0.66667000  0.25855000
   0.83134328  0.83504744  0.32191416
   0.00763400  0.33342660  0.37958353
   0.65337972  0.33792299  0.38416882
   0.33072025  0.65913836  0.38384560
Direct configuration=    20
   0.00000000  0.00000000  0.00000000
  -0.00317492  0.98153592  0.38257750
   0.16667000  0.16667000  0.06464000
   0.33333000  0.00000000  0.00000000
   0.33121637  0.00506462  0.37956660
   0.50000000  0.16667000  0.06464000
   0.66667000  0.00000000  0.00000000
   0.67569452 -0.00006190  0.38107327
   0.83333000  0.16667000  0.06464000
   0.00000000  0.33333000  0.00000000
   0.16667000  0.50000000  0.06464000
   0.33333000  0.33333000  0.00000000
   0.50000000  0.50000000  0.06464000
   0.66667000  0.33333000  0.00000000
   0.83333000  0.50000000  0.06464000
   0.00000000  0.66667000  0.00000000
   0.98739933  0.68706441  0.38302000
   0.16667000  0.83333000  0.06464000
   0.33333000  0.66667000  0.00000000
   0.50000000  0.83333000  0.06464000
   0.66667000  0.66667000  0.00000000
   0.68687801  0.66448118  0.38185076
   0.83333000  0.83333000  0.06464000
   0.00000000  0.00000000  0.12928000
   0.16667000  0.16667000  0.19391000
   0.33333000  0.00000000  0.12928000
   0.50000000  0.16667000  0.19391000
   0.66667000  0.00000000  0.12928000
   0.83333000  0.16667000  0.19391000
   0.00000000  0.33333000  0.12928000
   0.16667000  0.50000000  0.19391000
   0.33333000  0.33333000  0.12928000
   0.50000000  0.50000000  0.19391000
   0.66667000  0.33333000  0.12928000
   0.83333000  0.50000000  0.19391000
   0.00000000  0.66667000  0.12928000
   0.16667000  0.83333000  0.19391000
   0.33333000  0.66667000  0.12928000
   0.50000000  0.83333000  0.19391000
   0.66667000  0.66667000  0.12928000
   0.83333000  0.83333000  0.19391000
   0.00000000  0.00000000  0.25855000
   0.16640910  0.16659823  0.32459999
   0.33333000  0.00000000  0.25855000
   0.49908956  0.16527988  0.32395620
   0.66667000  0.00000000  0.25855000
   0.83331680  0.16745734  0.32455127
   0.00000000  0.33333000  0.25855000
   0.16559399  0.49856125  0.32337207
   0.33333000  0.33333000  0.25855000
   0.49949398  0.50059185  0.32269801
   0.66667000  0.33333000  0.25855000
   0.83407470  0.49841966  0.32393347
   0.00000000  0.66667000  0.25855000
   0.16805579  0.83325066  0.32335716
   0.33333000  0.66667000  0.25855000
   0.49974130  0.83357294  0.32446757
   0.66667000  0.66667000  0.25855000
   0.83145117  0.83492905  0.32191897
   0.00753705  0.33323524  0.37959769
   0.65293702  0.33752266  0.38416723
   0.33098362  0.65918010  0.38387452
Direct configuration=    21
   0.00000000  0.00000000  0.00000000
  -0.00326653  0.98141850  0.38258470
   0.16667000  0.16667000  0.06464000
   0.33333000  0.00000000  0.00000000
   0.33121535  0.00513561  0.37957163
   0.50000000  0.16667000  0.06464000
   0.66667000  0.00000000  0.00000000
   0.67587850 -0.00003355  0.38107690
   0.83333000  0.16667000  0.06464000
   0.00000000  0.33333000  0.00000000
   0.16667000  0.50000000  0.06464000
   0.33333000  0.33333000  0.00000000
   0.50000000  0.50000000  0.06464000
   0.66667000  0.33333000  0.00000000
   0.83333000  0.50000000  0.06464000
   0.00000000  0.66667000  0.00000000
   0.98754099  0.68711652  0.38301421
   0.16667000  0.83333000  0.06464000
   0.33333000  0.66667000  0.00000000
   0.50000000  0.83333000  0.06464000
   0.66667000  0.66667000  0.00000000
   0.68681210  0.66448982  0.38183891
   0.83333000  0.83333000  0.06464000
   0.00000000  0.00000000  0.12928000
   0.16667000  0.16667000  0.19391000
   0.33333000  0.00000000  0.12928000
   0.50000000  0.16667000  0.19391000
   0.66667000  0.00000000  0.12928000
   0.83333000  0.16667000  0.19391000
   0.00000000  0.33333000  0.12928000
   0.16667000  0.50000000  0.19391000
   0.33333000  0.33333000  0.12928000
   0.50000000  0.50000000  0.19391000
   0.66667000  0.33333000  0.12928000
   0.83333000  0.50000000  0.19391000
   0.00000000  0.66667000  0.12928000
   0.16667000  0.83333000  0.19391000
   0.33333000  0.66667000  0.12928000
   0.50000000  0.83333000  0.19391000
   0.66667000  0.66667000  0.12928000
   0.83333000  0.83333000  0.19391000
   0.00000000  0.00000000  0.25855000
   0.16640189  0.16659030  0.32459191
   0.33333000  0.00000000  0.25855000
   0.49911264  0.16523441  0.32395692
   0.66667000  0.00000000  0.25855000
   0.83333086  0.16748254  0.32453528
   0.00000000  0.33333000  0.25855000
   0.16561526  0.49854884  0.32338643
   0.33333000  0.33333000  0.25855000
   0.49948470  0.50056360  0.32270893
   0.66667000  0.33333000  0.25855000
   0.83406052  0.49842123  0.32393804
   0.00000000  0.66667000  0.25855000
   0.16808046  0.83326955  0.32335458
   0.33333000  0.66667000  0.25855000
   0.49972835  0.83359198  0.32446255
   0.66667000  0.66667000  0.25855000
   0.83148250  0.83489467  0.32192037
   0.00750890  0.33317967  0.37960180
   0.65280847  0.33740641  0.38416677
   0.33106009  0.65919222  0.38388291
Direct configuration=    22
   0.00000000  0.00000000  0.00000000
  -0.00343223  0.98123151  0.38260232
   0.16667000  0.16667000  0.06464000
   0.33333000  0.00000000  0.00000000
   0.33118796  0.00513961  0.37962215
   0.50000000  0.16667000  0.06464000
   0.66667000  0.00000000  0.00000000
   0.67619116  0.00016186  0.38109952
   0.83333000  0.16667000  0.06464000
   0.00000000  0.33333000  0.00000000
   0.16667000  0.50000000  0.06464000
   0.33333000  0.33333000  0.00000000
   0.50000000  0.50000000  0.06464000
   0.66667000  0.33333000  0.00000000
   0.83333000  0.50000000  0.06464000
   0.00000000  0.66667000  0.00000000
   0.98787896  0.68715591  0.38301038
   0.16667000  0.83333000  0.06464000
   0.33333000  0.66667000  0.00000000
   0.50000000  0.83333000  0.06464000
   0.66667000  0.66667000  0.00000000
   0.68658501  0.66442667  0.38182936
   0.83333000  0.83333000  0.06464000
   0.00000000  0.00000000  0.12928000
   0.16667000  0.16667000  0.19391000
   0.33333000  0.00000000  0.12928000
   0.50000000  0.16667000  0.19391000
   0.66667000  0.00000000  0.12928000
   0.83333000  0.16667000  0.19391000
   0.00000000  0.33333000  0.12928000
   0.16667000  0.50000000  0.19391000
   0.33333000  0.33333000  0.12928000
   0.50000000  0.50000000  0.19391000
   0.66667000  0.33333000  0.12928000
   0.83333000  0.50000000  0.19391000
   0.00000000  0.66667000  0.12928000
   0.16667000  0.83333000  0.19391000
   0.33333000  0.66667000  0.12928000
   0.50000000  0.83333000  0.19391000
   0.66667000  0.66667000  0.12928000
   0.83333000  0.83333000  0.19391000
   0.00000000  0.00000000  0.25855000
   0.16655290  0.16664666  0.32462710
   0.33333000  0.00000000  0.25855000
   0.49908111  0.16532951  0.32398004
   0.66667000  0.00000000  0.25855000
   0.83322216  0.16750067  0.32453814
   0.00000000  0.33333000  0.25855000
   0.16550820  0.49867529  0.32340941
   0.33333000  0.33333000  0.25855000
   0.49950714  0.50053016  0.32271328
   0.66667000  0.33333000  0.25855000
   0.83402230  0.49837081  0.32396500
   0.00000000  0.66667000  0.25855000
   0.16807448  0.83328936  0.32335996
   0.33333000  0.66667000  0.25855000
   0.49978959  0.83362150  0.32447036
   0.66667000  0.66667000  0.25855000
   0.83146203  0.83485919  0.32190060
   0.00749741  0.33318965  0.37960329
   0.65272862  0.33720440  0.38419557
   0.33102920  0.65929169  0.38390926
Direct configuration=    23
   0.00000000  0.00000000  0.00000000
  -0.00347705  0.98118094  0.38260708
   0.16667000  0.16667000  0.06464000
   0.33333000  0.00000000  0.00000000
   0.33118055  0.00514069  0.37963582
   0.50000000  0.16667000  0.06464000
   0.66667000  0.00000000  0.00000000
   0.67627574  0.00021472  0.38110564
   0.83333000  0.16667000  0.06464000
   0.00000000  0.33333000  0.00000000
   0.16667000  0.50000000  0.06464000
   0.33333000  0.33333000  0.00000000
   0.50000000  0.50000000  0.06464000
   0.66667000  0.33333000  0.00000000
   0.83333000  0.50000000  0.06464000
   0.00000000  0.66667000  0.00000000
   0.98797038  0.68716656  0.38300934
   0.16667000  0.83333000  0.06464000
   0.33333000  0.66667000  0.00000000
   0.50000000  0.83333000  0.06464000
   0.66667000  0.66667000  0.00000000
   0.68652358  0.66440959  0.38182678
   0.83333000  0.83333000  0.06464000
   0.00000000  0.00000000  0.12928000
   0.16667000  0.16667000  0.19391000
   0.33333000  0.00000000  0.12928000
   0.50000000  0.16667000  0.19391000
   0.66667000  0.00000000  0.12928000
   0.83333000  0.16667000  0.19391000
   0.00000000  0.33333000  0.12928000
   0.16667000  0.50000000  0.19391000
   0.33333000  0.33333000  0.12928000
   0.50000000  0.50000000  0.19391000
   0.66667000  0.33333000  0.12928000
   0.83333000  0.50000000  0.19391000
   0.00000000  0.66667000  0.12928000
   0.16667000  0.83333000  0.19391000
   0.33333000  0.66667000  0.12928000
   0.50000000  0.83333000  0.19391000
   0.66667000  0.66667000  0.12928000
   0.83333000  0.83333000  0.19391000
   0.00000000  0.00000000  0.25855000
   0.16659375  0.16666190  0.32463662
   0.33333000  0.00000000  0.25855000
   0.49907258  0.16535524  0.32398629
   0.66667000  0.00000000  0.25855000
   0.83319275  0.16750557  0.32453891
   0.00000000  0.33333000  0.25855000
   0.16547924  0.49870950  0.32341562
   0.33333000  0.33333000  0.25855000
   0.49951321  0.50052111  0.32271446
   0.66667000  0.33333000  0.25855000
   0.83401196  0.49835717  0.32397229
   0.00000000  0.66667000  0.25855000
   0.16807286  0.83329472  0.32336141
   0.33333000  0.66667000  0.25855000
   0.49980616  0.83362949  0.32447247
   0.66667000  0.66667000  0.25855000
   0.83145650  0.83484960  0.32189526
   0.00749430  0.33319236  0.37960370
   0.65270701  0.33714976  0.38420336
   0.33102085  0.65931859  0.38391639
Direct configuration=    24
   0.00000000  0.00000000  0.00000000
  -0.00369124  0.98103548  0.38264040
   0.16667000  0.16667000  0.06464000
   0.33333000  0.00000000  0.00000000
   0.33115262  0.00506967  0.37966680
   0.50000000  0.16667000  0.06464000
   0.66667000  0.00000000  0.00000000
   0.67657036  0.00047487  0.38113629
   0.83333000  0.16667000  0.06464000
   0.00000000  0.33333000  0.00000000
   0.16667000  0.50000000  0.06464000
   0.33333000  0.33333000  0.00000000
   0.50000000  0.50000000  0.06464000
   0.66667000  0.33333000  0.00000000
   0.83333000  0.50000000  0.06464000
   0.00000000  0.66667000  0.00000000
   0.98825024  0.68728552  0.38299044
   0.16667000  0.83333000  0.06464000
   0.33333000  0.66667000  0.00000000
   0.50000000  0.83333000  0.06464000
   0.66667000  0.66667000  0.00000000
   0.68628749  0.66431163  0.38177994
   0.83333000  0.83333000  0.06464000
   0.00000000  0.00000000  0.12928000
   0.16667000  0.16667000  0.19391000
   0.33333000  0.00000000  0.12928000
   0.50000000  0.16667000  0.19391000
   0.66667000  0.00000000  0.12928000
   0.83333000  0.16667000  0.19391000
   0.00000000  0.33333000  0.12928000
   0.16667000  0.50000000  0.19391000
   0.33333000  0.33333000  0.12928000
   0.50000000  0.50000000  0.19391000
   0.66667000  0.33333000  0.12928000
   0.83333000  0.50000000  0.19391000
   0.00000000  0.66667000  0.12928000
   0.16667000  0.83333000  0.19391000
   0.33333000  0.66667000  0.12928000
   0.50000000  0.83333000  0.19391000
   0.66667000  0.66667000  0.12928000
   0.83333000  0.83333000  0.19391000
   0.00000000  0.00000000  0.25855000
   0.16657284  0.16668934  0.32465136
   0.33333000  0.00000000  0.25855000
   0.49899718  0.16537819  0.32398951
   0.66667000  0.00000000  0.25855000
   0.83327032  0.16749656  0.32453663
   0.00000000  0.33333000  0.25855000
   0.16545144  0.49875057  0.32342474
   0.33333000  0.33333000  0.25855000
   0.49950968  0.50058777  0.32274448
   0.66667000  0.33333000  0.25855000
   0.83393077  0.49837817  0.32400516
   0.00000000  0.66667000  0.25855000
   0.16814991  0.83336829  0.32335115
   0.33333000  0.66667000  0.25855000
   0.49981804  0.83363934  0.32450268
   0.66667000  0.66667000  0.25855000
   0.83141274  0.83470574  0.32193488
   0.00752991  0.33326236  0.37960448
   0.65268586  0.33702787  0.38423173
   0.33090064  0.65946535  0.38390931
Direct configuration=    25
   0.00000000  0.00000000  0.00000000
  -0.00380607  0.98095750  0.38265825
   0.16667000  0.16667000  0.06464000
   0.33333000  0.00000000  0.00000000
   0.33113764  0.00503160  0.37968342
   0.50000000  0.16667000  0.06464000
   0.66667000  0.00000000  0.00000000
   0.67672831  0.00061434  0.38115272
   0.83333000  0.16667000  0.06464000
   0.00000000  0.33333000  0.00000000
   0.16667000  0.50000000  0.06464000
   0.33333000  0.33333000  0.00000000
   0.50000000  0.50000000  0.06464000
   0.66667000  0.33333000  0.00000000
   0.83333000  0.50000000  0.06464000
   0.00000000  0.66667000  0.00000000
   0.98840028  0.68734930  0.38298031
   0.16667000  0.83333000  0.06464000
   0.33333000  0.66667000  0.00000000
   0.50000000  0.83333000  0.06464000
   0.66667000  0.66667000  0.00000000
   0.68616092  0.66425912  0.38175482
   0.83333000  0.83333000  0.06464000
   0.00000000  0.00000000  0.12928000
   0.16667000  0.16667000  0.19391000
   0.33333000  0.00000000  0.12928000
   0.50000000  0.16667000  0.19391000
   0.66667000  0.00000000  0.12928000
   0.83333000  0.16667000  0.19391000
   0.00000000  0.33333000  0.12928000
   0.16667000  0.50000000  0.19391000
   0.33333000  0.33333000  0.12928000
   0.50000000  0.50000000  0.19391000
   0.66667000  0.33333000  0.12928000
   0.83333000  0.50000000  0.19391000
   0.00000000  0.66667000  0.12928000
   0.16667000  0.83333000  0.19391000
   0.33333000  0.66667000  0.12928000
   0.50000000  0.83333000  0.19391000
   0.66667000  0.66667000  0.12928000
   0.83333000  0.83333000  0.19391000
   0.00000000  0.00000000  0.25855000
   0.16656162  0.16670404  0.32465927
   0.33333000  0.00000000  0.25855000
   0.49895676  0.16539049  0.32399123
   0.66667000  0.00000000  0.25855000
   0.83331191  0.16749173  0.32453541
   0.00000000  0.33333000  0.25855000
   0.16543654  0.49877259  0.32342962
   0.33333000  0.33333000  0.25855000
   0.49950779  0.50062351  0.32276057
   0.66667000  0.33333000  0.25855000
   0.83388724  0.49838942  0.32402279
   0.00000000  0.66667000  0.25855000
   0.16819121  0.83340774  0.32334565
   0.33333000  0.66667000  0.25855000
   0.49982441  0.83364462  0.32451888
   0.66667000  0.66667000  0.25855000
   0.83138928  0.83462862  0.32195613
   0.00754900  0.33329989  0.37960489
   0.65267452  0.33696252  0.38424694
   0.33083619  0.65954403  0.38390551
Direct configuration=    26
   0.00000000  0.00000000  0.00000000
  -0.00398762  0.98087733  0.38268950
   0.16667000  0.16667000  0.06464000
   0.33333000  0.00000000  0.00000000
   0.33111812  0.00498200  0.37968835
   0.50000000  0.16667000  0.06464000
   0.66667000  0.00000000  0.00000000
   0.67693890  0.00085727  0.38116558
   0.83333000  0.16667000  0.06464000
   0.00000000  0.33333000  0.00000000
   0.16667000  0.50000000  0.06464000
   0.33333000  0.33333000  0.00000000
   0.50000000  0.50000000  0.06464000
   0.66667000  0.33333000  0.00000000
   0.83333000  0.50000000  0.06464000
   0.00000000  0.66667000  0.00000000
   0.98861813  0.68746196  0.38297983
   0.16667000  0.83333000  0.06464000
   0.33333000  0.66667000  0.00000000
   0.50000000  0.83333000  0.06464000
   0.66667000  0.66667000  0.00000000
   0.68594675  0.66415828  0.38174684
   0.83333000  0.83333000  0.06464000
   0.00000000  0.00000000  0.12928000
   0.16667000  0.16667000  0.19391000
   0.33333000  0.00000000  0.12928000
   0.50000000  0.16667000  0.19391000
   0.66667000  0.00000000  0.12928000
   0.83333000  0.16667000  0.19391000
   0.00000000  0.33333000  0.12928000
   0.16667000  0.50000000  0.19391000
   0.33333000  0.33333000  0.12928000
   0.50000000  0.50000000  0.19391000
   0.66667000  0.33333000  0.12928000
   0.83333000  0.50000000  0.19391000
   0.00000000  0.66667000  0.12928000
   0.16667000  0.83333000  0.19391000
   0.33333000  0.66667000  0.12928000
   0.50000000  0.83333000  0.19391000
   0.66667000  0.66667000  0.12928000
   0.83333000  0.83333000  0.19391000
   0.00000000  0.00000000  0.25855000
   0.16650431  0.16671381  0.32465082
   0.33333000  0.00000000  0.25855000
   0.49896372  0.16536869  0.32398714
   0.66667000  0.00000000  0.25855000
   0.83335607  0.16749937  0.32452924
   0.00000000  0.33333000  0.25855000
   0.16544469  0.49875545  0.32341481
   0.33333000  0.33333000  0.25855000
   0.49948757  0.50064089  0.32277790
   0.66667000  0.33333000  0.25855000
   0.83388311  0.49837881  0.32402180
   0.00000000  0.66667000  0.25855000
   0.16820108  0.83344686  0.32332602
   0.33333000  0.66667000  0.25855000
   0.49981934  0.83367781  0.32452572
   0.66667000  0.66667000  0.25855000
   0.83135430  0.83461221  0.32195011
   0.00759975  0.33332476  0.37961312
   0.65264344  0.33688235  0.38424200
   0.33073774  0.65965821  0.38391225
Direct configuration=    27
   0.00000000  0.00000000  0.00000000
  -0.00407350  0.98083941  0.38270428
   0.16667000  0.16667000  0.06464000
   0.33333000  0.00000000  0.00000000
   0.33110888  0.00495854  0.37969068
   0.50000000  0.16667000  0.06464000
   0.66667000  0.00000000  0.00000000
   0.67703852  0.00097219  0.38117167
   0.83333000  0.16667000  0.06464000
   0.00000000  0.33333000  0.00000000
   0.16667000  0.50000000  0.06464000
   0.33333000  0.33333000  0.00000000
   0.50000000  0.50000000  0.06464000
   0.66667000  0.33333000  0.00000000
   0.83333000  0.50000000  0.06464000
   0.00000000  0.66667000  0.00000000
   0.98872119  0.68751526  0.38297960
   0.16667000  0.83333000  0.06464000
   0.33333000  0.66667000  0.00000000
   0.50000000  0.83333000  0.06464000
   0.66667000  0.66667000  0.00000000
   0.68584544  0.66411058  0.38174306
   0.83333000  0.83333000  0.06464000
   0.00000000  0.00000000  0.12928000
   0.16667000  0.16667000  0.19391000
   0.33333000  0.00000000  0.12928000
   0.50000000  0.16667000  0.19391000
   0.66667000  0.00000000  0.12928000
   0.83333000  0.16667000  0.19391000
   0.00000000  0.33333000  0.12928000
   0.16667000  0.50000000  0.19391000
   0.33333000  0.33333000  0.12928000
   0.50000000  0.50000000  0.19391000
   0.66667000  0.33333000  0.12928000
   0.83333000  0.50000000  0.19391000
   0.00000000  0.66667000  0.12928000
   0.16667000  0.83333000  0.19391000
   0.33333000  0.66667000  0.12928000
   0.50000000  0.83333000  0.19391000
   0.66667000  0.66667000  0.12928000
   0.83333000  0.83333000  0.19391000
   0.00000000  0.00000000  0.25855000
   0.16647721  0.16671843  0.32464682
   0.33333000  0.00000000  0.25855000
   0.49896700  0.16535838  0.32398521
   0.66667000  0.00000000  0.25855000
   0.83337696  0.16750298  0.32452632
   0.00000000  0.33333000  0.25855000
   0.16544854  0.49874734  0.32340781
   0.33333000  0.33333000  0.25855000
   0.49947800  0.50064911  0.32278610
   0.66667000  0.33333000  0.25855000
   0.83388116  0.49837379  0.32402133
   0.00000000  0.66667000  0.25855000
   0.16820574  0.83346536  0.32331673
   0.33333000  0.66667000  0.25855000
   0.49981695  0.83369351  0.32452895
   0.66667000  0.66667000  0.25855000
   0.83133775  0.83460445  0.32194727
   0.00762376  0.33333653  0.37961701
   0.65262873  0.33684442  0.38423966
   0.33069117  0.65971223  0.38391544
Direct configuration=    28
   0.00000000  0.00000000  0.00000000
  -0.00424527  0.98076356  0.38273384
   0.16667000  0.16667000  0.06464000
   0.33333000  0.00000000  0.00000000
   0.33109041  0.00491162  0.37969535
   0.50000000  0.16667000  0.06464000
   0.66667000  0.00000000  0.00000000
   0.67723776  0.00120202  0.38118384
   0.83333000  0.16667000  0.06464000
   0.00000000  0.33333000  0.00000000
   0.16667000  0.50000000  0.06464000
   0.33333000  0.33333000  0.00000000
   0.50000000  0.50000000  0.06464000
   0.66667000  0.33333000  0.00000000
   0.83333000  0.50000000  0.06464000
   0.00000000  0.66667000  0.00000000
   0.98892729  0.68762185  0.38297914
   0.16667000  0.83333000  0.06464000
   0.33333000  0.66667000  0.00000000
   0.50000000  0.83333000  0.06464000
   0.66667000  0.66667000  0.00000000
   0.68564282  0.66401517  0.38173550
   0.83333000  0.83333000  0.06464000
   0.00000000  0.00000000  0.12928000
   0.16667000  0.16667000  0.19391000
   0.33333000  0.00000000  0.12928000
   0.50000000  0.16667000  0.19391000
   0.66667000  0.00000000  0.12928000
   0.83333000  0.16667000  0.19391000
   0.00000000  0.33333000  0.12928000
   0.16667000  0.50000000  0.19391000
   0.33333000  0.33333000  0.12928000
   0.50000000  0.50000000  0.19391000
   0.66667000  0.33333000  0.12928000
   0.83333000  0.50000000  0.19391000
   0.00000000  0.66667000  0.12928000
   0.16667000  0.83333000  0.19391000
   0.33333000  0.66667000  0.12928000
   0.50000000  0.83333000  0.19391000
   0.66667000  0.66667000  0.12928000
   0.83333000  0.83333000  0.19391000
   0.00000000  0.00000000  0.25855000
   0.16642299  0.16672768  0.32463883
   0.33333000  0.00000000  0.25855000
   0.49897358  0.16533775  0.32398134
   0.66667000  0.00000000  0.25855000
   0.83341875  0.16751021  0.32452048
   0.00000000  0.33333000  0.25855000
   0.16545625  0.49873113  0.32339380
   0.33333000  0.33333000  0.25855000
   0.49945886  0.50066555  0.32280250
   0.66667000  0.33333000  0.25855000
   0.83387726  0.49836375  0.32402040
   0.00000000  0.66667000  0.25855000
   0.16821508  0.83350237  0.32329816
   0.33333000  0.66667000  0.25855000
   0.49981216  0.83372492  0.32453542
   0.66667000  0.66667000  0.25855000
   0.83130464  0.83458893  0.32194158
   0.00767178  0.33336006  0.37962479
   0.65259933  0.33676857  0.38423499
   0.33059802  0.65982026  0.38392182
Direct configuration=    29
   0.00000000  0.00000000  0.00000000
  -0.00447236  0.98066471  0.38275016
   0.16667000  0.16667000  0.06464000
   0.33333000  0.00000000  0.00000000
   0.33105337  0.00485257  0.37967593
   0.50000000  0.16667000  0.06464000
   0.66667000  0.00000000  0.00000000
   0.67745856  0.00147569  0.38118202
   0.83333000  0.16667000  0.06464000
   0.00000000  0.33333000  0.00000000
   0.16667000  0.50000000  0.06464000
   0.33333000  0.33333000  0.00000000
   0.50000000  0.50000000  0.06464000
   0.66667000  0.33333000  0.00000000
   0.83333000  0.50000000  0.06464000
   0.00000000  0.66667000  0.00000000
   0.98909910  0.68779971  0.38296684
   0.16667000  0.83333000  0.06464000
   0.33333000  0.66667000  0.00000000
   0.50000000  0.83333000  0.06464000
   0.66667000  0.66667000  0.00000000
   0.68549751  0.66387790  0.38170179
   0.83333000  0.83333000  0.06464000
   0.00000000  0.00000000  0.12928000
   0.16667000  0.16667000  0.19391000
   0.33333000  0.00000000  0.12928000
   0.50000000  0.16667000  0.19391000
   0.66667000  0.00000000  0.12928000
   0.83333000  0.16667000  0.19391000
   0.00000000  0.33333000  0.12928000
   0.16667000  0.50000000  0.19391000
   0.33333000  0.33333000  0.12928000
   0.50000000  0.50000000  0.19391000
   0.66667000  0.33333000  0.12928000
   0.83333000  0.50000000  0.19391000
   0.00000000  0.66667000  0.12928000
   0.16667000  0.83333000  0.19391000
   0.33333000  0.66667000  0.12928000
   0.50000000  0.83333000  0.19391000
   0.66667000  0.66667000  0.12928000
   0.83333000  0.83333000  0.19391000
   0.00000000  0.00000000  0.25855000
   0.16643896  0.16674016  0.32462104
   0.33333000  0.00000000  0.25855000
   0.49901759  0.16534706  0.32397083
   0.66667000  0.00000000  0.25855000
   0.83338899  0.16758900  0.32450964
   0.00000000  0.33333000  0.25855000
   0.16545063  0.49872824  0.32338697
   0.33333000  0.33333000  0.25855000
   0.49947382  0.50065194  0.32280542
   0.66667000  0.33333000  0.25855000
   0.83390978  0.49841856  0.32403463
   0.00000000  0.66667000  0.25855000
   0.16812581  0.83347332  0.32329424
   0.33333000  0.66667000  0.25855000
   0.49980596  0.83371620  0.32452806
   0.66667000  0.66667000  0.25855000
   0.83127812  0.83457608  0.32195104
   0.00774223  0.33331707  0.37961815
   0.65253096  0.33669611  0.38420115
   0.33049481  0.65992284  0.38393552
