Generated by VASPKIT code               
   1.00000000000000     
     9.5029000000000003    0.0000000000000000    0.0000000000000000
     0.0000000000000000   13.4327000000000005    0.0000000000000000
     0.0000000000000000    0.0000000000000000   26.1938999999999993
   Mo   O 
   108     1
Selective dynamics
Direct
  0.6673048537049697  0.8330069587972553  0.3429701593943827   T   T   T
  0.6666700000000034  0.6666700000000034  0.2564100000000025   F   F   F
  0.8333299999999966  0.6666700000000034  0.0000000000000000   F   F   F
  0.6651621060952116  0.6680266629922669  0.4269405403252617   T   T   T
  0.8333299999999966  0.6666700000000034  0.1709400000000016   F   F   F
  0.8333299999999966  0.8333299999999966  0.0854700000000008   F   F   F
  0.8337424069488103  0.6675170280150005  0.3417024995087922   T   T   T
  0.8333299999999966  0.8333299999999966  0.2564100000000025   F   F   F
  0.3329049889236293  0.5010252582974132  0.3430523141586612   T   T   T
  0.8324032997241700  0.8322246719694998  0.4233473325874178   T   T   T
  0.0000000000000000  0.5000000000000000  0.1709400000000016   F   F   F
  0.8333299999999966  0.1666700000000034  0.0854700000000008   F   F   F
  0.0000000000000000  0.5000000000000000  0.0000000000000000   F   F   F
  0.8333299999999966  0.1666700000000034  0.2564100000000025   F   F   F
  0.8334444138067468  0.0001847990398889  0.3423702693533648   T   T   T
  0.8333299999999966  0.0000000000000000  0.1709400000000016   F   F   F
  0.6667077218773452  0.0022939004457484  0.4240736113187132   T   T   T
  0.8333299999999966  0.0000000000000000  0.0000000000000000   F   F   F
  0.8336481012583711  0.1671624355046358  0.4234757532645351   T   T   T
  0.3333299999999966  0.3333299999999966  0.2564100000000025   F   F   F
  0.3333299999999966  0.5000000000000000  0.1709400000000016   F   F   F
  0.3333299999999966  0.3333299999999966  0.0854700000000008   F   F   F
  0.5000000000000000  0.3333299999999966  0.1709400000000016   F   F   F
  0.5000000000000000  0.5000000000000000  0.0854700000000008   F   F   F
  0.5000000000000000  0.3333299999999966  0.0000000000000000   F   F   F
  0.3334311991973336  0.3331008459561809  0.4235194591694447   T   T   T
  0.4999543701695180  0.3332278225981922  0.3417480117995912   T   T   T
  0.5000000000000000  0.5000000000000000  0.2564100000000025   F   F   F
  0.8333299999999966  0.5000000000000000  0.0854700000000008   F   F   F
  0.5000000000000000  0.0000000000000000  0.1709400000000016   F   F   F
  0.6666700000000034  0.0000000000000000  0.0854700000000008   F   F   F
  0.6666700000000034  0.1666700000000034  0.1709400000000016   F   F   F
  0.4999284169675435  0.1664350123998575  0.4230920495939198   T   T   T
  0.6667065565347554  0.1668487684991134  0.3420691197037599   T   T   T
  0.5000000000000000  0.1666700000000034  0.2564100000000025   F   F   F
  0.4999575548858828  0.0003390730197470  0.3420949213480590   T   T   T
  0.5000000000000000  0.1666700000000034  0.0854700000000008   F   F   F
  0.6666700000000034  0.1666700000000034  0.0000000000000000   F   F   F
  0.6666700000000034  0.3333299999999966  0.2564100000000025   F   F   F
  0.8333299999999966  0.3333299999999966  0.0000000000000000   F   F   F
  0.6664121889498059  0.3330990916340386  0.4235151782352628   T   T   T
  0.8333299999999966  0.3333299999999966  0.1709400000000016   F   F   F
  0.4999006516466775  0.4942015744715810  0.4248708661073960   T   T   T
  0.6666700000000034  0.5000000000000000  0.1709400000000016   F   F   F
  0.6666700000000034  0.3333299999999966  0.0854700000000008   F   F   F
  0.6669643955517073  0.5010254828743672  0.3430474141396282   T   T   T
  0.1673913119349910  0.8322030245849330  0.4233510316237320   T   T   T
  0.6666700000000034  0.5000000000000000  0.0000000000000000   F   F   F
  0.3325719617833508  0.8330063345104333  0.3429702678818193   T   T   T
  0.1666700000000034  0.6666700000000034  0.0000000000000000   F   F   F
  0.1661355076319533  0.6675207960210793  0.3417052587162121   T   T   T
  0.3333299999999966  0.6666700000000034  0.2564100000000025   F   F   F
  0.1666700000000034  0.6666700000000034  0.1709400000000016   F   F   F
  0.1666700000000034  0.8333299999999966  0.2564100000000025   F   F   F
  0.3333299999999966  0.8333299999999966  0.1709400000000016   F   F   F
  0.1666700000000034  0.8333299999999966  0.0854700000000008   F   F   F
  0.3333299999999966  0.8333299999999966  0.0000000000000000   F   F   F
  0.3333299999999966  0.6666700000000034  0.0854700000000008   F   F   F
  0.3333299999999966  0.0000000000000000  0.0854700000000008   F   F   F
  0.3333299999999966  0.1666700000000034  0.0000000000000000   F   F   F
  0.1662082687384276  0.1671679032309721  0.4234771578040844   T   T   T
  0.1664687949238642  0.0001797552152467  0.3423730048073504   T   T   T
  0.3331469287777343  0.0022937100381023  0.4240738662934767   T   T   T
  0.3332128396582378  0.1668510422442613  0.3420704114103968   T   T   T
  0.3333299999999966  0.0000000000000000  0.2564100000000025   F   F   F
  0.3333299999999966  0.1666700000000034  0.1709400000000016   F   F   F
  0.1666700000000034  0.1666700000000034  0.2564100000000025   F   F   F
  0.6666700000000034  0.8333299999999966  0.0000000000000000   F   F   F
  0.5000000000000000  0.0000000000000000  0.0000000000000000   F   F   F
  0.0000000000000000  0.6666700000000034  0.2564100000000025   F   F   F
  0.8330692545254428  0.3330121703638680  0.3421769967351879   T   T   T
 -0.0001061561124732  0.6678110813708230  0.4236675162609789   T   T   T
  0.0000000000000000  0.8333299999999966  0.0000000000000000   F   F   F
  0.8333299999999966  0.5000000000000000  0.2564100000000025   F   F   F
  0.0000000000000000  0.8333299999999966  0.1709400000000016   F   F   F
  0.8345543903235895  0.5005915865769699  0.4225640976504653   T   T   T
 -0.0000616492470906  0.8334206216635247  0.3426218429870985   T   T   T
  0.0000000000000000  0.6666700000000034  0.0854700000000008   F   F   F
  0.0000000000000000  0.0000000000000000  0.2564100000000025   F   F   F
 -0.0000372932540952  0.1671943837395672  0.3419283172881565   T   T   T
 -0.0000648640011794  0.0025877746244211  0.4232001016636303   T   T   T
  0.1666700000000034  0.0000000000000000  0.0000000000000000   F   F   F
  0.0000000000000000  0.1666700000000034  0.0000000000000000   F   F   F
  0.0000000000000000  0.0000000000000000  0.0854700000000008   F   F   F
  0.0000000000000000  0.1666700000000034  0.1709400000000016   F   F   F
  0.1666700000000034  0.1666700000000034  0.0854700000000008   F   F   F
  0.1666700000000034  0.0000000000000000  0.1709400000000016   F   F   F
  0.0000000000000000  0.3333299999999966  0.0854700000000008   F   F   F
  0.6666700000000034  0.8333299999999966  0.1709400000000016   F   F   F
  0.3346114374975632  0.6680209600437128  0.4269484556868476   T   T   T
  0.5000000000000000  0.6666700000000034  0.0000000000000000   F   F   F
  0.5000000000000000  0.8333299999999966  0.0854700000000008   F   F   F
  0.5000000000000000  0.6666700000000034  0.1709400000000016   F   F   F
  0.5000000000000000  0.8333299999999966  0.2564100000000025   F   F   F
  0.4999302726303765  0.6670878288514884  0.3429273037253623   T   T   T
  0.4998960637815800  0.8423244309383743  0.4227846251928374   T   T   T
  0.6666700000000034  0.0000000000000000  0.2564100000000025   F   F   F
  0.6666700000000034  0.6666700000000034  0.0854700000000008   F   F   F
  0.1652374802648542  0.5005981473445917  0.4225678358399251   T   T   T
  0.3333299999999966  0.5000000000000000  0.0000000000000000   F   F   F
 -0.0000857337561605  0.3310677687846841  0.4235720801983668   T   T   T
  0.1666700000000034  0.3333299999999966  0.0000000000000000   F   F   F
  0.0000000000000000  0.3333299999999966  0.2564100000000025   F   F   F
 -0.0000651085372456  0.5001858353552691  0.3428887593260110   T   T   T
  0.1666700000000034  0.5000000000000000  0.2564100000000025   F   F   F
  0.1668357972949868  0.3330196436145064  0.3421802775362707   T   T   T
  0.1666700000000034  0.5000000000000000  0.0854700000000008   F   F   F
  0.1666700000000034  0.3333299999999966  0.1709400000000016   F   F   F
  0.4998594918957104  0.6183714931722302  0.4703337753349992   T   T   T
 
  0.00000000E+00  0.00000000E+00  0.00000000E+00
  0.00000000E+00  0.00000000E+00  0.00000000E+00
  0.00000000E+00  0.00000000E+00  0.00000000E+00
  0.00000000E+00  0.00000000E+00  0.00000000E+00
  0.00000000E+00  0.00000000E+00  0.00000000E+00
  0.00000000E+00  0.00000000E+00  0.00000000E+00
  0.00000000E+00  0.00000000E+00  0.00000000E+00
  0.00000000E+00  0.00000000E+00  0.00000000E+00
  0.00000000E+00  0.00000000E+00  0.00000000E+00
  0.00000000E+00  0.00000000E+00  0.00000000E+00
  0.00000000E+00  0.00000000E+00  0.00000000E+00
  0.00000000E+00  0.00000000E+00  0.00000000E+00
  0.00000000E+00  0.00000000E+00  0.00000000E+00
  0.00000000E+00  0.00000000E+00  0.00000000E+00
  0.00000000E+00  0.00000000E+00  0.00000000E+00
  0.00000000E+00  0.00000000E+00  0.00000000E+00
  0.00000000E+00  0.00000000E+00  0.00000000E+00
  0.00000000E+00  0.00000000E+00  0.00000000E+00
  0.00000000E+00  0.00000000E+00  0.00000000E+00
  0.00000000E+00  0.00000000E+00  0.00000000E+00
  0.00000000E+00  0.00000000E+00  0.00000000E+00
  0.00000000E+00  0.00000000E+00  0.00000000E+00
  0.00000000E+00  0.00000000E+00  0.00000000E+00
  0.00000000E+00  0.00000000E+00  0.00000000E+00
  0.00000000E+00  0.00000000E+00  0.00000000E+00
  0.00000000E+00  0.00000000E+00  0.00000000E+00
  0.00000000E+00  0.00000000E+00  0.00000000E+00
  0.00000000E+00  0.00000000E+00  0.00000000E+00
  0.00000000E+00  0.00000000E+00  0.00000000E+00
  0.00000000E+00  0.00000000E+00  0.00000000E+00
  0.00000000E+00  0.00000000E+00  0.00000000E+00
  0.00000000E+00  0.00000000E+00  0.00000000E+00
  0.00000000E+00  0.00000000E+00  0.00000000E+00
  0.00000000E+00  0.00000000E+00  0.00000000E+00
  0.00000000E+00  0.00000000E+00  0.00000000E+00
  0.00000000E+00  0.00000000E+00  0.00000000E+00
  0.00000000E+00  0.00000000E+00  0.00000000E+00
  0.00000000E+00  0.00000000E+00  0.00000000E+00
  0.00000000E+00  0.00000000E+00  0.00000000E+00
  0.00000000E+00  0.00000000E+00  0.00000000E+00
  0.00000000E+00  0.00000000E+00  0.00000000E+00
  0.00000000E+00  0.00000000E+00  0.00000000E+00
  0.00000000E+00  0.00000000E+00  0.00000000E+00
  0.00000000E+00  0.00000000E+00  0.00000000E+00
  0.00000000E+00  0.00000000E+00  0.00000000E+00
  0.00000000E+00  0.00000000E+00  0.00000000E+00
  0.00000000E+00  0.00000000E+00  0.00000000E+00
  0.00000000E+00  0.00000000E+00  0.00000000E+00
  0.00000000E+00  0.00000000E+00  0.00000000E+00
  0.00000000E+00  0.00000000E+00  0.00000000E+00
  0.00000000E+00  0.00000000E+00  0.00000000E+00
  0.00000000E+00  0.00000000E+00  0.00000000E+00
  0.00000000E+00  0.00000000E+00  0.00000000E+00
  0.00000000E+00  0.00000000E+00  0.00000000E+00
  0.00000000E+00  0.00000000E+00  0.00000000E+00
  0.00000000E+00  0.00000000E+00  0.00000000E+00
  0.00000000E+00  0.00000000E+00  0.00000000E+00
  0.00000000E+00  0.00000000E+00  0.00000000E+00
  0.00000000E+00  0.00000000E+00  0.00000000E+00
  0.00000000E+00  0.00000000E+00  0.00000000E+00
  0.00000000E+00  0.00000000E+00  0.00000000E+00
  0.00000000E+00  0.00000000E+00  0.00000000E+00
  0.00000000E+00  0.00000000E+00  0.00000000E+00
  0.00000000E+00  0.00000000E+00  0.00000000E+00
  0.00000000E+00  0.00000000E+00  0.00000000E+00
  0.00000000E+00  0.00000000E+00  0.00000000E+00
  0.00000000E+00  0.00000000E+00  0.00000000E+00
  0.00000000E+00  0.00000000E+00  0.00000000E+00
  0.00000000E+00  0.00000000E+00  0.00000000E+00
  0.00000000E+00  0.00000000E+00  0.00000000E+00
  0.00000000E+00  0.00000000E+00  0.00000000E+00
  0.00000000E+00  0.00000000E+00  0.00000000E+00
  0.00000000E+00  0.00000000E+00  0.00000000E+00
  0.00000000E+00  0.00000000E+00  0.00000000E+00
  0.00000000E+00  0.00000000E+00  0.00000000E+00
  0.00000000E+00  0.00000000E+00  0.00000000E+00
  0.00000000E+00  0.00000000E+00  0.00000000E+00
  0.00000000E+00  0.00000000E+00  0.00000000E+00
  0.00000000E+00  0.00000000E+00  0.00000000E+00
  0.00000000E+00  0.00000000E+00  0.00000000E+00
  0.00000000E+00  0.00000000E+00  0.00000000E+00
  0.00000000E+00  0.00000000E+00  0.00000000E+00
  0.00000000E+00  0.00000000E+00  0.00000000E+00
  0.00000000E+00  0.00000000E+00  0.00000000E+00
  0.00000000E+00  0.00000000E+00  0.00000000E+00
  0.00000000E+00  0.00000000E+00  0.00000000E+00
  0.00000000E+00  0.00000000E+00  0.00000000E+00
  0.00000000E+00  0.00000000E+00  0.00000000E+00
  0.00000000E+00  0.00000000E+00  0.00000000E+00
  0.00000000E+00  0.00000000E+00  0.00000000E+00
  0.00000000E+00  0.00000000E+00  0.00000000E+00
  0.00000000E+00  0.00000000E+00  0.00000000E+00
  0.00000000E+00  0.00000000E+00  0.00000000E+00
  0.00000000E+00  0.00000000E+00  0.00000000E+00
  0.00000000E+00  0.00000000E+00  0.00000000E+00
  0.00000000E+00  0.00000000E+00  0.00000000E+00
  0.00000000E+00  0.00000000E+00  0.00000000E+00
  0.00000000E+00  0.00000000E+00  0.00000000E+00
  0.00000000E+00  0.00000000E+00  0.00000000E+00
  0.00000000E+00  0.00000000E+00  0.00000000E+00
  0.00000000E+00  0.00000000E+00  0.00000000E+00
  0.00000000E+00  0.00000000E+00  0.00000000E+00
  0.00000000E+00  0.00000000E+00  0.00000000E+00
  0.00000000E+00  0.00000000E+00  0.00000000E+00
  0.00000000E+00  0.00000000E+00  0.00000000E+00
  0.00000000E+00  0.00000000E+00  0.00000000E+00
  0.00000000E+00  0.00000000E+00  0.00000000E+00
  0.00000000E+00  0.00000000E+00  0.00000000E+00
  0.00000000E+00  0.00000000E+00  0.00000000E+00
