Generated by VASPKIT code               
   1.00000000000000     
     9.5029000000000003    0.0000000000000000    0.0000000000000000
     0.0000000000000000   13.4327000000000005    0.0000000000000000
     0.0000000000000000    0.0000000000000000   26.1938999999999993
   Mo   Nb   O 
   105     2     1
Selective dynamics
Direct
  0.5000360094992704 -0.0004209277732229  0.3417743606204144   T   T   T
  0.5000000000000000  0.1666700000000034  0.2564100000000025   F   F   F
  0.6666700000000034  0.1666700000000034  0.0000000000000000   F   F   F
  0.5000000000000000  0.1666700000000034  0.0854700000000008   F   F   F
  0.6666700000000034  0.1666700000000034  0.1709400000000016   F   F   F
  0.6666700000000034  0.0000000000000000  0.0854700000000008   F   F   F
  0.6657068495583992  0.1661097308691300  0.3417270445733303   T   T   T
  0.5000426396692500  0.1673977907391987  0.4229223116513173   T   T   T
  0.8333299999999966  0.3333299999999966  0.0000000000000000   F   F   F
  0.6666700000000034  0.3333299999999966  0.2564100000000025   F   F   F
  0.8342073701103404  0.8335712572443638  0.4233040438043358   T   T   T
  0.3331319571728397  0.5017300253759832  0.3434051706896035   T   T   T
  0.8333299999999966  0.6666700000000034  0.0000000000000000   F   F   F
  0.6666700000000034  0.6666700000000034  0.2564100000000025   F   F   F
  0.6668489257494136  0.8318998035598992  0.3431082173156295   T   T   T
  0.8333299999999966  0.8333299999999966  0.2564100000000025   F   F   F
  0.8342494368092126  0.6669362866810311  0.3412037556229681   T   T   T
  0.8333299999999966  0.8333299999999966  0.0854700000000008   F   F   F
  0.8333299999999966  0.6666700000000034  0.1709400000000016   F   F   F
  0.6713081348538938  0.3299352092829114  0.4218636985264859   T   T   T
  0.8333299999999966  0.3333299999999966  0.1709400000000016   F   F   F
  0.6666700000000034  0.5000000000000000  0.1709400000000016   F   F   F
  0.6666700000000034  0.3333299999999966  0.0854700000000008   F   F   F
  0.6669381914975450  0.5017313089709965  0.3434059429831091   T   T   T
  0.1659520673837628  0.8335639400979776  0.4233048512061310   T   T   T
  0.6666700000000034  0.5000000000000000  0.0000000000000000   F   F   F
  0.3332349703013985  0.8318999624601288  0.3431087846808434   T   T   T
  0.1666700000000034  0.6666700000000034  0.0000000000000000   F   F   F
  0.1658396066883411  0.6669386262478186  0.3412046534931085   T   T   T
  0.1666700000000034  0.5000000000000000  0.0854700000000008   F   F   F
  0.1666700000000034  0.3333299999999966  0.1709400000000016   F   F   F
  0.0000000000000000  0.3333299999999966  0.2564100000000025   F   F   F
  0.0000375364869917  0.4989722092280441  0.3427468110760316   T   T   T
  0.1666700000000034  0.5000000000000000  0.2564100000000025   F   F   F
  0.1678593833866246  0.3323880561996879  0.3419802795237727   T   T   T
  0.3333299999999966  0.8333299999999966  0.1709400000000016   F   F   F
  0.1666700000000034  0.8333299999999966  0.2564100000000025   F   F   F
  0.1666700000000034  0.6666700000000034  0.1709400000000016   F   F   F
  0.3333299999999966  0.6666700000000034  0.2564100000000025   F   F   F
  0.3333299999999966  0.0000000000000000  0.0854700000000008   F   F   F
  0.3333299999999966  0.6666700000000034  0.0854700000000008   F   F   F
  0.3333299999999966  0.8333299999999966  0.0000000000000000   F   F   F
  0.1666700000000034  0.8333299999999966  0.0854700000000008   F   F   F
  0.1666173863711823  0.1686010267872201  0.4234702238426884   T   T   T
  0.3333299999999966  0.1666700000000034  0.0000000000000000   F   F   F
  0.0000000000000000  0.6666700000000034  0.2564100000000025   F   F   F
  0.8321830238317787  0.3323902065562887  0.3419803979469713   T   T   T
  0.6666700000000034  0.8333299999999966  0.0000000000000000   F   F   F
  0.5000000000000000  0.0000000000000000  0.0000000000000000   F   F   F
  0.3333299999999966  0.1666700000000034  0.1709400000000016   F   F   F
  0.1666700000000034  0.1666700000000034  0.2564100000000025   F   F   F
  0.3343419539739188  0.1661097890946949  0.3417260512074707   T   T   T
  0.3333299999999966  0.0000000000000000  0.2564100000000025   F   F   F
  0.1671743889576958  0.0002029927299515  0.3425539209737444   T   T   T
  0.3350973731831640  0.0008949522115469  0.4231353034577380   T   T   T
  0.1666700000000034  0.1666700000000034  0.0854700000000008   F   F   F
  0.1666700000000034  0.0000000000000000  0.1709400000000016   F   F   F
  0.0000000000000000  0.3333299999999966  0.0854700000000008   F   F   F
  0.6666700000000034  0.8333299999999966  0.1709400000000016   F   F   F
  0.1666700000000034  0.0000000000000000  0.0000000000000000   F   F   F
  0.0000000000000000  0.1666700000000034  0.0000000000000000   F   F   F
  0.0000000000000000  0.0000000000000000  0.0854700000000008   F   F   F
  0.0000000000000000  0.1666700000000034  0.1709400000000016   F   F   F
  0.5000000000000000  0.6666700000000034  0.0000000000000000   F   F   F
  0.5000000000000000  0.8333299999999966  0.0854700000000008   F   F   F
  0.0000587571095965  0.0003928789481896  0.4230842997907655   T   T   T
  0.0000262762876121  0.1670112368605836  0.3419984680450933   T   T   T
  0.0000000000000000  0.8333299999999966  0.0000000000000000   F   F   F
  0.0000928944216082  0.6680557824144308  0.4230209081241934   T   T   T
  0.0000000000000000  0.8333299999999966  0.1709400000000016   F   F   F
  0.8333299999999966  0.5000000000000000  0.2564100000000025   F   F   F
  0.0000447433711621  0.8326664392364161  0.3420525796897465   T   T   T
  0.8383496580329988  0.4974362361037123  0.4218503726126177   T   T   T
  0.0000000000000000  0.0000000000000000  0.2564100000000025   F   F   F
  0.0000000000000000  0.6666700000000034  0.0854700000000008   F   F   F
  0.3333299999999966  0.3333299999999966  0.2564100000000025   F   F   F
  0.8334629579817543  0.1686106260304324  0.4234698681564756   T   T   T
  0.8333299999999966  0.0000000000000000  0.0000000000000000   F   F   F
  0.6650110866111874  0.0008940065466633  0.4231344065485896   T   T   T
  0.8333299999999966  0.0000000000000000  0.1709400000000016   F   F   F
  0.8328865884101364  0.0002045605670630  0.3425539982715833   T   T   T
  0.8333299999999966  0.1666700000000034  0.2564100000000025   F   F   F
  0.0000000000000000  0.5000000000000000  0.0000000000000000   F   F   F
  0.8333299999999966  0.1666700000000034  0.0854700000000008   F   F   F
  0.0000000000000000  0.5000000000000000  0.1709400000000016   F   F   F
  0.3333299999999966  0.5000000000000000  0.0000000000000000   F   F   F
  0.1617721115486180  0.4974365833096404  0.4218468163630060   T   T   T
  0.6666700000000034  0.6666700000000034  0.0854700000000008   F   F   F
  0.6666700000000034  0.0000000000000000  0.2564100000000025   F   F   F
  0.5000803210364001  0.8363699098684576  0.4248020722280403   T   T   T
  0.5000455251763849  0.6648382780168736  0.3422454212604606   T   T   T
  0.5000000000000000  0.8333299999999966  0.2564100000000025   F   F   F
  0.5000000000000000  0.6666700000000034  0.1709400000000016   F   F   F
  0.1666700000000034  0.3333299999999966  0.0000000000000000   F   F   F
  0.0000342803187850  0.3290325576308240  0.4232210084498179   T   T   T
  0.8333299999999966  0.5000000000000000  0.0854700000000008   F   F   F
  0.5000000000000000  0.0000000000000000  0.1709400000000016   F   F   F
  0.5000000000000000  0.3333299999999966  0.1709400000000016   F   F   F
  0.5000000000000000  0.5000000000000000  0.0854700000000008   F   F   F
  0.3333299999999966  0.5000000000000000  0.1709400000000016   F   F   F
  0.3333299999999966  0.3333299999999966  0.0854700000000008   F   F   F
  0.5000267945967426  0.3366301859879239  0.3427275302206441   T   T   T
  0.5000000000000000  0.5000000000000000  0.2564100000000025   F   F   F
  0.5000000000000000  0.3333299999999966  0.0000000000000000   F   F   F
  0.3287590710556612  0.3299348778593594  0.4218632389378738   T   T   T
  0.3318771842420636  0.6664509003613127  0.4294365964550245   T   T   T
  0.6683329930545857  0.6664539220989538  0.4294338826206796   T   T   T
  0.5001103929849747  0.7023086664886095  0.4723221012031638   T   T   T
 
  0.00000000E+00  0.00000000E+00  0.00000000E+00
  0.00000000E+00  0.00000000E+00  0.00000000E+00
  0.00000000E+00  0.00000000E+00  0.00000000E+00
  0.00000000E+00  0.00000000E+00  0.00000000E+00
  0.00000000E+00  0.00000000E+00  0.00000000E+00
  0.00000000E+00  0.00000000E+00  0.00000000E+00
  0.00000000E+00  0.00000000E+00  0.00000000E+00
  0.00000000E+00  0.00000000E+00  0.00000000E+00
  0.00000000E+00  0.00000000E+00  0.00000000E+00
  0.00000000E+00  0.00000000E+00  0.00000000E+00
  0.00000000E+00  0.00000000E+00  0.00000000E+00
  0.00000000E+00  0.00000000E+00  0.00000000E+00
  0.00000000E+00  0.00000000E+00  0.00000000E+00
  0.00000000E+00  0.00000000E+00  0.00000000E+00
  0.00000000E+00  0.00000000E+00  0.00000000E+00
  0.00000000E+00  0.00000000E+00  0.00000000E+00
  0.00000000E+00  0.00000000E+00  0.00000000E+00
  0.00000000E+00  0.00000000E+00  0.00000000E+00
  0.00000000E+00  0.00000000E+00  0.00000000E+00
  0.00000000E+00  0.00000000E+00  0.00000000E+00
  0.00000000E+00  0.00000000E+00  0.00000000E+00
  0.00000000E+00  0.00000000E+00  0.00000000E+00
  0.00000000E+00  0.00000000E+00  0.00000000E+00
  0.00000000E+00  0.00000000E+00  0.00000000E+00
  0.00000000E+00  0.00000000E+00  0.00000000E+00
  0.00000000E+00  0.00000000E+00  0.00000000E+00
  0.00000000E+00  0.00000000E+00  0.00000000E+00
  0.00000000E+00  0.00000000E+00  0.00000000E+00
  0.00000000E+00  0.00000000E+00  0.00000000E+00
  0.00000000E+00  0.00000000E+00  0.00000000E+00
  0.00000000E+00  0.00000000E+00  0.00000000E+00
  0.00000000E+00  0.00000000E+00  0.00000000E+00
  0.00000000E+00  0.00000000E+00  0.00000000E+00
  0.00000000E+00  0.00000000E+00  0.00000000E+00
  0.00000000E+00  0.00000000E+00  0.00000000E+00
  0.00000000E+00  0.00000000E+00  0.00000000E+00
  0.00000000E+00  0.00000000E+00  0.00000000E+00
  0.00000000E+00  0.00000000E+00  0.00000000E+00
  0.00000000E+00  0.00000000E+00  0.00000000E+00
  0.00000000E+00  0.00000000E+00  0.00000000E+00
  0.00000000E+00  0.00000000E+00  0.00000000E+00
  0.00000000E+00  0.00000000E+00  0.00000000E+00
  0.00000000E+00  0.00000000E+00  0.00000000E+00
  0.00000000E+00  0.00000000E+00  0.00000000E+00
  0.00000000E+00  0.00000000E+00  0.00000000E+00
  0.00000000E+00  0.00000000E+00  0.00000000E+00
  0.00000000E+00  0.00000000E+00  0.00000000E+00
  0.00000000E+00  0.00000000E+00  0.00000000E+00
  0.00000000E+00  0.00000000E+00  0.00000000E+00
  0.00000000E+00  0.00000000E+00  0.00000000E+00
  0.00000000E+00  0.00000000E+00  0.00000000E+00
  0.00000000E+00  0.00000000E+00  0.00000000E+00
  0.00000000E+00  0.00000000E+00  0.00000000E+00
  0.00000000E+00  0.00000000E+00  0.00000000E+00
  0.00000000E+00  0.00000000E+00  0.00000000E+00
  0.00000000E+00  0.00000000E+00  0.00000000E+00
  0.00000000E+00  0.00000000E+00  0.00000000E+00
  0.00000000E+00  0.00000000E+00  0.00000000E+00
  0.00000000E+00  0.00000000E+00  0.00000000E+00
  0.00000000E+00  0.00000000E+00  0.00000000E+00
  0.00000000E+00  0.00000000E+00  0.00000000E+00
  0.00000000E+00  0.00000000E+00  0.00000000E+00
  0.00000000E+00  0.00000000E+00  0.00000000E+00
  0.00000000E+00  0.00000000E+00  0.00000000E+00
  0.00000000E+00  0.00000000E+00  0.00000000E+00
  0.00000000E+00  0.00000000E+00  0.00000000E+00
  0.00000000E+00  0.00000000E+00  0.00000000E+00
  0.00000000E+00  0.00000000E+00  0.00000000E+00
  0.00000000E+00  0.00000000E+00  0.00000000E+00
  0.00000000E+00  0.00000000E+00  0.00000000E+00
  0.00000000E+00  0.00000000E+00  0.00000000E+00
  0.00000000E+00  0.00000000E+00  0.00000000E+00
  0.00000000E+00  0.00000000E+00  0.00000000E+00
  0.00000000E+00  0.00000000E+00  0.00000000E+00
  0.00000000E+00  0.00000000E+00  0.00000000E+00
  0.00000000E+00  0.00000000E+00  0.00000000E+00
  0.00000000E+00  0.00000000E+00  0.00000000E+00
  0.00000000E+00  0.00000000E+00  0.00000000E+00
  0.00000000E+00  0.00000000E+00  0.00000000E+00
  0.00000000E+00  0.00000000E+00  0.00000000E+00
  0.00000000E+00  0.00000000E+00  0.00000000E+00
  0.00000000E+00  0.00000000E+00  0.00000000E+00
  0.00000000E+00  0.00000000E+00  0.00000000E+00
  0.00000000E+00  0.00000000E+00  0.00000000E+00
  0.00000000E+00  0.00000000E+00  0.00000000E+00
  0.00000000E+00  0.00000000E+00  0.00000000E+00
  0.00000000E+00  0.00000000E+00  0.00000000E+00
  0.00000000E+00  0.00000000E+00  0.00000000E+00
  0.00000000E+00  0.00000000E+00  0.00000000E+00
  0.00000000E+00  0.00000000E+00  0.00000000E+00
  0.00000000E+00  0.00000000E+00  0.00000000E+00
  0.00000000E+00  0.00000000E+00  0.00000000E+00
  0.00000000E+00  0.00000000E+00  0.00000000E+00
  0.00000000E+00  0.00000000E+00  0.00000000E+00
  0.00000000E+00  0.00000000E+00  0.00000000E+00
  0.00000000E+00  0.00000000E+00  0.00000000E+00
  0.00000000E+00  0.00000000E+00  0.00000000E+00
  0.00000000E+00  0.00000000E+00  0.00000000E+00
  0.00000000E+00  0.00000000E+00  0.00000000E+00
  0.00000000E+00  0.00000000E+00  0.00000000E+00
  0.00000000E+00  0.00000000E+00  0.00000000E+00
  0.00000000E+00  0.00000000E+00  0.00000000E+00
  0.00000000E+00  0.00000000E+00  0.00000000E+00
  0.00000000E+00  0.00000000E+00  0.00000000E+00
  0.00000000E+00  0.00000000E+00  0.00000000E+00
  0.00000000E+00  0.00000000E+00  0.00000000E+00
  0.00000000E+00  0.00000000E+00  0.00000000E+00
  0.00000000E+00  0.00000000E+00  0.00000000E+00
