  63  63   0   0
  0.3508955E+02  0.9498400E-09  0.9498400E-09  0.2450290E-08  0.5000000E-15
  1.000000000000000E-004
  CAR 
 ni3al                                   
      8.79844106    -60.90281180  301      3.48020065      1.00000000
    -60.903  0.0000E+00  0.0000E+00
    -60.670  0.0000E+00  0.0000E+00
    -60.438  0.0000E+00  0.0000E+00
    -60.206  0.0000E+00  0.0000E+00
    -59.973  0.0000E+00  0.0000E+00
    -59.741  0.0000E+00  0.0000E+00
    -59.509  0.0000E+00  0.0000E+00
    -59.276  0.0000E+00  0.0000E+00
    -59.044  0.0000E+00  0.0000E+00
    -58.812  0.0000E+00  0.0000E+00
    -58.579 -0.1131E-32 -0.2627E-33
    -58.347 -0.5786E-18 -0.1344E-18
    -58.115 -0.5770E-08 -0.1341E-08
    -57.882 -0.1138E-02 -0.2644E-03
    -57.650  0.1141E+00  0.2625E-01
    -57.418  0.9148E+00  0.2388E+00
    -57.185  0.6335E+00  0.3860E+00
    -56.953  0.6052E-01  0.4000E+00
    -56.721 -0.1769E-03  0.4000E+00
    -56.488 -0.1773E-10  0.4000E+00
    -56.256  0.0000E+00  0.4000E+00
    -56.024  0.0000E+00  0.4000E+00
    -55.791  0.0000E+00  0.4000E+00
    -55.559  0.0000E+00  0.4000E+00
    -55.327  0.0000E+00  0.4000E+00
    -55.094  0.0000E+00  0.4000E+00
    -54.862  0.0000E+00  0.4000E+00
    -54.630  0.0000E+00  0.4000E+00
    -54.397  0.0000E+00  0.4000E+00
    -54.165  0.0000E+00  0.4000E+00
    -53.933  0.0000E+00  0.4000E+00
    -53.700  0.0000E+00  0.4000E+00
    -53.468  0.0000E+00  0.4000E+00
    -53.236  0.0000E+00  0.4000E+00
    -53.003  0.0000E+00  0.4000E+00
    -52.771 -0.2725E-42  0.4000E+00
    -52.539 -0.5590E-25  0.4000E+00
    -52.306 -0.2088E-12  0.4000E+00
    -52.074 -0.1242E-04  0.4000E+00
    -51.842  0.6746E-02  0.4016E+00
    -51.609  0.5149E-01  0.4135E+00
    -51.377 -0.8331E-03  0.4133E+00
    -51.145 -0.2729E-08  0.4133E+00
    -50.912  0.0000E+00  0.4133E+00
    -50.680  0.0000E+00  0.4133E+00
    -50.448  0.0000E+00  0.4133E+00
    -50.215  0.0000E+00  0.4133E+00
    -49.983  0.0000E+00  0.4133E+00
    -49.751  0.0000E+00  0.4133E+00
    -49.518  0.0000E+00  0.4133E+00
    -49.286  0.0000E+00  0.4133E+00
    -49.054  0.0000E+00  0.4133E+00
    -48.821  0.0000E+00  0.4133E+00
    -48.589  0.0000E+00  0.4133E+00
    -48.357  0.0000E+00  0.4133E+00
    -48.124  0.0000E+00  0.4133E+00
    -47.892  0.0000E+00  0.4133E+00
    -47.660  0.0000E+00  0.4133E+00
    -47.427  0.0000E+00  0.4133E+00
    -47.195  0.0000E+00  0.4133E+00
    -46.963  0.0000E+00  0.4133E+00
    -46.730  0.0000E+00  0.4133E+00
    -46.498  0.0000E+00  0.4133E+00
    -46.266  0.0000E+00  0.4133E+00
    -46.033  0.0000E+00  0.4133E+00
    -45.801  0.0000E+00  0.4133E+00
    -45.569  0.0000E+00  0.4133E+00
    -45.336  0.0000E+00  0.4133E+00
    -45.104  0.0000E+00  0.4133E+00
    -44.872  0.0000E+00  0.4133E+00
    -44.639  0.0000E+00  0.4133E+00
    -44.407  0.0000E+00  0.4133E+00
    -44.175  0.0000E+00  0.4133E+00
    -43.942  0.0000E+00  0.4133E+00
    -43.710  0.0000E+00  0.4133E+00
    -43.477  0.0000E+00  0.4133E+00
    -43.245  0.0000E+00  0.4133E+00
    -43.013  0.0000E+00  0.4133E+00
    -42.780  0.0000E+00  0.4133E+00
    -42.548  0.0000E+00  0.4133E+00
    -42.316  0.0000E+00  0.4133E+00
    -42.083  0.0000E+00  0.4133E+00
    -41.851  0.0000E+00  0.4133E+00
    -41.619  0.0000E+00  0.4133E+00
    -41.386  0.0000E+00  0.4133E+00
    -41.154  0.0000E+00  0.4133E+00
    -40.922  0.0000E+00  0.4133E+00
    -40.689  0.0000E+00  0.4133E+00
    -40.457  0.0000E+00  0.4133E+00
    -40.225  0.0000E+00  0.4133E+00
    -39.992  0.0000E+00  0.4133E+00
    -39.760  0.0000E+00  0.4133E+00
    -39.528  0.0000E+00  0.4133E+00
    -39.295  0.0000E+00  0.4133E+00
    -39.063  0.0000E+00  0.4133E+00
    -38.831  0.0000E+00  0.4133E+00
    -38.598  0.0000E+00  0.4133E+00
    -38.366  0.0000E+00  0.4133E+00
    -38.134  0.0000E+00  0.4133E+00
    -37.901  0.0000E+00  0.4133E+00
    -37.669  0.0000E+00  0.4133E+00
    -37.437  0.0000E+00  0.4133E+00
    -37.204  0.0000E+00  0.4133E+00
    -36.972  0.0000E+00  0.4133E+00
    -36.740  0.0000E+00  0.4133E+00
    -36.507  0.0000E+00  0.4133E+00
    -36.275  0.0000E+00  0.4133E+00
    -36.043  0.0000E+00  0.4133E+00
    -35.810  0.0000E+00  0.4133E+00
    -35.578  0.0000E+00  0.4133E+00
    -35.346  0.0000E+00  0.4133E+00
    -35.113  0.0000E+00  0.4133E+00
    -34.881  0.0000E+00  0.4133E+00
    -34.649  0.0000E+00  0.4133E+00
    -34.416  0.0000E+00  0.4133E+00
    -34.184  0.0000E+00  0.4133E+00
    -33.952  0.0000E+00  0.4133E+00
    -33.719  0.0000E+00  0.4133E+00
    -33.487  0.0000E+00  0.4133E+00
    -33.255 -0.4787E-37  0.4133E+00
    -33.022 -0.3752E-21  0.4133E+00
    -32.790 -0.5892E-10  0.4133E+00
    -32.558 -0.1850E-03  0.4133E+00
    -32.325  0.3223E-01  0.4208E+00
    -32.093  0.6082E+00  0.5621E+00
    -31.861  0.6798E+00  0.7200E+00
    -31.628  0.7398E+00  0.8919E+00
    -31.396  0.9381E+00  0.1110E+01
    -31.164  0.1079E+01  0.1360E+01
    -30.931  0.1031E+01  0.1600E+01
    -30.699  0.5745E-01  0.1613E+01
    -30.467 -0.3636E-03  0.1613E+01
    -30.234 -0.1157E-09  0.1613E+01
    -30.002  0.0000E+00  0.1613E+01
    -29.770  0.0000E+00  0.1613E+01
    -29.537  0.0000E+00  0.1613E+01
    -29.305  0.0000E+00  0.1613E+01
    -29.073  0.0000E+00  0.1613E+01
    -28.840 -0.6879E-33  0.1613E+01
    -28.608 -0.4824E-18  0.1613E+01
    -28.376 -0.5801E-08  0.1613E+01
    -28.143 -0.8981E-03  0.1613E+01
    -27.911  0.5627E-01  0.1626E+01
    -27.679  0.1112E+00  0.1652E+01
    -27.446  0.5574E-02  0.1653E+01
    -27.214 -0.1186E-04  0.1653E+01
    -26.982 -0.1887E-12  0.1653E+01
    -26.749  0.0000E+00  0.1653E+01
    -26.517  0.0000E+00  0.1653E+01
    -26.285  0.0000E+00  0.1653E+01
    -26.052  0.0000E+00  0.1653E+01
    -25.820  0.0000E+00  0.1653E+01
    -25.588  0.0000E+00  0.1653E+01
    -25.355  0.0000E+00  0.1653E+01
    -25.123  0.0000E+00  0.1653E+01
    -24.890  0.0000E+00  0.1653E+01
    -24.658  0.0000E+00  0.1653E+01
    -24.426  0.0000E+00  0.1653E+01
    -24.193  0.0000E+00  0.1653E+01
    -23.961  0.0000E+00  0.1653E+01
    -23.729  0.0000E+00  0.1653E+01
    -23.496  0.0000E+00  0.1653E+01
    -23.264  0.0000E+00  0.1653E+01
    -23.032  0.0000E+00  0.1653E+01
    -22.799  0.0000E+00  0.1653E+01
    -22.567  0.0000E+00  0.1653E+01
    -22.335  0.0000E+00  0.1653E+01
    -22.102  0.0000E+00  0.1653E+01
    -21.870  0.0000E+00  0.1653E+01
    -21.638  0.0000E+00  0.1653E+01
    -21.405  0.0000E+00  0.1653E+01
    -21.173  0.0000E+00  0.1653E+01
    -20.941  0.0000E+00  0.1653E+01
    -20.708  0.0000E+00  0.1653E+01
    -20.476  0.0000E+00  0.1653E+01
    -20.244  0.0000E+00  0.1653E+01
    -20.011  0.0000E+00  0.1653E+01
    -19.779  0.0000E+00  0.1653E+01
    -19.547  0.0000E+00  0.1653E+01
    -19.314  0.0000E+00  0.1653E+01
    -19.082  0.0000E+00  0.1653E+01
    -18.850  0.0000E+00  0.1653E+01
    -18.617  0.0000E+00  0.1653E+01
    -18.385  0.0000E+00  0.1653E+01
    -18.153  0.0000E+00  0.1653E+01
    -17.920  0.0000E+00  0.1653E+01
    -17.688  0.0000E+00  0.1653E+01
    -17.456  0.0000E+00  0.1653E+01
    -17.223  0.0000E+00  0.1653E+01
    -16.991 -0.4860E-29  0.1653E+01
    -16.759 -0.2643E-15  0.1653E+01
    -16.526 -0.2393E-06  0.1653E+01
    -16.294 -0.9012E-03  0.1653E+01
    -16.062  0.3061E-01  0.1660E+01
    -15.829 -0.1015E-02  0.1660E+01
    -15.597 -0.7835E-07  0.1660E+01
    -15.365  0.0000E+00  0.1660E+01
    -15.132  0.0000E+00  0.1660E+01
    -14.900  0.0000E+00  0.1660E+01
    -14.668  0.0000E+00  0.1660E+01
    -14.435  0.0000E+00  0.1660E+01
    -14.203  0.0000E+00  0.1660E+01
    -13.971  0.0000E+00  0.1660E+01
    -13.738  0.0000E+00  0.1660E+01
    -13.506  0.0000E+00  0.1660E+01
    -13.274  0.0000E+00  0.1660E+01
    -13.041  0.0000E+00  0.1660E+01
    -12.809  0.0000E+00  0.1660E+01
    -12.577  0.0000E+00  0.1660E+01
    -12.344  0.0000E+00  0.1660E+01
    -12.112  0.0000E+00  0.1660E+01
    -11.880  0.0000E+00  0.1660E+01
    -11.647  0.0000E+00  0.1660E+01
    -11.415  0.0000E+00  0.1660E+01
    -11.183  0.0000E+00  0.1660E+01
    -10.950  0.0000E+00  0.1660E+01
    -10.718  0.0000E+00  0.1660E+01
    -10.486  0.0000E+00  0.1660E+01
    -10.253  0.0000E+00  0.1660E+01
    -10.021  0.0000E+00  0.1660E+01
     -9.789  0.0000E+00  0.1660E+01
     -9.556  0.0000E+00  0.1660E+01
     -9.324  0.0000E+00  0.1660E+01
     -9.092  0.0000E+00  0.1660E+01
     -8.859  0.0000E+00  0.1660E+01
     -8.627  0.0000E+00  0.1660E+01
     -8.395  0.0000E+00  0.1660E+01
     -8.162  0.0000E+00  0.1660E+01
     -7.930  0.0000E+00  0.1660E+01
     -7.698  0.0000E+00  0.1660E+01
     -7.465  0.0000E+00  0.1660E+01
     -7.233  0.0000E+00  0.1660E+01
     -7.001  0.0000E+00  0.1660E+01
     -6.768  0.0000E+00  0.1660E+01
     -6.536  0.0000E+00  0.1660E+01
     -6.303  0.0000E+00  0.1660E+01
     -6.071  0.0000E+00  0.1660E+01
     -5.839  0.0000E+00  0.1660E+01
     -5.606  0.0000E+00  0.1660E+01
     -5.374  0.0000E+00  0.1660E+01
     -5.142  0.0000E+00  0.1660E+01
     -4.909  0.0000E+00  0.1660E+01
     -4.677  0.0000E+00  0.1660E+01
     -4.445  0.0000E+00  0.1660E+01
     -4.212 -0.7720E-42  0.1660E+01
     -3.980 -0.5506E-25  0.1660E+01
     -3.748 -0.6924E-13  0.1660E+01
     -3.515 -0.1298E-05  0.1660E+01
     -3.283  0.3390E-03  0.1660E+01
     -3.051  0.8900E-02  0.1662E+01
     -2.818  0.3630E-01  0.1671E+01
     -2.586  0.2360E-01  0.1676E+01
     -2.354  0.5535E-01  0.1689E+01
     -2.121  0.1135E-01  0.1692E+01
     -1.889  0.3254E-01  0.1699E+01
     -1.657  0.2711E-01  0.1705E+01
     -1.424  0.4403E-01  0.1716E+01
     -1.192  0.1660E+00  0.1754E+01
     -0.960  0.1529E+00  0.1790E+01
     -0.727  0.2669E+00  0.1852E+01
     -0.495  0.1706E+00  0.1891E+01
     -0.263  0.2406E+00  0.1947E+01
     -0.030  0.2434E+00  0.2004E+01
      0.202  0.2396E+00  0.2059E+01
      0.434  0.2981E+00  0.2129E+01
      0.667  0.3820E+00  0.2218E+01
      0.899  0.3277E+00  0.2294E+01
      1.131  0.2624E+00  0.2355E+01
      1.364  0.2409E+00  0.2411E+01
      1.596  0.2957E+00  0.2479E+01
      1.828  0.2525E+00  0.2538E+01
      2.061  0.3099E+00  0.2610E+01
      2.293  0.2487E+00  0.2668E+01
      2.525  0.1990E+00  0.2714E+01
      2.758  0.1639E+00  0.2752E+01
      2.990  0.2352E+00  0.2807E+01
      3.222  0.2216E+00  0.2858E+01
      3.455  0.1927E+00  0.2903E+01
      3.687  0.1830E+00  0.2945E+01
      3.919  0.1951E+00  0.2991E+01
      4.152  0.2368E+00  0.3046E+01
      4.384  0.2133E+00  0.3095E+01
      4.616  0.2796E+00  0.3160E+01
      4.849  0.3543E+00  0.3243E+01
      5.081  0.3582E+00  0.3326E+01
      5.313  0.3740E+00  0.3413E+01
      5.546  0.2921E+00  0.3481E+01
      5.778  0.2622E-01  0.3487E+01
      6.010 -0.1668E-03  0.3487E+01
      6.243 -0.1012E-08  0.3487E+01
      6.475  0.0000E+00  0.3487E+01
      6.707  0.0000E+00  0.3487E+01
      6.940  0.0000E+00  0.3487E+01
      7.172  0.0000E+00  0.3487E+01
      7.404  0.0000E+00  0.3487E+01
      7.637  0.0000E+00  0.3487E+01
      7.869  0.0000E+00  0.3487E+01
      8.101  0.0000E+00  0.3487E+01
      8.334  0.0000E+00  0.3487E+01
      8.566  0.0000E+00  0.3487E+01
      8.798  0.0000E+00  0.3487E+01
