Generated by VASPKIT code
 1.000000
    9.4983997344999995    0.0000000000000000    0.0000000000000000
    0.0000000000000000    9.4983997344999995    0.0000000000000000
    0.0000000000000000    0.0000000000000000   24.5028991699000009
   Mo   Nb   O 
    60     2     1
Selective Dynamics
Direct
    0.0000000000000000    0.0000000000000000    0.0000000000000000    F  F  F            Mo1
    0.9955300000000000    0.9806700000000000    0.3827500000000000    T  T  T            Mo2
    0.1666700000000000    0.1666700000000000    0.0646400000000000    F  F  F            Mo3
    0.3333300000000000    0.0000000000000000    0.0000000000000000    F  F  F            Mo4
    0.3310500000000000    0.0048500000000000    0.3796800000000000    T  T  T            Mo5
    0.5000000000000000    0.1666700000000000    0.0646400000000000    F  F  F            Mo6
    0.6666700000000000    0.0000000000000000    0.0000000000000000    F  F  F            Mo7
    0.6774600000000000    0.0014800000000000    0.3811800000000000    T  T  T            Mo8
    0.8333300000000000    0.1666700000000000    0.0646400000000000    F  F  F            Mo9
    0.0000000000000000    0.3333300000000000    0.0000000000000000    F  F  F           Mo10
    0.1666700000000000    0.5000000000000000    0.0646400000000000    F  F  F           Mo11
    0.3333300000000000    0.3333300000000000    0.0000000000000000    F  F  F           Mo12
    0.5000000000000000    0.5000000000000000    0.0646400000000000    F  F  F           Mo13
    0.6666700000000000    0.3333300000000000    0.0000000000000000    F  F  F           Mo14
    0.8333300000000000    0.5000000000000000    0.0646400000000000    F  F  F           Mo15
    0.0000000000000000    0.6666700000000000    0.0000000000000000    F  F  F           Mo16
    0.9891000000000000    0.6878000000000000    0.3829700000000000    T  T  T           Mo17
    0.1666700000000000    0.8333300000000000    0.0646400000000000    F  F  F           Mo18
    0.3333300000000000    0.6666700000000000    0.0000000000000000    F  F  F           Mo19
    0.5000000000000000    0.8333300000000000    0.0646400000000000    F  F  F           Mo20
    0.6666700000000000    0.6666700000000000    0.0000000000000000    F  F  F           Mo21
    0.6855000000000000    0.6638800000000000    0.3817000000000000    T  T  T           Mo22
    0.8333300000000000    0.8333300000000000    0.0646400000000000    F  F  F           Mo23
    0.0000000000000000    0.0000000000000000    0.1292800000000000    F  F  F           Mo24
    0.1666700000000000    0.1666700000000000    0.1939100000000000    F  F  F           Mo25
    0.3333300000000000    0.0000000000000000    0.1292800000000000    F  F  F           Mo26
    0.5000000000000000    0.1666700000000000    0.1939100000000000    F  F  F           Mo27
    0.6666700000000000    0.0000000000000000    0.1292800000000000    F  F  F           Mo28
    0.8333300000000000    0.1666700000000000    0.1939100000000000    F  F  F           Mo29
    0.0000000000000000    0.3333300000000000    0.1292800000000000    F  F  F           Mo30
    0.1666700000000000    0.5000000000000000    0.1939100000000000    F  F  F           Mo31
    0.3333300000000000    0.3333300000000000    0.1292800000000000    F  F  F           Mo32
    0.5000000000000000    0.5000000000000000    0.1939100000000000    F  F  F           Mo33
    0.6666700000000000    0.3333300000000000    0.1292800000000000    F  F  F           Mo34
    0.8333300000000000    0.5000000000000000    0.1939100000000000    F  F  F           Mo35
    0.0000000000000000    0.6666700000000000    0.1292800000000000    F  F  F           Mo36
    0.1666700000000000    0.8333300000000000    0.1939100000000000    F  F  F           Mo37
    0.3333300000000000    0.6666700000000000    0.1292800000000000    F  F  F           Mo38
    0.5000000000000000    0.8333300000000000    0.1939100000000000    F  F  F           Mo39
    0.6666700000000000    0.6666700000000000    0.1292800000000000    F  F  F           Mo40
    0.8333300000000000    0.8333300000000000    0.1939100000000000    F  F  F           Mo41
    0.0000000000000000    0.0000000000000000    0.2585500000000000    F  F  F           Mo42
    0.1664400000000000    0.1667400000000000    0.3246200000000000    T  T  T           Mo43
    0.3333300000000000    0.0000000000000000    0.2585500000000000    F  F  F           Mo44
    0.4990200000000000    0.1653500000000000    0.3239700000000000    T  T  T           Mo45
    0.6666700000000000    0.0000000000000000    0.2585500000000000    F  F  F           Mo46
    0.8333900000000000    0.1675900000000000    0.3245100000000000    T  T  T           Mo47
    0.0000000000000000    0.3333300000000000    0.2585500000000000    F  F  F           Mo48
    0.1654500000000000    0.4987300000000000    0.3233900000000000    T  T  T           Mo49
    0.3333300000000000    0.3333300000000000    0.2585500000000000    F  F  F           Mo50
    0.4994700000000000    0.5006500000000000    0.3228100000000000    T  T  T           Mo51
    0.6666700000000000    0.3333300000000000    0.2585500000000000    F  F  F           Mo52
    0.8339100000000000    0.4984200000000000    0.3240400000000000    T  T  T           Mo53
    0.0000000000000000    0.6666700000000000    0.2585500000000000    F  F  F           Mo54
    0.1681300000000000    0.8334700000000000    0.3232900000000000    T  T  T           Mo55
    0.3333300000000000    0.6666700000000000    0.2585500000000000    F  F  F           Mo56
    0.4998100000000000    0.8337200000000000    0.3245300000000000    T  T  T           Mo57
    0.6666700000000000    0.6666700000000000    0.2585500000000000    F  F  F           Mo58
    0.8312800000000000    0.8345800000000000    0.3219500000000000    T  T  T           Mo59
    0.0077400000000000    0.3333200000000000    0.3796200000000000    T  T  T           Mo60
    0.6525300000000001    0.3367000000000000    0.3842000000000000    T  T  T            Nb1
    0.3305000000000000    0.6599200000000000    0.3839400000000000    T  T  T            Nb2
    0.5154500000000000    0.5336300000000000    0.4428600000000000    T  T  T             O1
