srun: ROUTE: split_hostlist: hl=b03r3n10 tree_width 0
 running on    4 total cores
 distrk:  each k-point on    1 cores,    4 groups
 distr:  one band on    1 cores,    1 groups
 HIP runtime initialized ...    4 DCUs will be used
 Created    4 streams on each DCU
 vasp.6.3.2 27Jun22 (build Mar 15 2023 15:45:48) complex                        
  
 POSCAR found type information on POSCAR MoNbO 
 POSCAR found :  3 types and      63 ions
 Reading from existing POTCAR
 scaLAPACK will be used selectively (only on CPU)
 Reading from existing POTCAR
 LDA part: xc-table for Pade appr. of Perdew
 POSCAR found type information on POSCAR MoNbO 
 POSCAR found :  3 types and      63 ions
 Optimize memory usage for KPAR
 POSCAR, INCAR and KPOINTS ok, starting setup
 FFT: planning ... GRIDC
 FFT: planning ... GRID_SOFT
 FFT: planning ... GRID
 WAVECAR not read
 entering main loop
       N       E                     dE             d eps       ncg     rms          rms(c)
DAV:   1     0.107416841297E+05    0.10742E+05   -0.55441E+05 12660   0.160E+03
DAV:   2    -0.132014113646E+03   -0.10874E+05   -0.10534E+05 11584   0.507E+02
DAV:   3    -0.667336704619E+03   -0.53532E+03   -0.50213E+03 15008   0.109E+02
DAV:   4    -0.703228223915E+03   -0.35892E+02   -0.34343E+02 14720   0.221E+01
DAV:   5    -0.706957288486E+03   -0.37291E+01   -0.36519E+01 20128   0.596E+00    0.102E+02
DAV:   6    -0.710468175446E+03   -0.35109E+01   -0.42894E+02 14256   0.294E+01    0.654E+01
DAV:   7    -0.734334150871E+03   -0.23866E+02   -0.85425E+02 13037   0.395E+01    0.515E+01
DAV:   8    -0.661948283530E+03    0.72386E+02   -0.17367E+02 13644   0.218E+01    0.258E+01
DAV:   9    -0.650619879317E+03    0.11328E+02   -0.31632E+01 13712   0.950E+00    0.155E+01
DAV:  10    -0.649591157298E+03    0.10287E+01   -0.66772E+00 15080   0.397E+00    0.125E+01
DAV:  11    -0.648999129090E+03    0.59203E+00   -0.18747E+00 13200   0.239E+00    0.107E+01
DAV:  12    -0.648320358289E+03    0.67877E+00   -0.11892E+00 14672   0.205E+00    0.807E+00
DAV:  13    -0.648001701195E+03    0.31866E+00   -0.30160E+00 14520   0.326E+00    0.578E+00
DAV:  14    -0.647562496801E+03    0.43920E+00   -0.31457E+00 13680   0.356E+00    0.300E+00
DAV:  15    -0.647501289168E+03    0.61208E-01   -0.10144E+00 13760   0.215E+00    0.276E+00
DAV:  16    -0.647366331921E+03    0.13496E+00   -0.32272E-01 13520   0.140E+00    0.157E+00
DAV:  17    -0.647321666403E+03    0.44666E-01   -0.15776E-01 14368   0.912E-01    0.105E+00
DAV:  18    -0.647276002635E+03    0.45664E-01   -0.83641E-02 13424   0.615E-01    0.764E-01
DAV:  19    -0.647252065671E+03    0.23937E-01   -0.33469E-02 14104   0.445E-01    0.593E-01
DAV:  20    -0.647199883864E+03    0.52182E-01   -0.24669E-02 13104   0.326E-01    0.558E-01
DAV:  21    -0.647148135255E+03    0.51749E-01   -0.36659E-02 13984   0.398E-01    0.673E-01
DAV:  22    -0.647103011248E+03    0.45124E-01   -0.42860E-02 13632   0.421E-01    0.727E-01
DAV:  23    -0.647056166375E+03    0.46845E-01   -0.23588E-02 13072   0.324E-01    0.515E-01
DAV:  24    -0.647029855304E+03    0.26311E-01   -0.17070E-02 13520   0.255E-01    0.379E-01
DAV:  25    -0.647002735166E+03    0.27120E-01   -0.24143E-02 13112   0.255E-01    0.340E-01
DAV:  26    -0.647004223024E+03   -0.14879E-02   -0.79715E-03 13952   0.190E-01    0.208E-01
DAV:  27    -0.647016541607E+03   -0.12319E-01   -0.73808E-03 13328   0.170E-01    0.230E-01
DAV:  28    -0.647034069652E+03   -0.17528E-01   -0.81997E-03 13080   0.172E-01    0.197E-01
DAV:  29    -0.647046671947E+03   -0.12602E-01   -0.49146E-03 13448   0.132E-01    0.208E-01
DAV:  30    -0.647057656427E+03   -0.10984E-01   -0.37769E-03 13288   0.113E-01    0.151E-01
DAV:  31    -0.647068384978E+03   -0.10729E-01   -0.31327E-03 13384   0.853E-02    0.109E-01
DAV:  32    -0.647072658895E+03   -0.42739E-02   -0.16589E-03 13480   0.631E-02    0.881E-02
DAV:  33    -0.647074304414E+03   -0.16455E-02   -0.38499E-04 13648   0.379E-02    0.595E-02
DAV:  34    -0.647075470837E+03   -0.11664E-02   -0.23727E-04 13992   0.264E-02    0.291E-02
DAV:  35    -0.647076440909E+03   -0.97007E-03   -0.19638E-04 11832   0.194E-02    0.160E-02
DAV:  36    -0.647076868917E+03   -0.42801E-03   -0.58056E-05 11848   0.122E-02    0.156E-02
DAV:  37    -0.647077284792E+03   -0.41587E-03   -0.57577E-05 10696   0.102E-02    0.121E-02
DAV:  38    -0.647077495993E+03   -0.21120E-03   -0.31916E-05 10976   0.816E-03    0.108E-02
DAV:  39    -0.647077656827E+03   -0.16083E-03   -0.24375E-05  9896   0.613E-03    0.825E-03
DAV:  40    -0.647077787560E+03   -0.13073E-03   -0.24758E-05 10312   0.508E-03    0.566E-03
DAV:  41    -0.647077879235E+03   -0.91674E-04   -0.21605E-05 10032   0.426E-03    0.701E-03
DAV:  42    -0.647077911251E+03   -0.32017E-04   -0.58741E-06  9048   0.346E-03    0.527E-03
DAV:  43    -0.647077934182E+03   -0.22931E-04   -0.31919E-06  8608   0.300E-03    0.310E-03
DAV:  44    -0.647077955366E+03   -0.21184E-04   -0.41534E-06  8968   0.247E-03    0.180E-03
DAV:  45    -0.647077961588E+03   -0.62210E-05   -0.97350E-07  8152   0.135E-03    0.151E-03
DAV:  46    -0.647077963662E+03   -0.20748E-05   -0.27691E-07  7096   0.109E-03    0.113E-03
DAV:  47    -0.647077964793E+03   -0.11305E-05   -0.18423E-07  6408   0.817E-04    0.755E-04
DAV:  48    -0.647077966219E+03   -0.14265E-05   -0.19833E-07  7096   0.697E-04    0.308E-04
DAV:  49    -0.647077967230E+03   -0.10107E-05   -0.12056E-07  6368   0.534E-04    0.186E-04
DAV:  50    -0.647077967839E+03   -0.60894E-06   -0.74785E-08  6048   0.433E-04
   1 F= -.64707797E+03 E0= -.64708197E+03  d E =-.647078E+03
 curvature:   0.00 expect dE= 0.000E+00 dE for cont linesearch  0.000E+00
 trial: gam= 0.00000 g(F)=  0.126E+01 g(S)=  0.000E+00 ort = 0.000E+00 (trialstep = 0.100E+01)
 search vector abs. value=  0.126E+01
 bond charge predicted
       N       E                     dE             d eps       ncg     rms          rms(c)
DAV:   1    -0.646730415362E+03    0.34755E+00   -0.33970E+02 10628   0.293E+01    0.455E+00
DAV:   2    -0.648664252778E+03   -0.19338E+01   -0.19003E+01 14240   0.661E+00    0.554E+00
DAV:   3    -0.648287398432E+03    0.37685E+00   -0.26443E+00 14416   0.313E+00    0.338E+00
DAV:   4    -0.648168739253E+03    0.11866E+00   -0.69713E-01 12832   0.147E+00    0.165E+00
DAV:   5    -0.648180853168E+03   -0.12114E-01   -0.18515E-01 15304   0.856E-01    0.163E+00
DAV:   6    -0.648160813570E+03    0.20040E-01   -0.11042E-01 14482   0.731E-01    0.122E+00
DAV:   7    -0.648157819280E+03    0.29943E-02   -0.11009E-01 15000   0.651E-01    0.964E-01
DAV:   8    -0.648143276152E+03    0.14543E-01   -0.47444E-02 13840   0.431E-01    0.356E-01
DAV:   9    -0.648142478722E+03    0.79743E-03   -0.16466E-02 14600   0.241E-01    0.209E-01
DAV:  10    -0.648141867891E+03    0.61083E-03   -0.32092E-03 13344   0.119E-01    0.121E-01
DAV:  11    -0.648141752704E+03    0.11519E-03   -0.12884E-03 14096   0.871E-02    0.100E-01
DAV:  12    -0.648141647285E+03    0.10542E-03   -0.98401E-04 14176   0.733E-02    0.908E-02
DAV:  13    -0.648141498709E+03    0.14858E-03   -0.57130E-04 14456   0.577E-02    0.443E-02
DAV:  14    -0.648141490935E+03    0.77744E-05   -0.19777E-04 13624   0.310E-02    0.420E-02
DAV:  15    -0.648141489289E+03    0.16464E-05   -0.12411E-04 13608   0.246E-02    0.286E-02
DAV:  16    -0.648141547641E+03   -0.58352E-04   -0.11524E-04 13056   0.228E-02    0.309E-02
DAV:  17    -0.648141575684E+03   -0.28043E-04   -0.82242E-05 13072   0.194E-02    0.200E-02
DAV:  18    -0.648141624991E+03   -0.49307E-04   -0.43889E-05 12384   0.149E-02    0.182E-02
DAV:  19    -0.648141760765E+03   -0.13577E-03   -0.52028E-05 11784   0.143E-02    0.220E-02
DAV:  20    -0.648141848000E+03   -0.87235E-04   -0.35397E-05 11000   0.123E-02    0.104E-02
DAV:  21    -0.648141954219E+03   -0.10622E-03   -0.30857E-05 10448   0.893E-03    0.996E-03
DAV:  22    -0.648142024339E+03   -0.70119E-04   -0.26740E-05 10520   0.887E-03    0.825E-03
DAV:  23    -0.648142093868E+03   -0.69530E-04   -0.11356E-05 10776   0.600E-03    0.728E-03
DAV:  24    -0.648142234918E+03   -0.14105E-03   -0.13489E-05  9904   0.624E-03    0.916E-03
DAV:  25    -0.648142316521E+03   -0.81603E-04   -0.82123E-06 10456   0.561E-03    0.559E-03
DAV:  26    -0.648142411343E+03   -0.94822E-04   -0.88812E-06  9632   0.394E-03    0.473E-03
DAV:  27    -0.648142474634E+03   -0.63291E-04   -0.55003E-06  9656   0.333E-03    0.410E-03
DAV:  28    -0.648142531660E+03   -0.57026E-04   -0.53016E-06  9536   0.306E-03    0.400E-03
DAV:  29    -0.648142591037E+03   -0.59376E-04   -0.87223E-06  9544   0.274E-03    0.240E-03
DAV:  30    -0.648142613342E+03   -0.22306E-04   -0.23059E-06  8480   0.192E-03    0.240E-03
DAV:  31    -0.648142629038E+03   -0.15696E-04   -0.15088E-06  7960   0.187E-03    0.195E-03
DAV:  32    -0.648142641334E+03   -0.12295E-04   -0.16034E-06  8296   0.162E-03    0.124E-03
DAV:  33    -0.648142649432E+03   -0.80982E-05   -0.11394E-06  7872   0.124E-03    0.108E-03
DAV:  34    -0.648142653525E+03   -0.40933E-05   -0.55533E-07  7928   0.110E-03    0.687E-04
DAV:  35    -0.648142657684E+03   -0.41583E-05   -0.78477E-07  7824   0.909E-04    0.514E-04
DAV:  36    -0.648142659625E+03   -0.19414E-05   -0.22304E-07  7480   0.777E-04    0.363E-04
DAV:  37    -0.648142661460E+03   -0.18353E-05   -0.18958E-07  6696   0.579E-04    0.261E-04
DAV:  38    -0.648142664058E+03   -0.25981E-05   -0.30875E-07  7360   0.542E-04    0.142E-04
DAV:  39    -0.648142665102E+03   -0.10434E-05   -0.10549E-07  6152   0.435E-04    0.958E-05
DAV:  40    -0.648142665786E+03   -0.68452E-06   -0.92792E-08  6232   0.339E-04
   2 F= -.64814267E+03 E0= -.64814751E+03  d E =-.106470E+01
 trial-energy change:   -1.064698  1 .order   -1.049480   -1.259967   -0.838993
 step:   2.3249(harm=  2.9930)  dis= 0.18918  next Energy=  -648.733846 (dE=-0.166E+01)
 bond charge predicted
       N       E                     dE             d eps       ncg     rms          rms(c)
DAV:   1    -0.645526758674E+03    0.26159E+01   -0.58882E+02 10699   0.383E+01    0.889E+00
DAV:   2    -0.649940795617E+03   -0.44140E+01   -0.43466E+01 14549   0.885E+00    0.853E+00
DAV:   3    -0.649368922616E+03    0.57187E+00   -0.81134E+00 14864   0.453E+00    0.630E+00
DAV:   4    -0.648743075296E+03    0.62585E+00   -0.23950E+00 13349   0.251E+00    0.255E+00
DAV:   5    -0.648806002695E+03   -0.62927E-01   -0.10043E+00 15048   0.185E+00    0.281E+00
DAV:   6    -0.648693248136E+03    0.11275E+00   -0.50547E-01 14872   0.148E+00    0.160E+00
DAV:   7    -0.648681267279E+03    0.11981E-01   -0.31653E-01 14760   0.110E+00    0.119E+00
DAV:   8    -0.648659707840E+03    0.21559E-01   -0.86948E-02 13728   0.577E-01    0.510E-01
DAV:   9    -0.648656235992E+03    0.34718E-02   -0.28543E-02 14256   0.372E-01    0.255E-01
DAV:  10    -0.648655915936E+03    0.32006E-03   -0.66962E-03 13856   0.174E-01    0.174E-01
DAV:  11    -0.648655696281E+03    0.21966E-03   -0.22216E-03 13896   0.123E-01    0.126E-01
DAV:  12    -0.648655714561E+03   -0.18280E-04   -0.13832E-03 14280   0.858E-02    0.112E-01
DAV:  13    -0.648655618989E+03    0.95573E-04   -0.80337E-04 14352   0.629E-02    0.462E-02
DAV:  14    -0.648655682771E+03   -0.63782E-04   -0.29610E-04 13664   0.406E-02    0.473E-02
DAV:  15    -0.648655745633E+03   -0.62862E-04   -0.16262E-04 13720   0.286E-02    0.347E-02
DAV:  16    -0.648655848032E+03   -0.10240E-03   -0.10917E-04 13528   0.243E-02    0.255E-02
DAV:  17    -0.648655984646E+03   -0.13661E-03   -0.77310E-05 12984   0.178E-02    0.229E-02
DAV:  18    -0.648656054596E+03   -0.69950E-04   -0.46863E-05 12872   0.150E-02    0.177E-02
DAV:  19    -0.648656220124E+03   -0.16553E-03   -0.59226E-05 11240   0.145E-02    0.200E-02
DAV:  20    -0.648656296935E+03   -0.76811E-04   -0.35827E-05 11440   0.125E-02    0.119E-02
DAV:  21    -0.648656359504E+03   -0.62569E-04   -0.19662E-05 10872   0.907E-03    0.981E-03
DAV:  22    -0.648656439024E+03   -0.79520E-04   -0.31189E-05  9760   0.767E-03    0.896E-03
DAV:  23    -0.648656487489E+03   -0.48464E-04   -0.13600E-05 10824   0.608E-03    0.711E-03
DAV:  24    -0.648656619732E+03   -0.13224E-03   -0.18182E-05  9960   0.611E-03    0.707E-03
DAV:  25    -0.648656691531E+03   -0.71799E-04   -0.79641E-06 10080   0.535E-03    0.629E-03
DAV:  26    -0.648656744808E+03   -0.53277E-04   -0.43204E-06  8672   0.395E-03    0.527E-03
DAV:  27    -0.648656830577E+03   -0.85769E-04   -0.89879E-06  9264   0.385E-03    0.479E-03
DAV:  28    -0.648656876846E+03   -0.46270E-04   -0.45432E-06  9128   0.343E-03    0.338E-03
DAV:  29    -0.648656931531E+03   -0.54684E-04   -0.65793E-06  8896   0.243E-03    0.283E-03
DAV:  30    -0.648656964169E+03   -0.32638E-04   -0.40162E-06  8624   0.225E-03    0.232E-03
DAV:  31    -0.648656984719E+03   -0.20550E-04   -0.28314E-06  8152   0.197E-03    0.201E-03
DAV:  32    -0.648656994348E+03   -0.96284E-05   -0.13444E-06  8120   0.169E-03    0.143E-03
DAV:  33    -0.648657001535E+03   -0.71870E-05   -0.86133E-07  7680   0.141E-03    0.150E-03
DAV:  34    -0.648657007270E+03   -0.57355E-05   -0.10966E-06  8144   0.132E-03    0.871E-04
DAV:  35    -0.648657010473E+03   -0.32028E-05   -0.40331E-07  7584   0.989E-04    0.805E-04
DAV:  36    -0.648657013766E+03   -0.32934E-05   -0.45725E-07  7824   0.814E-04    0.549E-04
DAV:  37    -0.648657016775E+03   -0.30090E-05   -0.34090E-07  7512   0.702E-04    0.296E-04
DAV:  38    -0.648657019493E+03   -0.27176E-05   -0.30808E-07  7488   0.537E-04    0.213E-04
DAV:  39    -0.648657020643E+03   -0.11498E-05   -0.95941E-08  6144   0.449E-04    0.161E-04
DAV:  40    -0.648657021678E+03   -0.10350E-05   -0.99007E-08  6768   0.351E-04    0.135E-04
DAV:  41    -0.648657022326E+03   -0.64823E-06   -0.79438E-08  5960   0.351E-04
   3 F= -.64865702E+03 E0= -.64866320E+03  d E =-.157905E+01
 curvature:  -1.33 expect dE=-0.538E+00 dE for cont linesearch -0.356E-01
 ZBRENT: interpolating
 opt :   2.0869  next Energy=  -648.678886 (dE=-0.160E+01)
 bond charge predicted
       N       E                     dE             d eps       ncg     rms          rms(c)
DAV:   1    -0.648612629060E+03    0.44393E-01   -0.19397E+01 10524   0.615E+00    0.127E+00
DAV:   2    -0.648672951063E+03   -0.60322E-01   -0.63759E-01 11920   0.117E+00    0.808E-01
DAV:   3    -0.648685607319E+03   -0.12656E-01   -0.90007E-02 14896   0.617E-01    0.946E-01
DAV:   4    -0.648672297508E+03    0.13310E-01   -0.47019E-02 14428   0.447E-01    0.420E-01
DAV:   5    -0.648675701977E+03   -0.34045E-02   -0.27775E-02 15120   0.317E-01    0.444E-01
DAV:   6    -0.648671426867E+03    0.42751E-02   -0.17199E-02 14856   0.264E-01    0.145E-01
DAV:   7    -0.648671273305E+03    0.15356E-03   -0.34581E-03 13728   0.116E-01    0.932E-02
DAV:   8    -0.648671164965E+03    0.10834E-03   -0.53836E-04 13744   0.578E-02    0.416E-02
DAV:   9    -0.648671198922E+03   -0.33957E-04   -0.21247E-04 13768   0.353E-02    0.405E-02
DAV:  10    -0.648671218943E+03   -0.20021E-04   -0.13480E-04 14248   0.285E-02    0.245E-02
DAV:  11    -0.648671239330E+03   -0.20387E-04   -0.49709E-05 13448   0.172E-02    0.143E-02
DAV:  12    -0.648671258479E+03   -0.19149E-04   -0.17851E-05 11824   0.101E-02    0.918E-03
DAV:  13    -0.648671280380E+03   -0.21901E-04   -0.57460E-06  9792   0.588E-03    0.547E-03
DAV:  14    -0.648671302279E+03   -0.21899E-04   -0.37399E-06  9144   0.426E-03    0.520E-03
DAV:  15    -0.648671332030E+03   -0.29751E-04   -0.40455E-06  8984   0.374E-03    0.402E-03
DAV:  16    -0.648671355549E+03   -0.23519E-04   -0.31235E-06  8904   0.296E-03    0.276E-03
DAV:  17    -0.648671375844E+03   -0.20295E-04   -0.30689E-06  8808   0.262E-03    0.306E-03
DAV:  18    -0.648671391663E+03   -0.15818E-04   -0.27849E-06  8784   0.257E-03    0.227E-03
DAV:  19    -0.648671403383E+03   -0.11720E-04   -0.22362E-06  8448   0.200E-03    0.171E-03
DAV:  20    -0.648671409094E+03   -0.57109E-05   -0.83864E-07  8328   0.143E-03    0.114E-03
DAV:  21    -0.648671416159E+03   -0.70655E-05   -0.13673E-06  8248   0.150E-03    0.143E-03
DAV:  22    -0.648671422372E+03   -0.62130E-05   -0.16572E-06  8528   0.149E-03    0.109E-03
DAV:  23    -0.648671424904E+03   -0.25321E-05   -0.77151E-07  8048   0.120E-03    0.828E-04
DAV:  24    -0.648671427617E+03   -0.27121E-05   -0.47800E-07  7904   0.103E-03    0.859E-04
DAV:  25    -0.648671429881E+03   -0.22648E-05   -0.28066E-07  7520   0.939E-04    0.712E-04
DAV:  26    -0.648671433029E+03   -0.31473E-05   -0.59179E-07  7880   0.860E-04    0.646E-04
DAV:  27    -0.648671436411E+03   -0.33822E-05   -0.40263E-07  7696   0.788E-04    0.549E-04
DAV:  28    -0.648671438467E+03   -0.20566E-05   -0.18044E-07  6872   0.607E-04    0.387E-04
DAV:  29    -0.648671442383E+03   -0.39155E-05   -0.60855E-07  7664   0.535E-04    0.359E-04
DAV:  30    -0.648671444021E+03   -0.16377E-05   -0.16961E-07  7232   0.542E-04    0.345E-04
DAV:  31    -0.648671445227E+03   -0.12059E-05   -0.19240E-07  7048   0.418E-04    0.242E-04
DAV:  32    -0.648671445839E+03   -0.61200E-06   -0.17727E-07  7080   0.421E-04
   4 F= -.64867145E+03 E0= -.64867745E+03  d E =-.159348E+01
 curvature:  -0.82 expect dE=-0.254E+00 dE for cont linesearch -0.214E-02
 trial: gam= 0.20137 g(F)=  0.311E+00 g(S)=  0.000E+00 ort = 0.575E-01 (trialstep = 0.122E+01)
 search vector abs. value=  0.386E+00
 bond charge predicted
       N       E                     dE             d eps       ncg     rms          rms(c)
DAV:   1    -0.648451616477E+03    0.21983E+00   -0.16782E+02 10548   0.218E+01    0.326E+00
DAV:   2    -0.648966153764E+03   -0.51454E+00   -0.53306E+00 10814   0.395E+00    0.166E+00
DAV:   3    -0.649023809413E+03   -0.57656E-01   -0.63732E-01 15392   0.172E+00    0.207E+00
DAV:   4    -0.648951319677E+03    0.72490E-01   -0.27610E-01 14429   0.110E+00    0.792E-01
DAV:   5    -0.648956375830E+03   -0.50562E-02   -0.79025E-02 14232   0.550E-01    0.821E-01
DAV:   6    -0.648946959676E+03    0.94162E-02   -0.49106E-02 13717   0.514E-01    0.376E-01
DAV:   7    -0.648948905949E+03   -0.19463E-02   -0.24193E-02 14112   0.347E-01    0.414E-01
DAV:   8    -0.648945637606E+03    0.32683E-02   -0.10193E-02 13576   0.248E-01    0.115E-01
DAV:   9    -0.648945656076E+03   -0.18470E-04   -0.24638E-03 15784   0.104E-01    0.893E-02
DAV:  10    -0.648945570832E+03    0.85244E-04   -0.77208E-04 14176   0.658E-02    0.625E-02
DAV:  11    -0.648945540318E+03    0.30514E-04   -0.30357E-04 15160   0.397E-02    0.391E-02
DAV:  12    -0.648945536336E+03    0.39821E-05   -0.98926E-05 14384   0.231E-02    0.192E-02
DAV:  13    -0.648945541826E+03   -0.54897E-05   -0.41120E-05 14016   0.160E-02    0.138E-02
DAV:  14    -0.648945553814E+03   -0.11988E-04   -0.19250E-05 11632   0.996E-03    0.121E-02
DAV:  15    -0.648945568806E+03   -0.14992E-04   -0.12121E-05 11464   0.835E-03    0.840E-03
DAV:  16    -0.648945594469E+03   -0.25663E-04   -0.78246E-06 10160   0.589E-03    0.905E-03
DAV:  17    -0.648945618421E+03   -0.23952E-04   -0.65855E-06  9832   0.555E-03    0.707E-03
DAV:  18    -0.648945640694E+03   -0.22272E-04   -0.55152E-06  9472   0.510E-03    0.588E-03
DAV:  19    -0.648945663584E+03   -0.22890E-04   -0.43252E-06  9120   0.402E-03    0.478E-03
DAV:  20    -0.648945678633E+03   -0.15050E-04   -0.19105E-06  8192   0.304E-03    0.320E-03
DAV:  21    -0.648945709219E+03   -0.30586E-04   -0.40644E-06  9104   0.298E-03    0.365E-03
DAV:  22    -0.648945726524E+03   -0.17305E-04   -0.31815E-06  8528   0.283E-03    0.264E-03
DAV:  23    -0.648945737348E+03   -0.10824E-04   -0.12556E-06  8320   0.208E-03    0.240E-03
DAV:  24    -0.648945752690E+03   -0.15342E-04   -0.10423E-06  8008   0.193E-03    0.220E-03
DAV:  25    -0.648945771441E+03   -0.18752E-04   -0.13266E-06  8224   0.180E-03    0.157E-03
DAV:  26    -0.648945788126E+03   -0.16685E-04   -0.12271E-06  8000   0.155E-03    0.156E-03
DAV:  27    -0.648945798087E+03   -0.99603E-05   -0.56593E-07  7872   0.136E-03    0.117E-03
DAV:  28    -0.648945809076E+03   -0.10989E-04   -0.72158E-07  7752   0.106E-03    0.104E-03
DAV:  29    -0.648945821997E+03   -0.12922E-04   -0.15116E-06  7944   0.106E-03    0.755E-04
DAV:  30    -0.648945826941E+03   -0.49432E-05   -0.53947E-07  7928   0.926E-04    0.740E-04
DAV:  31    -0.648945829863E+03   -0.29225E-05   -0.46625E-07  7504   0.774E-04    0.558E-04
DAV:  32    -0.648945831521E+03   -0.16583E-05   -0.46789E-07  7616   0.709E-04    0.352E-04
DAV:  33    -0.648945832343E+03   -0.82154E-06   -0.20700E-07  7256   0.555E-04
   5 F= -.64894583E+03 E0= -.64895230E+03  d E =-.274387E+00
 trial-energy change:   -0.274387  1 .order   -0.271089   -0.393042   -0.149137
 step:   1.8789(harm=  1.9617)  dis= 0.06099  next Energy=  -648.986884 (dE=-0.315E+00)
 bond charge predicted
       N       E                     dE             d eps       ncg     rms          rms(c)
DAV:   1    -0.648855111338E+03    0.90720E-01   -0.49901E+01 10540   0.116E+01    0.167E+00
DAV:   2    -0.648990736829E+03   -0.13563E+00   -0.13779E+00 11148   0.210E+00    0.890E-01
DAV:   3    -0.649011633927E+03   -0.20897E-01   -0.20047E-01 15485   0.974E-01    0.116E+00
DAV:   4    -0.648987850670E+03    0.23783E-01   -0.86829E-02 14648   0.627E-01    0.431E-01
DAV:   5    -0.648990723066E+03   -0.28724E-02   -0.31231E-02 14461   0.362E-01    0.505E-01
DAV:   6    -0.648986621658E+03    0.41014E-02   -0.17315E-02 13680   0.307E-01    0.192E-01
DAV:   7    -0.648986734018E+03   -0.11236E-03   -0.65807E-03 14189   0.177E-01    0.172E-01
DAV:   8    -0.648986254563E+03    0.47945E-03   -0.18986E-03 13552   0.107E-01    0.652E-02
DAV:   9    -0.648986235964E+03    0.18599E-04   -0.59083E-04 15973   0.559E-02    0.474E-02
DAV:  10    -0.648986227918E+03    0.80459E-05   -0.25366E-04 13552   0.374E-02    0.407E-02
DAV:  11    -0.648986203859E+03    0.24059E-04   -0.10159E-04 14157   0.237E-02    0.161E-02
DAV:  12    -0.648986205913E+03   -0.20542E-05   -0.23404E-05 13184   0.111E-02    0.100E-02
DAV:  13    -0.648986208310E+03   -0.23967E-05   -0.10869E-05 11456   0.849E-03    0.669E-03
DAV:  14    -0.648986213022E+03   -0.47125E-05   -0.40729E-06  9512   0.483E-03    0.562E-03
DAV:  15    -0.648986219999E+03   -0.69763E-05   -0.24255E-06  8293   0.430E-03    0.415E-03
DAV:  16    -0.648986227283E+03   -0.72842E-05   -0.15977E-06  8112   0.322E-03    0.402E-03
DAV:  17    -0.648986235960E+03   -0.86765E-05   -0.13379E-06  8034   0.275E-03    0.330E-03
DAV:  18    -0.648986245756E+03   -0.97963E-05   -0.15393E-06  8280   0.255E-03    0.342E-03
DAV:  19    -0.648986254737E+03   -0.89807E-05   -0.13216E-06  8048   0.240E-03    0.235E-03
DAV:  20    -0.648986264912E+03   -0.10176E-04   -0.11535E-06  8096   0.186E-03    0.160E-03
DAV:  21    -0.648986275128E+03   -0.10216E-04   -0.95120E-07  7989   0.167E-03    0.165E-03
DAV:  22    -0.648986284285E+03   -0.91565E-05   -0.87459E-07  7848   0.160E-03    0.141E-03
DAV:  23    -0.648986290173E+03   -0.58885E-05   -0.39487E-07  7594   0.132E-03    0.120E-03
DAV:  24    -0.648986297124E+03   -0.69501E-05   -0.73183E-07  7832   0.120E-03    0.967E-04
DAV:  25    -0.648986305492E+03   -0.83688E-05   -0.73597E-07  7856   0.107E-03    0.786E-04
DAV:  26    -0.648986310195E+03   -0.47023E-05   -0.27659E-07  7536   0.889E-04    0.707E-04
DAV:  27    -0.648986315352E+03   -0.51573E-05   -0.45186E-07  7584   0.802E-04    0.599E-04
DAV:  28    -0.648986318619E+03   -0.32666E-05   -0.22705E-07  7272   0.673E-04    0.504E-04
DAV:  29    -0.648986321398E+03   -0.27799E-05   -0.32416E-07  7424   0.563E-04    0.460E-04
DAV:  30    -0.648986323386E+03   -0.19874E-05   -0.23337E-07  7360   0.547E-04    0.324E-04
DAV:  31    -0.648986324315E+03   -0.92950E-06   -0.15599E-07  7064   0.467E-04
   6 F= -.64898632E+03 E0= -.64899281E+03  d E =-.314878E+00
 curvature:  -1.16 expect dE=-0.281E+00 dE for cont linesearch -0.132E-04
 trial: gam= 0.66576 g(F)=  0.243E+00 g(S)=  0.000E+00 ort =-0.210E-02 (trialstep = 0.127E+01)
 search vector abs. value=  0.411E+00
 bond charge predicted
       N       E                     dE             d eps       ncg     rms          rms(c)
DAV:   1    -0.648568553888E+03    0.41777E+00   -0.19603E+02 10476   0.219E+01    0.283E+00
DAV:   2    -0.649201434376E+03   -0.63288E+00   -0.64368E+00 11658   0.433E+00    0.213E+00
DAV:   3    -0.649223485753E+03   -0.22051E-01   -0.51169E-01 14960   0.153E+00    0.169E+00
DAV:   4    -0.649200718752E+03    0.22767E-01   -0.20329E-01 13722   0.990E-01    0.132E+00
DAV:   5    -0.649209111780E+03   -0.83930E-02   -0.10250E-01 14440   0.674E-01    0.114E+00
DAV:   6    -0.649193344047E+03    0.15768E-01   -0.10137E-01 13920   0.716E-01    0.523E-01
DAV:   7    -0.649192053087E+03    0.12910E-02   -0.40651E-02 14544   0.423E-01    0.400E-01
DAV:   8    -0.649188886048E+03    0.31670E-02   -0.11486E-02 13448   0.240E-01    0.152E-01
DAV:   9    -0.649188678098E+03    0.20795E-03   -0.17790E-03 15504   0.810E-02    0.900E-02
DAV:  10    -0.649188678019E+03    0.79017E-07   -0.58734E-04 14160   0.514E-02    0.590E-02
DAV:  11    -0.649188674577E+03    0.34424E-05   -0.44297E-04 14096   0.500E-02    0.509E-02
DAV:  12    -0.649188639461E+03    0.35116E-04   -0.17648E-04 13552   0.312E-02    0.244E-02
DAV:  13    -0.649188633448E+03    0.60132E-05   -0.48303E-05 13680   0.170E-02    0.130E-02
DAV:  14    -0.649188635074E+03   -0.16263E-05   -0.16195E-05 12160   0.940E-03    0.933E-03
DAV:  15    -0.649188637736E+03   -0.26622E-05   -0.54308E-06 10032   0.591E-03    0.580E-03
DAV:  16    -0.649188641947E+03   -0.42109E-05   -0.39029E-06  9360   0.478E-03    0.570E-03
DAV:  17    -0.649188646829E+03   -0.48821E-05   -0.16861E-06  7992   0.342E-03    0.339E-03
DAV:  18    -0.649188651318E+03   -0.44885E-05   -0.57099E-07  7248   0.235E-03    0.317E-03
DAV:  19    -0.649188660391E+03   -0.90738E-05   -0.12962E-06  7872   0.256E-03    0.356E-03
DAV:  20    -0.649188672984E+03   -0.12592E-04   -0.20547E-06  8232   0.263E-03    0.246E-03
DAV:  21    -0.649188680083E+03   -0.70989E-05   -0.85467E-07  8048   0.197E-03    0.177E-03
DAV:  22    -0.649188691091E+03   -0.11009E-04   -0.11384E-06  7968   0.165E-03    0.156E-03
DAV:  23    -0.649188698914E+03   -0.78226E-05   -0.61396E-07  7896   0.164E-03    0.143E-03
DAV:  24    -0.649188705382E+03   -0.64685E-05   -0.49186E-07  7536   0.129E-03    0.114E-03
DAV:  25    -0.649188712843E+03   -0.74603E-05   -0.54320E-07  7864   0.124E-03    0.103E-03
DAV:  26    -0.649188718164E+03   -0.53218E-05   -0.26759E-07  7376   0.104E-03    0.830E-04
DAV:  27    -0.649188724980E+03   -0.68151E-05   -0.55314E-07  7728   0.903E-04    0.705E-04
DAV:  28    -0.649188730893E+03   -0.59132E-05   -0.39263E-07  7472   0.799E-04    0.595E-04
DAV:  29    -0.649188734411E+03   -0.35184E-05   -0.29500E-07  7464   0.739E-04    0.537E-04
DAV:  30    -0.649188736165E+03   -0.17541E-05   -0.27803E-07  7424   0.654E-04    0.432E-04
DAV:  31    -0.649188737128E+03   -0.96318E-06   -0.11427E-07  6312   0.555E-04
   7 F= -.64918874E+03 E0= -.64919482E+03  d E =-.202413E+00
 trial-energy change:   -0.202413  1 .order   -0.200022   -0.305688   -0.094355
 step:   1.7828(harm=  1.8321)  dis= 0.08833  next Energy=  -649.208126 (dE=-0.222E+00)
 bond charge predicted
       N       E                     dE             d eps       ncg     rms          rms(c)
DAV:   1    -0.649123920933E+03    0.64815E-01   -0.32806E+01 10540   0.902E+00    0.983E-01
DAV:   2    -0.649205219887E+03   -0.81299E-01   -0.83944E-01 11202   0.158E+00    0.555E-01
DAV:   3    -0.649209617585E+03   -0.43977E-02   -0.58401E-02 15637   0.437E-01    0.414E-01
DAV:   4    -0.649211052373E+03   -0.14348E-02   -0.20784E-02 13816   0.315E-01    0.447E-01
DAV:   5    -0.649209271700E+03    0.17807E-02   -0.12817E-02 14605   0.228E-01    0.250E-01
DAV:   6    -0.649208553365E+03    0.71834E-03   -0.72034E-03 14528   0.196E-01    0.145E-01
DAV:   7    -0.649208275608E+03    0.27776E-03   -0.23696E-03 13818   0.104E-01    0.744E-02
DAV:   8    -0.649208202980E+03    0.72628E-04   -0.56441E-04 14232   0.592E-02    0.400E-02
DAV:   9    -0.649208192657E+03    0.10323E-04   -0.15771E-04 13776   0.312E-02    0.292E-02
DAV:  10    -0.649208185116E+03    0.75407E-05   -0.74784E-05 14000   0.213E-02    0.188E-02
DAV:  11    -0.649208185121E+03   -0.45693E-08   -0.38897E-05 13016   0.158E-02    0.186E-02
DAV:  12    -0.649208178931E+03    0.61898E-05   -0.20981E-05 12152   0.111E-02    0.642E-03
DAV:  13    -0.649208178475E+03    0.45644E-06   -0.39974E-06  9784   0.507E-03
   8 F= -.64920818E+03 E0= -.64921404E+03  d E =-.221854E+00
 curvature:  -1.55 expect dE=-0.266E+00 dE for cont linesearch -0.339E-05
 trial: gam= 0.45155 g(F)=  0.172E+00 g(S)=  0.000E+00 ort = 0.949E-03 (trialstep = 0.137E+01)
 search vector abs. value=  0.257E+00
 bond charge predicted
       N       E                     dE             d eps       ncg     rms          rms(c)
DAV:   1    -0.648920634969E+03    0.28754E+00   -0.14655E+02 10540   0.210E+01    0.239E+00
DAV:   2    -0.649404667890E+03   -0.48403E+00   -0.45496E+00 12616   0.410E+00    0.220E+00
DAV:   3    -0.649369245845E+03    0.35422E-01   -0.64386E-01 14960   0.184E+00    0.162E+00
DAV:   4    -0.649343137181E+03    0.26109E-01   -0.16939E-01 13877   0.822E-01    0.879E-01
DAV:   5    -0.649347096358E+03   -0.39592E-02   -0.86974E-02 14816   0.658E-01    0.914E-01
DAV:   6    -0.649342868624E+03    0.42277E-02   -0.66620E-02 13477   0.574E-01    0.617E-01
DAV:   7    -0.649337159507E+03    0.57091E-02   -0.31604E-02 14712   0.406E-01    0.239E-01
DAV:   8    -0.649336737861E+03    0.42165E-03   -0.80299E-03 13613   0.192E-01    0.158E-01
DAV:   9    -0.649336367200E+03    0.37066E-03   -0.21713E-03 14272   0.109E-01    0.688E-02
DAV:  10    -0.649336418969E+03   -0.51769E-04   -0.64189E-04 14920   0.604E-02    0.746E-02
DAV:  11    -0.649336338425E+03    0.80544E-04   -0.35886E-04 14064   0.461E-02    0.310E-02
DAV:  12    -0.649336337972E+03    0.45287E-06   -0.11103E-04 14061   0.261E-02    0.196E-02
DAV:  13    -0.649336339224E+03   -0.12518E-05   -0.37273E-05 13552   0.158E-02    0.112E-02
DAV:  14    -0.649336342086E+03   -0.28622E-05   -0.10842E-05 11634   0.801E-03    0.609E-03
DAV:  15    -0.649336350467E+03   -0.83813E-05   -0.37884E-06  9552   0.496E-03    0.529E-03
DAV:  16    -0.649336357375E+03   -0.69083E-05   -0.16672E-06  8117   0.385E-03    0.380E-03
DAV:  17    -0.649336362864E+03   -0.54887E-05   -0.81580E-07  7464   0.285E-03    0.300E-03
DAV:  18    -0.649336372417E+03   -0.95533E-05   -0.10647E-06  7885   0.244E-03    0.299E-03
DAV:  19    -0.649336381917E+03   -0.94992E-05   -0.86641E-07  7936   0.228E-03    0.193E-03
DAV:  20    -0.649336393601E+03   -0.11684E-04   -0.11588E-06  7989   0.174E-03    0.144E-03
DAV:  21    -0.649336401897E+03   -0.82963E-05   -0.69294E-07  7944   0.161E-03    0.131E-03
DAV:  22    -0.649336409349E+03   -0.74522E-05   -0.70955E-07  7674   0.152E-03    0.149E-03
DAV:  23    -0.649336415500E+03   -0.61513E-05   -0.59405E-07  7856   0.139E-03    0.112E-03
DAV:  24    -0.649336419074E+03   -0.35736E-05   -0.30863E-07  7392   0.105E-03    0.772E-04
DAV:  25    -0.649336424147E+03   -0.50730E-05   -0.54691E-07  7760   0.986E-04    0.710E-04
DAV:  26    -0.649336427621E+03   -0.34739E-05   -0.33592E-07  7480   0.905E-04    0.652E-04
DAV:  27    -0.649336430080E+03   -0.24594E-05   -0.25074E-07  7488   0.759E-04    0.529E-04
DAV:  28    -0.649336432932E+03   -0.28515E-05   -0.26237E-07  7408   0.668E-04    0.486E-04
DAV:  29    -0.649336434293E+03   -0.13614E-05   -0.12061E-07  6472   0.607E-04    0.416E-04
DAV:  30    -0.649336436111E+03   -0.18181E-05   -0.19224E-07  7224   0.513E-04    0.375E-04
DAV:  31    -0.649336437549E+03   -0.14378E-05   -0.13601E-07  7080   0.511E-04    0.305E-04
DAV:  32    -0.649336438537E+03   -0.98751E-06   -0.14463E-07  7000   0.403E-04
   9 F= -.64933644E+03 E0= -.64934251E+03  d E =-.128260E+00
 trial-energy change:   -0.128260  1 .order   -0.127999   -0.236337   -0.019661
 step:   1.4941(harm=  1.4941)  dis= 0.02459  next Energy=  -649.337070 (dE=-0.129E+00)
 bond charge predicted
       N       E                     dE             d eps       ncg     rms          rms(c)
DAV:   1    -0.649334106580E+03    0.23310E-02   -0.12101E+00 10524   0.192E+00    0.206E-01
DAV:   2    -0.649337644726E+03   -0.35381E-02   -0.34074E-02 12200   0.354E-01    0.171E-01
DAV:   3    -0.649337582416E+03    0.62310E-04   -0.46476E-03 15328   0.161E-01    0.133E-01
DAV:   4    -0.649337386854E+03    0.19556E-03   -0.13665E-03 13840   0.774E-02    0.732E-02
DAV:   5    -0.649337388215E+03   -0.13615E-05   -0.76153E-04 14858   0.607E-02    0.692E-02
DAV:   6    -0.649337356628E+03    0.31587E-04   -0.44304E-04 13448   0.476E-02    0.445E-02
DAV:   7    -0.649337319390E+03    0.37238E-04   -0.14602E-04 14893   0.284E-02    0.132E-02
DAV:   8    -0.649337321786E+03   -0.23953E-05   -0.41753E-05 13760   0.130E-02    0.139E-02
DAV:   9    -0.649337318727E+03    0.30589E-05   -0.13057E-05 11504   0.854E-03    0.537E-03
DAV:  10    -0.649337318909E+03   -0.18220E-06   -0.38044E-06  9456   0.469E-03
  10 F= -.64933732E+03 E0= -.64934338E+03  d E =-.129140E+00
 curvature:  -1.11 expect dE=-0.249E-01 dE for cont linesearch -0.113E-06
 trial: gam= 0.08731 g(F)=  0.224E-01 g(S)=  0.000E+00 ort =-0.161E-03 (trialstep = 0.139E+01)
 search vector abs. value=  0.243E-01
 bond charge predicted
       N       E                     dE             d eps       ncg     rms          rms(c)
DAV:   1    -0.649301663102E+03    0.35656E-01   -0.14399E+01 10540   0.753E+00    0.764E-01
DAV:   2    -0.649356803810E+03   -0.55141E-01   -0.56751E-01 10610   0.145E+00    0.427E-01
DAV:   3    -0.649361697543E+03   -0.48937E-02   -0.49834E-02 15432   0.458E-01    0.476E-01
DAV:   4    -0.649358758295E+03    0.29392E-02   -0.15067E-02 13480   0.279E-01    0.255E-01
DAV:   5    -0.649359471830E+03   -0.71353E-03   -0.64519E-03 15152   0.151E-01    0.262E-01
DAV:   6    -0.649358673147E+03    0.79868E-03   -0.50636E-03 14280   0.162E-01    0.122E-01
DAV:   7    -0.649358610530E+03    0.62617E-04   -0.23423E-03 15040   0.998E-02    0.882E-02
DAV:   8    -0.649358476959E+03    0.13357E-03   -0.69240E-04 14392   0.573E-02    0.404E-02
DAV:   9    -0.649358467961E+03    0.89982E-05   -0.18604E-04 14352   0.288E-02    0.266E-02
DAV:  10    -0.649358460194E+03    0.77667E-05   -0.53697E-05 13584   0.175E-02    0.152E-02
DAV:  11    -0.649358463940E+03   -0.37460E-05   -0.36690E-05 13080   0.144E-02    0.186E-02
DAV:  12    -0.649358458232E+03    0.57082E-05   -0.17703E-05 11704   0.101E-02    0.475E-03
DAV:  13    -0.649358458257E+03   -0.25102E-07   -0.30631E-06  9424   0.455E-03
  11 F= -.64935846E+03 E0= -.64936473E+03  d E =-.211393E-01
 trial-energy change:   -0.021139  1 .order   -0.021092   -0.031180   -0.011005
 step:   2.1555(harm=  2.1555)  dis= 0.02163  next Energy=  -649.361413 (dE=-0.241E-01)
 bond charge predicted
       N       E                     dE             d eps       ncg     rms          rms(c)
DAV:   1    -0.649344682131E+03    0.13776E-01   -0.42873E+00 10532   0.410E+00    0.404E-01
DAV:   2    -0.649360936656E+03   -0.16255E-01   -0.16731E-01 10558   0.784E-01    0.234E-01
DAV:   3    -0.649362411686E+03   -0.14750E-02   -0.14914E-02 15450   0.254E-01    0.262E-01
DAV:   4    -0.649361493675E+03    0.91801E-03   -0.45363E-03 13456   0.152E-01    0.133E-01
DAV:   5    -0.649361752907E+03   -0.25923E-03   -0.21019E-03 15020   0.891E-02    0.148E-01
DAV:   6    -0.649361468112E+03    0.28479E-03   -0.15805E-03 13976   0.914E-02    0.615E-02
DAV:   7    -0.649361454262E+03    0.13850E-04   -0.61454E-04 14872   0.521E-02    0.449E-02
DAV:   8    -0.649361421017E+03    0.33245E-04   -0.18089E-04 13968   0.305E-02    0.212E-02
DAV:   9    -0.649361418116E+03    0.29014E-05   -0.52516E-05 13744   0.159E-02    0.138E-02
DAV:  10    -0.649361416087E+03    0.20289E-05   -0.15809E-05 11896   0.989E-03    0.846E-03
DAV:  11    -0.649361416908E+03   -0.82157E-06   -0.10799E-05 11048   0.789E-03    0.965E-03
DAV:  12    -0.649361415415E+03    0.14936E-05   -0.44265E-06  9424   0.537E-03    0.228E-03
DAV:  13    -0.649361415533E+03   -0.11855E-06   -0.71187E-07  6472   0.263E-03
  12 F= -.64936142E+03 E0= -.64936778E+03  d E =-.240966E-01
 curvature:  -1.17 expect dE=-0.758E-02 dE for cont linesearch -0.131E-05
 trial: gam= 0.28922 g(F)=  0.647E-02 g(S)=  0.000E+00 ort =-0.165E-03 (trialstep = 0.155E+01)
 search vector abs. value=  0.841E-02
 bond charge predicted
       N       E                     dE             d eps       ncg     rms          rms(c)
DAV:   1    -0.649342128831E+03    0.19287E-01   -0.61063E+00 10540   0.484E+00    0.524E-01
DAV:   2    -0.649366940904E+03   -0.24812E-01   -0.24996E-01 10564   0.950E-01    0.344E-01
DAV:   3    -0.649369059795E+03   -0.21189E-02   -0.28471E-02 15392   0.380E-01    0.380E-01
DAV:   4    -0.649366819666E+03    0.22401E-02   -0.81273E-03 13520   0.193E-01    0.170E-01
DAV:   5    -0.649367195280E+03   -0.37561E-03   -0.34794E-03 15392   0.130E-01    0.180E-01
DAV:   6    -0.649366747665E+03    0.44762E-03   -0.21214E-03 13784   0.111E-01    0.642E-02
DAV:   7    -0.649366747143E+03    0.52263E-06   -0.72077E-04 14880   0.622E-02    0.506E-02
DAV:   8    -0.649366709554E+03    0.37589E-04   -0.22547E-04 13192   0.375E-02    0.273E-02
DAV:   9    -0.649366702045E+03    0.75091E-05   -0.74788E-05 14232   0.208E-02    0.178E-02
DAV:  10    -0.649366702298E+03   -0.25301E-06   -0.33617E-05 12992   0.141E-02    0.164E-02
DAV:  11    -0.649366698921E+03    0.33763E-05   -0.15947E-05 12168   0.100E-02    0.604E-03
DAV:  12    -0.649366699380E+03   -0.45884E-06   -0.38023E-06  9848   0.510E-03
  13 F= -.64936670E+03 E0= -.64937295E+03  d E =-.528385E-02
 trial-energy change:   -0.005284  1 .order   -0.005295   -0.009935   -0.000654
 step:   1.6558(harm=  1.6558)  dis= 0.01033  next Energy=  -649.366733 (dE=-0.532E-02)
 bond charge predicted
       N       E                     dE             d eps       ncg     rms          rms(c)
DAV:   1    -0.649366603242E+03    0.95680E-04   -0.30303E-02 10584   0.342E-01    0.346E-02
DAV:   2    -0.649366724389E+03   -0.12115E-03   -0.12219E-03 10888   0.663E-02    0.227E-02
DAV:   3    -0.649366734585E+03   -0.10196E-04   -0.12405E-04 15400   0.248E-02    0.249E-02
DAV:   4    -0.649366726294E+03    0.82910E-05   -0.39049E-05 13136   0.136E-02    0.115E-02
DAV:   5    -0.649366728822E+03   -0.25280E-05   -0.17418E-05 12378   0.898E-03    0.126E-02
DAV:   6    -0.649366727454E+03    0.13683E-05   -0.10371E-05 10992   0.757E-03    0.464E-03
DAV:   7    -0.649366727928E+03   -0.47454E-06   -0.33020E-06  9824   0.437E-03
  14 F= -.64936673E+03 E0= -.64937297E+03  d E =-.531239E-02
 curvature:  -1.08 expect dE=-0.148E-02 dE for cont linesearch -0.914E-07
 trial: gam= 0.20158 g(F)=  0.137E-02 g(S)=  0.000E+00 ort =-0.266E-04 (trialstep = 0.157E+01)
 search vector abs. value=  0.170E-02
 bond charge predicted
       N       E                     dE             d eps       ncg     rms          rms(c)
DAV:   1    -0.649363519906E+03    0.32075E-02   -0.13682E+00 10540   0.234E+00    0.208E-01
DAV:   2    -0.649368018493E+03   -0.44986E-02   -0.46293E-02 10472   0.423E-01    0.127E-01
DAV:   3    -0.649368400181E+03   -0.38169E-03   -0.44021E-03 15674   0.151E-01    0.136E-01
DAV:   4    -0.649368165948E+03    0.23423E-03   -0.15219E-03 13592   0.891E-02    0.700E-02
DAV:   5    -0.649368202990E+03   -0.37042E-04   -0.51344E-04 14482   0.542E-02    0.653E-02
DAV:   6    -0.649368143915E+03    0.59075E-04   -0.33274E-04 13184   0.444E-02    0.260E-02
DAV:   7    -0.649368147306E+03   -0.33917E-05   -0.10923E-04 14680   0.234E-02    0.234E-02
DAV:   8    -0.649368138860E+03    0.84461E-05   -0.39197E-05 12720   0.154E-02    0.119E-02
DAV:   9    -0.649368136948E+03    0.19121E-05   -0.12327E-05 12152   0.812E-03    0.499E-03
DAV:  10    -0.649368137240E+03   -0.29155E-06   -0.21518E-06  8120   0.380E-03
  15 F= -.64936814E+03 E0= -.64937438E+03  d E =-.140931E-02
 trial-energy change:   -0.001409  1 .order   -0.001400   -0.002136   -0.000665
 step:   2.2427(harm=  2.2779)  dis= 0.00420  next Energy=  -649.368281 (dE=-0.155E-02)
 bond charge predicted
       N       E                     dE             d eps       ncg     rms          rms(c)
DAV:   1    -0.649367430121E+03    0.70683E-03   -0.25253E-01 10524   0.101E+00    0.893E-02
DAV:   2    -0.649368265006E+03   -0.83489E-03   -0.85816E-03 10562   0.182E-01    0.553E-02
DAV:   3    -0.649368336795E+03   -0.71790E-04   -0.82282E-04 15624   0.651E-02    0.593E-02
DAV:   4    -0.649368291875E+03    0.44920E-04   -0.28798E-04 13504   0.387E-02    0.301E-02
DAV:   5    -0.649368300834E+03   -0.89593E-05   -0.10353E-04 14370   0.230E-02    0.298E-02
DAV:   6    -0.649368288922E+03    0.11912E-04   -0.62852E-05 13112   0.182E-02    0.112E-02
DAV:   7    -0.649368289333E+03   -0.41038E-06   -0.20631E-05 12608   0.954E-03    0.954E-03
DAV:   8    -0.649368287984E+03    0.13484E-05   -0.73054E-06 10544   0.634E-03    0.462E-03
DAV:   9    -0.649368287653E+03    0.33120E-06   -0.17635E-06  8648   0.361E-03
  16 F= -.64936829E+03 E0= -.64937453E+03  d E =-.155972E-02
 curvature:  -1.42 expect dE=-0.959E-03 dE for cont linesearch -0.133E-07
 trial: gam= 0.49269 g(F)=  0.677E-03 g(S)=  0.000E+00 ort = 0.400E-05 (trialstep = 0.170E+01)
 search vector abs. value=  0.109E-02
 bond charge predicted
       N       E                     dE             d eps       ncg     rms          rms(c)
DAV:   1    -0.649365848620E+03    0.24394E-02   -0.98275E-01 10540   0.191E+00    0.152E-01
DAV:   2    -0.649369105175E+03   -0.32566E-02   -0.33446E-02 10550   0.352E-01    0.106E-01
DAV:   3    -0.649369315884E+03   -0.21071E-03   -0.30647E-03 15546   0.119E-01    0.105E-01
DAV:   4    -0.649369171639E+03    0.14425E-03   -0.69862E-04 13488   0.583E-02    0.548E-02
DAV:   5    -0.649369205440E+03   -0.33801E-04   -0.35096E-04 15629   0.390E-02    0.566E-02
DAV:   6    -0.649369174645E+03    0.30795E-04   -0.29051E-04 13624   0.400E-02    0.317E-02
DAV:   7    -0.649369162484E+03    0.12162E-04   -0.11217E-04 14920   0.220E-02    0.151E-02
DAV:   8    -0.649369159934E+03    0.25496E-05   -0.26353E-05 12400   0.117E-02    0.997E-03
DAV:   9    -0.649369158320E+03    0.16137E-05   -0.85257E-06 11344   0.661E-03    0.450E-03
DAV:  10    -0.649369158552E+03   -0.23203E-06   -0.24793E-06  8736   0.401E-03
  17 F= -.64936916E+03 E0= -.64937541E+03  d E =-.870899E-03
 trial-energy change:   -0.000871  1 .order   -0.000858   -0.001157   -0.000560
 step:   3.0072(harm=  3.3001)  dis= 0.00566  next Energy=  -649.369378 (dE=-0.109E-02)
 bond charge predicted
       N       E                     dE             d eps       ncg     rms          rms(c)
DAV:   1    -0.649367468379E+03    0.16899E-02   -0.57561E-01 10540   0.146E+00    0.117E-01
DAV:   2    -0.649369372388E+03   -0.19040E-02   -0.19577E-02 10580   0.269E-01    0.794E-02
DAV:   3    -0.649369502822E+03   -0.13043E-03   -0.17772E-03 15559   0.899E-02    0.805E-02
DAV:   4    -0.649369417006E+03    0.85817E-04   -0.41084E-04 13504   0.450E-02    0.417E-02
DAV:   5    -0.649369438318E+03   -0.21312E-04   -0.20646E-04 15322   0.299E-02    0.435E-02
DAV:   6    -0.649369418873E+03    0.19446E-04   -0.16921E-04 13656   0.307E-02    0.237E-02
DAV:   7    -0.649369412399E+03    0.64739E-05   -0.64456E-05 14760   0.166E-02    0.116E-02
DAV:   8    -0.649369410749E+03    0.16495E-05   -0.14828E-05 11280   0.884E-03    0.731E-03
DAV:   9    -0.649369409912E+03    0.83676E-06   -0.47497E-06 10472   0.494E-03
  18 F= -.64936941E+03 E0= -.64937567E+03  d E =-.112226E-02
 curvature:  -2.57 expect dE=-0.128E-02 dE for cont linesearch -0.545E-05
 trial: gam= 0.66958 g(F)=  0.500E-03 g(S)=  0.000E+00 ort = 0.482E-04 (trialstep = 0.196E+01)
 search vector abs. value=  0.105E-02
 bond charge predicted
       N       E                     dE             d eps       ncg     rms          rms(c)
DAV:   1    -0.649365912921E+03    0.34978E-02   -0.12596E+00 10540   0.213E+00    0.188E-01
DAV:   2    -0.649369980191E+03   -0.40673E-02   -0.42341E-02 10616   0.389E-01    0.112E-01
DAV:   3    -0.649370262654E+03   -0.28246E-03   -0.33892E-03 15629   0.121E-01    0.108E-01
DAV:   4    -0.649370142515E+03    0.12014E-03   -0.10419E-03 13560   0.722E-02    0.686E-02
DAV:   5    -0.649370162778E+03   -0.20263E-04   -0.46678E-04 15042   0.438E-02    0.572E-02
DAV:   6    -0.649370117958E+03    0.44819E-04   -0.30753E-04 14757   0.374E-02    0.310E-02
DAV:   7    -0.649370107663E+03    0.10295E-04   -0.13566E-04 15008   0.228E-02    0.176E-02
DAV:   8    -0.649370102741E+03    0.49217E-05   -0.28834E-05 13597   0.120E-02    0.966E-03
DAV:   9    -0.649370101748E+03    0.99317E-06   -0.97088E-06 11232   0.706E-03
  19 F= -.64937010E+03 E0= -.64937644E+03  d E =-.691836E-03
 trial-energy change:   -0.000692  1 .order   -0.000685   -0.001045   -0.000324
 step:   2.7751(harm=  2.8446)  dis= 0.00614  next Energy=  -649.370169 (dE=-0.759E-03)
 bond charge predicted
       N       E                     dE             d eps       ncg     rms          rms(c)
DAV:   1    -0.649369466205E+03    0.63654E-03   -0.21473E-01 10540   0.879E-01    0.778E-02
DAV:   2    -0.649370159886E+03   -0.69368E-03   -0.72172E-03 10688   0.161E-01    0.463E-02
DAV:   3    -0.649370208677E+03   -0.48791E-04   -0.57423E-04 15593   0.494E-02    0.450E-02
DAV:   4    -0.649370188818E+03    0.19859E-04   -0.18065E-04 13568   0.302E-02    0.290E-02
DAV:   5    -0.649370192401E+03   -0.35831E-05   -0.83193E-05 14708   0.190E-02    0.238E-02
DAV:   6    -0.649370184250E+03    0.81505E-05   -0.53090E-05 14352   0.158E-02    0.128E-02
DAV:   7    -0.649370182546E+03    0.17047E-05   -0.22935E-05 12784   0.948E-03    0.733E-03
DAV:   8    -0.649370181676E+03    0.87003E-06   -0.45163E-06 10280   0.499E-03
  20 F= -.64937018E+03 E0= -.64937655E+03  d E =-.771763E-03
 curvature:  -2.80 expect dE=-0.134E-02 dE for cont linesearch -0.486E-06
 trial: gam= 1.03780 g(F)=  0.477E-03 g(S)=  0.000E+00 ort = 0.135E-04 (trialstep = 0.137E+01)
 search vector abs. value=  0.164E-02
 bond charge predicted
       N       E                     dE             d eps       ncg     rms          rms(c)
DAV:   1    -0.649367527111E+03    0.26554E-02   -0.96679E-01 10540   0.187E+00    0.163E-01
DAV:   2    -0.649370620264E+03   -0.30932E-02   -0.32049E-02 10514   0.341E-01    0.101E-01
DAV:   3    -0.649370889978E+03   -0.26971E-03   -0.28310E-03 15621   0.118E-01    0.111E-01
DAV:   4    -0.649370716685E+03    0.17329E-03   -0.88159E-04 13528   0.684E-02    0.538E-02
DAV:   5    -0.649370740272E+03   -0.23587E-04   -0.29244E-04 14730   0.382E-02    0.493E-02
DAV:   6    -0.649370708042E+03    0.32229E-04   -0.20515E-04 13528   0.326E-02    0.226E-02
DAV:   7    -0.649370706054E+03    0.19889E-05   -0.63266E-05 14784   0.179E-02    0.166E-02
DAV:   8    -0.649370701791E+03    0.42623E-05   -0.23547E-05 12216   0.113E-02    0.777E-03
DAV:   9    -0.649370701292E+03    0.49964E-06   -0.64638E-06 11224   0.609E-03
  21 F= -.64937070E+03 E0= -.64937712E+03  d E =-.519616E-03
 trial-energy change:   -0.000520  1 .order   -0.000497   -0.000671   -0.000322
 step:   2.1477(harm=  2.6313)  dis= 0.00762  next Energy=  -649.370798 (dE=-0.616E-03)
 bond charge predicted
       N       E                     dE             d eps       ncg     rms          rms(c)
DAV:   1    -0.649369800311E+03    0.90148E-03   -0.31578E-01 10548   0.107E+00    0.937E-02
DAV:   2    -0.649370807735E+03   -0.10074E-02   -0.10451E-02 10532   0.195E-01    0.572E-02
DAV:   3    -0.649370896222E+03   -0.88487E-04   -0.91411E-04 15615   0.668E-02    0.631E-02
DAV:   4    -0.649370842275E+03    0.53947E-04   -0.29509E-04 13512   0.399E-02    0.314E-02
DAV:   5    -0.649370848078E+03   -0.58023E-05   -0.93973E-05 14543   0.226E-02    0.269E-02
DAV:   6    -0.649370839190E+03    0.88873E-05   -0.67301E-05 13248   0.193E-02    0.132E-02
DAV:   7    -0.649370838354E+03    0.83625E-06   -0.19744E-05 12800   0.102E-02    0.924E-03
DAV:   8    -0.649370837052E+03    0.13024E-05   -0.66920E-06 10432   0.640E-03    0.436E-03
DAV:   9    -0.649370836902E+03    0.14951E-06   -0.15582E-06  7704   0.355E-03
  22 F= -.64937084E+03 E0= -.64937729E+03  d E =-.655227E-03
 curvature:  -3.75 expect dE=-0.105E-02 dE for cont linesearch -0.202E-04
 ZBRENT: increasing intervall
 opt :   3.7098  next Energy=  -649.370762 (dE=-0.580E-03)
 bond charge predicted
       N       E                     dE             d eps       ncg     rms          rms(c)
DAV:   1    -0.649366620663E+03    0.42164E-02   -0.12627E+00 10540   0.214E+00    0.187E-01
DAV:   2    -0.649370651801E+03   -0.40311E-02   -0.41823E-02 10520   0.389E-01    0.114E-01
DAV:   3    -0.649371003135E+03   -0.35133E-03   -0.36352E-03 15621   0.132E-01    0.125E-01
DAV:   4    -0.649370789948E+03    0.21319E-03   -0.11517E-03 13512   0.782E-02    0.627E-02
DAV:   5    -0.649370807295E+03   -0.17347E-04   -0.35013E-04 14586   0.429E-02    0.512E-02
DAV:   6    -0.649370776319E+03    0.30977E-04   -0.25036E-04 13456   0.363E-02    0.259E-02
DAV:   7    -0.649370772534E+03    0.37848E-05   -0.77671E-05 14816   0.196E-02    0.182E-02
DAV:   8    -0.649370767364E+03    0.51700E-05   -0.28493E-05 12760   0.126E-02    0.882E-03
DAV:   9    -0.649370766686E+03    0.67835E-06   -0.84538E-06 11680   0.680E-03
  23 F= -.64937077E+03 E0= -.64937728E+03  d E =-.585010E-03
 curvature:  13.92 expect dE= 0.117E-01 dE for cont linesearch  0.362E-03
 ZBRENT: bracketing found
 ZBRENT: interpolating
 opt :   2.6360  next Energy=  -649.370860 (dE=-0.678E-03)
 bond charge predicted
       N       E                     dE             d eps       ncg     rms          rms(c)
DAV:   1    -0.649368911467E+03    0.18559E-02   -0.59656E-01 10540   0.147E+00    0.128E-01
DAV:   2    -0.649370813540E+03   -0.19021E-02   -0.19726E-02 10514   0.268E-01    0.781E-02
DAV:   3    -0.649370977106E+03   -0.16357E-03   -0.17108E-03 15613   0.917E-02    0.861E-02
DAV:   4    -0.649370877371E+03    0.99734E-04   -0.55699E-04 13488   0.548E-02    0.427E-02
DAV:   5    -0.649370885833E+03   -0.84619E-05   -0.16832E-04 14602   0.309E-02    0.360E-02
DAV:   6    -0.649370869996E+03    0.15837E-04   -0.11912E-04 13408   0.259E-02    0.177E-02
DAV:   7    -0.649370868047E+03    0.19489E-05   -0.33318E-05 14032   0.136E-02    0.122E-02
DAV:   8    -0.649370865892E+03    0.21545E-05   -0.11673E-05 11184   0.843E-03    0.631E-03
DAV:   9    -0.649370865388E+03    0.50398E-06   -0.35169E-06  9776   0.473E-03
  24 F= -.64937087E+03 E0= -.64937734E+03  d E =-.683713E-03
 curvature:  -0.88 expect dE=-0.345E-03 dE for cont linesearch -0.985E-07
 trial: gam= 0.79041 g(F)=  0.391E-03 g(S)=  0.000E+00 ort = 0.135E-04 (trialstep = 0.162E+01)
 search vector abs. value=  0.144E-02
 bond charge predicted
       N       E                     dE             d eps       ncg     rms          rms(c)
DAV:   1    -0.649367078312E+03    0.37876E-02   -0.12833E+00 10460   0.224E+00    0.174E-01
DAV:   2    -0.649371192324E+03   -0.41140E-02   -0.42731E-02 10498   0.401E-01    0.105E-01
DAV:   3    -0.649371494688E+03   -0.30236E-03   -0.32650E-03 15576   0.124E-01    0.109E-01
DAV:   4    -0.649371345716E+03    0.14897E-03   -0.83361E-04 13480   0.669E-02    0.574E-02
DAV:   5    -0.649371386161E+03   -0.40445E-04   -0.35660E-04 14920   0.389E-02    0.577E-02
DAV:   6    -0.649371339327E+03    0.46834E-04   -0.26914E-04 13944   0.388E-02    0.270E-02
DAV:   7    -0.649371335305E+03    0.40215E-05   -0.95392E-05 14824   0.211E-02    0.167E-02
DAV:   8    -0.649371330678E+03    0.46272E-05   -0.28026E-05 13232   0.124E-02    0.802E-03
DAV:   9    -0.649371330322E+03    0.35571E-06   -0.87200E-06 11400   0.659E-03
  25 F= -.64937133E+03 E0= -.64937784E+03  d E =-.464934E-03
 trial-energy change:   -0.000465  1 .order   -0.000458   -0.000651   -0.000265
 step:   2.5643(harm=  2.7292)  dis= 0.01078  next Energy=  -649.371409 (dE=-0.543E-03)
 bond charge predicted
       N       E                     dE             d eps       ncg     rms          rms(c)
DAV:   1    -0.649369995377E+03    0.13353E-02   -0.43534E-01 10468   0.131E+00    0.102E-01
DAV:   2    -0.649371388653E+03   -0.13933E-02   -0.14478E-02 10488   0.233E-01    0.605E-02
DAV:   3    -0.649371490499E+03   -0.10185E-03   -0.10916E-03 15554   0.713E-02    0.622E-02
DAV:   4    -0.649371445077E+03    0.45422E-04   -0.28327E-04 13488   0.395E-02    0.345E-02
DAV:   5    -0.649371456464E+03   -0.11387E-04   -0.11902E-04 14778   0.229E-02    0.320E-02
DAV:   6    -0.649371442686E+03    0.13778E-04   -0.90057E-05 13952   0.222E-02    0.162E-02
DAV:   7    -0.649371441120E+03    0.15656E-05   -0.33339E-05 14056   0.125E-02    0.992E-03
DAV:   8    -0.649371439424E+03    0.16964E-05   -0.95775E-06 11928   0.717E-03    0.445E-03
DAV:   9    -0.649371439363E+03    0.60711E-07   -0.26426E-06  9328   0.377E-03
  26 F= -.64937144E+03 E0= -.64937798E+03  d E =-.573975E-03
 curvature:  -4.77 expect dE=-0.104E-02 dE for cont linesearch -0.572E-05
 trial: gam= 0.42066 g(F)=  0.217E-03 g(S)=  0.000E+00 ort = 0.415E-04 (trialstep = 0.181E+01)
 search vector abs. value=  0.507E-03
 bond charge predicted
       N       E                     dE             d eps       ncg     rms          rms(c)
DAV:   1    -0.649369872227E+03    0.15672E-02   -0.58506E-01 10468   0.151E+00    0.118E-01
DAV:   2    -0.649371699419E+03   -0.18272E-02   -0.18967E-02 10488   0.265E-01    0.668E-02
DAV:   3    -0.649371803896E+03   -0.10448E-03   -0.12778E-03 15413   0.744E-02    0.582E-02
DAV:   4    -0.649371786955E+03    0.16941E-04   -0.36329E-04 13552   0.431E-02    0.432E-02
DAV:   5    -0.649371789717E+03   -0.27618E-05   -0.14418E-04 14605   0.271E-02    0.343E-02
DAV:   6    -0.649371772798E+03    0.16919E-04   -0.10344E-04 13752   0.228E-02    0.154E-02
DAV:   7    -0.649371772740E+03    0.57742E-07   -0.32497E-05 13888   0.122E-02    0.116E-02
DAV:   8    -0.649371770496E+03    0.22436E-05   -0.10441E-05 11984   0.779E-03    0.526E-03
DAV:   9    -0.649371770206E+03    0.29078E-06   -0.26878E-06  9376   0.385E-03
  27 F= -.64937177E+03 E0= -.64937831E+03  d E =-.330843E-03
 trial-energy change:   -0.000331  1 .order   -0.000324   -0.000425   -0.000223
 step:   3.2813(harm=  3.8178)  dis= 0.00845  next Energy=  -649.371865 (dE=-0.425E-03)
 bond charge predicted
       N       E                     dE             d eps       ncg     rms          rms(c)
DAV:   1    -0.649370644008E+03    0.11265E-02   -0.38722E-01 10460   0.123E+00    0.964E-02
DAV:   2    -0.649371853183E+03   -0.12092E-02   -0.12553E-02 10488   0.215E-01    0.542E-02
DAV:   3    -0.649371921306E+03   -0.68124E-04   -0.83967E-04 15402   0.602E-02    0.465E-02
DAV:   4    -0.649371912677E+03    0.86295E-05   -0.24201E-04 13584   0.352E-02    0.357E-02
DAV:   5    -0.649371912717E+03   -0.40396E-07   -0.95239E-05 14532   0.226E-02    0.270E-02
DAV:   6    -0.649371902638E+03    0.10079E-04   -0.65160E-05 13680   0.181E-02    0.128E-02
DAV:   7    -0.649371902481E+03    0.15702E-06   -0.21250E-05 12776   0.989E-03    0.946E-03
DAV:   8    -0.649371900945E+03    0.15365E-05   -0.67462E-06 11160   0.628E-03    0.421E-03
DAV:   9    -0.649371900749E+03    0.19581E-06   -0.15696E-06  7960   0.320E-03
  28 F= -.64937190E+03 E0= -.64937844E+03  d E =-.461386E-03
 curvature:  -3.83 expect dE=-0.661E-03 dE for cont linesearch -0.931E-05
 ZBRENT: extrapolating
 opt :   3.8662  next Energy=  -649.371911 (dE=-0.472E-03)
 bond charge predicted
       N       E                     dE             d eps       ncg     rms          rms(c)
DAV:   1    -0.649371715198E+03    0.18575E-03   -0.61146E-02 10460   0.490E-01    0.384E-02
DAV:   2    -0.649371906123E+03   -0.19093E-03   -0.19815E-03 10546   0.855E-02    0.216E-02
DAV:   3    -0.649371917129E+03   -0.11006E-04   -0.13352E-04 15392   0.241E-02    0.186E-02
DAV:   4    -0.649371916052E+03    0.10774E-05   -0.39737E-05 13392   0.143E-02    0.146E-02
DAV:   5    -0.649371916069E+03   -0.17186E-07   -0.16017E-05 12306   0.969E-03    0.113E-02
DAV:   6    -0.649371914413E+03    0.16559E-05   -0.10377E-05 10784   0.767E-03    0.538E-03
DAV:   7    -0.649371914317E+03    0.96610E-07   -0.28820E-06  9152   0.417E-03
  29 F= -.64937191E+03 E0= -.64937846E+03  d E =-.474954E-03
 curvature:  -4.22 expect dE=-0.102E-02 dE for cont linesearch -0.103E-06
 trial: gam= 1.25844 g(F)=  0.243E-03 g(S)=  0.000E+00 ort =-0.352E-05 (trialstep = 0.109E+01)
 search vector abs. value=  0.104E-02
 bond charge predicted
       N       E                     dE             d eps       ncg     rms          rms(c)
DAV:   1    -0.649370776987E+03    0.11374E-02   -0.43382E-01 10460   0.129E+00    0.104E-01
DAV:   2    -0.649372145442E+03   -0.13685E-02   -0.13874E-02 10576   0.228E-01    0.740E-02
DAV:   3    -0.649372227161E+03   -0.81719E-04   -0.12371E-03 15522   0.850E-02    0.751E-02
DAV:   4    -0.649372142903E+03    0.84257E-04   -0.32779E-04 13576   0.412E-02    0.317E-02
DAV:   5    -0.649372169481E+03   -0.26578E-04   -0.17022E-04 14882   0.271E-02    0.415E-02
DAV:   6    -0.649372142939E+03    0.26543E-04   -0.11113E-04 13440   0.249E-02    0.145E-02
DAV:   7    -0.649372141810E+03    0.11289E-05   -0.29578E-05 14000   0.124E-02    0.936E-03
DAV:   8    -0.649372140883E+03    0.92734E-06   -0.76595E-06 10624   0.653E-03
  30 F= -.64937214E+03 E0= -.64937869E+03  d E =-.226566E-03
 trial-energy change:   -0.000227  1 .order   -0.000210   -0.000259   -0.000162
 step:   1.7708(harm=  2.8938)  dis= 0.00709  next Energy=  -649.372196 (dE=-0.282E-03)
 bond charge predicted
       N       E                     dE             d eps       ncg     rms          rms(c)
DAV:   1    -0.649371688595E+03    0.45321E-03   -0.17281E-01 10452   0.816E-01    0.659E-02
DAV:   2    -0.649372233623E+03   -0.54503E-03   -0.55247E-03 10560   0.144E-01    0.465E-02
DAV:   3    -0.649372266578E+03   -0.32954E-04   -0.49219E-04 15516   0.535E-02    0.474E-02
DAV:   4    -0.649372233806E+03    0.32772E-04   -0.12992E-04 13488   0.259E-02    0.205E-02
DAV:   5    -0.649372244004E+03   -0.10198E-04   -0.67470E-05 14398   0.173E-02    0.260E-02
DAV:   6    -0.649372233984E+03    0.10020E-04   -0.44486E-05 13336   0.158E-02    0.931E-03
DAV:   7    -0.649372233599E+03    0.38512E-06   -0.12269E-05 12048   0.806E-03    0.628E-03
DAV:   8    -0.649372233135E+03    0.46387E-06   -0.31913E-06  9056   0.438E-03
  31 F= -.64937223E+03 E0= -.64937878E+03  d E =-.318818E-03
 curvature:  -3.86 expect dE=-0.449E-03 dE for cont linesearch -0.345E-04
 ZBRENT: increasing intervall
 opt :   3.1411  next Energy=  -649.372293 (dE=-0.378E-03)
 bond charge predicted
       N       E                     dE             d eps       ncg     rms          rms(c)
DAV:   1    -0.649370126832E+03    0.21068E-02   -0.69115E-01 10452   0.163E+00    0.131E-01
DAV:   2    -0.649372304149E+03   -0.21773E-02   -0.22102E-02 10560   0.288E-01    0.920E-02
DAV:   3    -0.649372438834E+03   -0.13469E-03   -0.19464E-03 15509   0.106E-01    0.944E-02
DAV:   4    -0.649372306559E+03    0.13228E-03   -0.51924E-04 13552   0.518E-02    0.403E-02
DAV:   5    -0.649372347541E+03   -0.40981E-04   -0.26589E-04 14941   0.341E-02    0.518E-02
DAV:   6    -0.649372306218E+03    0.41322E-04   -0.17595E-04 13424   0.314E-02    0.182E-02
DAV:   7    -0.649372304793E+03    0.14254E-05   -0.48086E-05 14440   0.157E-02    0.123E-02
DAV:   8    -0.649372302989E+03    0.18038E-05   -0.12853E-05 11136   0.848E-03    0.608E-03
DAV:   9    -0.649372302519E+03    0.47013E-06   -0.31442E-06  9536   0.484E-03
  32 F= -.64937230E+03 E0= -.64937885E+03  d E =-.388202E-03
 curvature:  -6.66 expect dE=-0.150E-02 dE for cont linesearch -0.230E-05
 trial: gam= 0.92850 g(F)=  0.224E-03 g(S)=  0.000E+00 ort =-0.189E-04 (trialstep = 0.143E+01)
 search vector abs. value=  0.108E-02
 bond charge predicted
       N       E                     dE             d eps       ncg     rms          rms(c)
DAV:   1    -0.649370070617E+03    0.22324E-02   -0.78773E-01 10452   0.175E+00    0.140E-01
DAV:   2    -0.649372453582E+03   -0.23830E-02   -0.24666E-02 10472   0.301E-01    0.821E-02
DAV:   3    -0.649372628720E+03   -0.17514E-03   -0.17954E-03 15621   0.945E-02    0.871E-02
DAV:   4    -0.649372527004E+03    0.10172E-03   -0.52808E-04 13464   0.525E-02    0.438E-02
DAV:   5    -0.649372559377E+03   -0.32372E-04   -0.23448E-04 15178   0.321E-02    0.477E-02
DAV:   6    -0.649372521248E+03    0.38129E-04   -0.17274E-04 13496   0.312E-02    0.164E-02
DAV:   7    -0.649372522420E+03   -0.11722E-05   -0.44533E-05 14248   0.145E-02    0.135E-02
DAV:   8    -0.649372519594E+03    0.28257E-05   -0.14980E-05 11616   0.939E-03    0.627E-03
DAV:   9    -0.649372519214E+03    0.38023E-06   -0.41785E-06 10312   0.469E-03
  33 F= -.64937252E+03 E0= -.64937910E+03  d E =-.216695E-03
 trial-energy change:   -0.000217  1 .order   -0.000203   -0.000296   -0.000110
 step:   1.9675(harm=  2.2834)  dis= 0.00756  next Energy=  -649.372541 (dE=-0.238E-03)
 bond charge predicted
       N       E                     dE             d eps       ncg     rms          rms(c)
DAV:   1    -0.649372210527E+03    0.30907E-03   -0.10984E-01 10452   0.654E-01    0.525E-02
DAV:   2    -0.649372542416E+03   -0.33189E-03   -0.34351E-03 10512   0.112E-01    0.306E-02
DAV:   3    -0.649372567489E+03   -0.25073E-04   -0.25003E-04 15546   0.356E-02    0.330E-02
DAV:   4    -0.649372553487E+03    0.14002E-04   -0.76716E-05 13424   0.203E-02    0.170E-02
DAV:   5    -0.649372557809E+03   -0.43214E-05   -0.33625E-05 14375   0.124E-02    0.178E-02
DAV:   6    -0.649372552634E+03    0.51743E-05   -0.24459E-05 12880   0.118E-02    0.617E-03
DAV:   7    -0.649372552835E+03   -0.20054E-06   -0.60843E-06 10973   0.545E-03
  34 F= -.64937255E+03 E0= -.64937914E+03  d E =-.250316E-03
 curvature:  -5.15 expect dE=-0.626E-03 dE for cont linesearch -0.287E-05
 ZBRENT: extrapolating
 opt :   2.2176  next Energy=  -649.372556 (dE=-0.253E-03)
 bond charge predicted
       N       E                     dE             d eps       ncg     rms          rms(c)
DAV:   1    -0.649372485070E+03    0.67564E-04   -0.24039E-02 10458   0.306E-01    0.247E-02
DAV:   2    -0.649372557935E+03   -0.72865E-04   -0.75215E-04 10560   0.529E-02    0.148E-02
DAV:   3    -0.649372563540E+03   -0.56050E-05   -0.58343E-05 15592   0.177E-02    0.160E-02
DAV:   4    -0.649372560184E+03    0.33566E-05   -0.18005E-05 12752   0.992E-03    0.797E-03
DAV:   5    -0.649372560899E+03   -0.71560E-06   -0.62705E-06 10737   0.547E-03
  35 F= -.64937256E+03 E0= -.64937915E+03  d E =-.258380E-03
 curvature:  -5.51 expect dE=-0.797E-03 dE for cont linesearch -0.109E-06
 trial: gam= 0.47860 g(F)=  0.144E-03 g(S)=  0.000E+00 ort =-0.462E-05 (trialstep = 0.159E+01)
 search vector abs. value=  0.388E-03
 bond charge predicted
       N       E                     dE             d eps       ncg     rms          rms(c)
DAV:   1    -0.649371591278E+03    0.96891E-03   -0.34625E-01 10452   0.119E+00    0.934E-02
DAV:   2    -0.649372677076E+03   -0.10858E-02   -0.11245E-02 10496   0.208E-01    0.537E-02
DAV:   3    -0.649372747301E+03   -0.70226E-04   -0.78301E-04 15434   0.599E-02    0.513E-02
DAV:   4    -0.649372726384E+03    0.20918E-04   -0.27173E-04 13528   0.382E-02    0.356E-02
DAV:   5    -0.649372721827E+03    0.45563E-05   -0.82755E-05 14010   0.211E-02    0.217E-02
DAV:   6    -0.649372717292E+03    0.45349E-05   -0.48053E-05 13760   0.162E-02    0.128E-02
DAV:   7    -0.649372717085E+03    0.20770E-06   -0.22367E-05 13072   0.103E-02    0.983E-03
DAV:   8    -0.649372715275E+03    0.18095E-05   -0.77425E-06 11224   0.649E-03    0.404E-03
DAV:   9    -0.649372715086E+03    0.18894E-06   -0.14272E-06  7800   0.294E-03
  36 F= -.64937272E+03 E0= -.64937934E+03  d E =-.154187E-03
 trial-energy change:   -0.000154  1 .order   -0.000150   -0.000226   -0.000073
 step:   2.2071(harm=  2.3548)  dis= 0.00421  next Energy=  -649.372730 (dE=-0.169E-03)
 bond charge predicted
       N       E                     dE             d eps       ncg     rms          rms(c)
DAV:   1    -0.649372560947E+03    0.15433E-03   -0.52209E-02 10452   0.463E-01    0.363E-02
DAV:   2    -0.649372724157E+03   -0.16321E-03   -0.16926E-03 10538   0.805E-02    0.204E-02
DAV:   3    -0.649372734321E+03   -0.10164E-04   -0.11388E-04 15421   0.228E-02    0.186E-02
DAV:   4    -0.649372732761E+03    0.15603E-05   -0.38667E-05 13360   0.147E-02    0.146E-02
DAV:   5    -0.649372732044E+03    0.71691E-06   -0.14252E-05 12074   0.926E-03    0.950E-03
DAV:   6    -0.649372731034E+03    0.10096E-05   -0.78937E-06 10504   0.700E-03    0.529E-03
DAV:   7    -0.649372730838E+03    0.19615E-06   -0.24911E-06  8669   0.415E-03
  37 F= -.64937273E+03 E0= -.64937937E+03  d E =-.169939E-03
 curvature:  -3.09 expect dE=-0.284E-03 dE for cont linesearch -0.940E-07
 trial: gam= 0.66678 g(F)=  0.920E-04 g(S)=  0.000E+00 ort = 0.343E-05 (trialstep = 0.171E+01)
 search vector abs. value=  0.269E-03
 bond charge predicted
       N       E                     dE             d eps       ncg     rms          rms(c)
DAV:   1    -0.649371948168E+03    0.78287E-03   -0.27345E-01 10452   0.107E+00    0.817E-02
DAV:   2    -0.649372825600E+03   -0.87743E-03   -0.91232E-03 10480   0.188E-01    0.461E-02
DAV:   3    -0.649372882908E+03   -0.57308E-04   -0.63039E-04 15402   0.533E-02    0.450E-02
DAV:   4    -0.649372863009E+03    0.19899E-04   -0.17794E-04 13496   0.312E-02    0.280E-02
DAV:   5    -0.649372866436E+03   -0.34270E-05   -0.64271E-05 14535   0.172E-02    0.234E-02
DAV:   6    -0.649372858468E+03    0.79678E-05   -0.45438E-05 13592   0.155E-02    0.104E-02
DAV:   7    -0.649372858697E+03   -0.22838E-06   -0.16938E-05 13200   0.907E-03    0.817E-03
DAV:   8    -0.649372857311E+03    0.13854E-05   -0.56611E-06 10808   0.570E-03    0.343E-03
DAV:   9    -0.649372857216E+03    0.94980E-07   -0.13306E-06  7864   0.292E-03
  38 F= -.64937286E+03 E0= -.64937954E+03  d E =-.126378E-03
 trial-energy change:   -0.000126  1 .order   -0.000125   -0.000161   -0.000090
 step:   3.8435(harm=  3.8435)  dis= 0.00590  next Energy=  -649.372912 (dE=-0.181E-03)
 bond charge predicted
       N       E                     dE             d eps       ncg     rms          rms(c)
DAV:   1    -0.649371509141E+03    0.13482E-02   -0.42279E-01 10452   0.132E+00    0.102E-01
DAV:   2    -0.649372866124E+03   -0.13570E-02   -0.14112E-02 10458   0.233E-01    0.573E-02
DAV:   3    -0.649372954051E+03   -0.87927E-04   -0.96840E-04 15389   0.658E-02    0.557E-02
DAV:   4    -0.649372923304E+03    0.30747E-04   -0.26854E-04 13520   0.381E-02    0.345E-02
DAV:   5    -0.649372929630E+03   -0.63268E-05   -0.10124E-04 14626   0.211E-02    0.296E-02
DAV:   6    -0.649372916625E+03    0.13005E-04   -0.73637E-05 13664   0.199E-02    0.130E-02
DAV:   7    -0.649372916959E+03   -0.33385E-06   -0.26789E-05 14280   0.113E-02    0.101E-02
DAV:   8    -0.649372914798E+03    0.21606E-05   -0.88774E-06 11736   0.700E-03    0.421E-03
DAV:   9    -0.649372914692E+03    0.10629E-06   -0.23377E-06  9224   0.347E-03
  39 F= -.64937291E+03 E0= -.64937965E+03  d E =-.183854E-03
 curvature:  -5.49 expect dE=-0.513E-03 dE for cont linesearch -0.274E-06
 trial: gam= 1.12838 g(F)=  0.935E-04 g(S)=  0.000E+00 ort =-0.366E-05 (trialstep = 0.135E+01)
 search vector abs. value=  0.428E-03
 bond charge predicted
       N       E                     dE             d eps       ncg     rms          rms(c)
DAV:   1    -0.649372131311E+03    0.78349E-03   -0.26907E-01 10452   0.105E+00    0.802E-02
DAV:   2    -0.649372985238E+03   -0.85393E-03   -0.88885E-03 10490   0.184E-01    0.447E-02
DAV:   3    -0.649373046495E+03   -0.61257E-04   -0.62403E-04 15541   0.516E-02    0.471E-02
DAV:   4    -0.649373017277E+03    0.29217E-04   -0.16000E-04 13512   0.286E-02    0.246E-02
DAV:   5    -0.649373025410E+03   -0.81325E-05   -0.68402E-05 14530   0.173E-02    0.247E-02
DAV:   6    -0.649373015860E+03    0.95496E-05   -0.50941E-05 13568   0.172E-02    0.948E-03
DAV:   7    -0.649373016079E+03   -0.21921E-06   -0.14455E-05 12592   0.845E-03    0.731E-03
DAV:   8    -0.649373015059E+03    0.10203E-05   -0.41568E-06 10144   0.525E-03    0.317E-03
DAV:   9    -0.649373015045E+03    0.13650E-07   -0.11539E-06  7304   0.289E-03
  40 F= -.64937302E+03 E0= -.64937978E+03  d E =-.100354E-03
 trial-energy change:   -0.000100  1 .order   -0.000099   -0.000120   -0.000078
 step:   3.8281(harm=  3.8281)  dis= 0.00778  next Energy=  -649.373086 (dE=-0.171E-03)
 bond charge predicted
       N       E                     dE             d eps       ncg     rms          rms(c)
DAV:   1    -0.649370086076E+03    0.29290E-02   -0.91647E-01 10452   0.193E+00    0.148E-01
DAV:   2    -0.649372999561E+03   -0.29135E-02   -0.30325E-02 10490   0.339E-01    0.827E-02
DAV:   3    -0.649373204006E+03   -0.20445E-03   -0.21139E-03 15541   0.954E-02    0.862E-02
DAV:   4    -0.649373108697E+03    0.95310E-04   -0.54313E-04 13480   0.528E-02    0.458E-02
DAV:   5    -0.649373137179E+03   -0.28482E-04   -0.24241E-04 14701   0.324E-02    0.470E-02
DAV:   6    -0.649373101854E+03    0.35325E-04   -0.17780E-04 13584   0.319E-02    0.168E-02
DAV:   7    -0.649373103072E+03   -0.12181E-05   -0.48114E-05 14560   0.154E-02    0.136E-02
DAV:   8    -0.649373099713E+03    0.33594E-05   -0.15126E-05 12272   0.978E-03    0.604E-03
DAV:   9    -0.649373099630E+03    0.83077E-07   -0.49459E-06 10720   0.498E-03
  41 F= -.64937310E+03 E0= -.64937991E+03  d E =-.184938E-03
 curvature:  -9.16 expect dE=-0.747E-03 dE for cont linesearch -0.286E-06
 trial: gam= 0.78114 g(F)=  0.816E-04 g(S)=  0.000E+00 ort =-0.366E-05 (trialstep = 0.184E+01)
 search vector abs. value=  0.337E-03
 bond charge predicted
       N       E                     dE             d eps       ncg     rms          rms(c)
DAV:   1    -0.649371850597E+03    0.12491E-02   -0.39041E-01 10460   0.127E+00    0.997E-02
DAV:   2    -0.649373135751E+03   -0.12852E-02   -0.13393E-02 10474   0.227E-01    0.552E-02
DAV:   3    -0.649373215073E+03   -0.79322E-04   -0.90749E-04 15517   0.607E-02    0.501E-02
DAV:   4    -0.649373204138E+03    0.10934E-04   -0.27595E-04 13536   0.379E-02    0.397E-02
DAV:   5    -0.649373201048E+03    0.30904E-05   -0.11625E-04 14066   0.253E-02    0.284E-02
DAV:   6    -0.649373189780E+03    0.11268E-04   -0.67242E-05 13888   0.195E-02    0.134E-02
DAV:   7    -0.649373189511E+03    0.26877E-06   -0.27245E-05 13160   0.114E-02    0.107E-02
DAV:   8    -0.649373187514E+03    0.19972E-05   -0.82428E-06 11080   0.703E-03    0.433E-03
DAV:   9    -0.649373187370E+03    0.14393E-06   -0.18878E-06  8672   0.331E-03
  42 F= -.64937319E+03 E0= -.64938002E+03  d E =-.877402E-04
 trial-energy change:   -0.000088  1 .order   -0.000081   -0.000145   -0.000016
 step:   2.0143(harm=  2.0765)  dis= 0.00326  next Energy=  -649.373188 (dE=-0.885E-04)
 reached required accuracy - stopping structural energy minimisation
 PROFILE, used timers:     228
