ni3al                                   
           1
     9.498400    0.000000    0.000000
     0.000000    9.498400    0.000000
     0.000000    0.000000   24.502899
   Mo   Nb   O 
    60     2     1
Direct configuration=     1
   0.00000000  0.00000000  0.00000000
   0.99553000  0.98067000  0.38275000
   0.16667000  0.16667000  0.06464000
   0.33333000  0.00000000  0.00000000
   0.33105000  0.00485000  0.37968000
   0.50000000  0.16667000  0.06464000
   0.66667000  0.00000000  0.00000000
   0.67746000  0.00148000  0.38118000
   0.83333000  0.16667000  0.06464000
   0.00000000  0.33333000  0.00000000
   0.16667000  0.50000000  0.06464000
   0.33333000  0.33333000  0.00000000
   0.50000000  0.50000000  0.06464000
   0.66667000  0.33333000  0.00000000
   0.83333000  0.50000000  0.06464000
   0.00000000  0.66667000  0.00000000
   0.98910000  0.68780000  0.38297000
   0.16667000  0.83333000  0.06464000
   0.33333000  0.66667000  0.00000000
   0.50000000  0.83333000  0.06464000
   0.66667000  0.66667000  0.00000000
   0.68550000  0.66388000  0.38170000
   0.83333000  0.83333000  0.06464000
   0.00000000  0.00000000  0.12928000
   0.16667000  0.16667000  0.19391000
   0.33333000  0.00000000  0.12928000
   0.50000000  0.16667000  0.19391000
   0.66667000  0.00000000  0.12928000
   0.83333000  0.16667000  0.19391000
   0.00000000  0.33333000  0.12928000
   0.16667000  0.50000000  0.19391000
   0.33333000  0.33333000  0.12928000
   0.50000000  0.50000000  0.19391000
   0.66667000  0.33333000  0.12928000
   0.83333000  0.50000000  0.19391000
   0.00000000  0.66667000  0.12928000
   0.16667000  0.83333000  0.19391000
   0.33333000  0.66667000  0.12928000
   0.50000000  0.83333000  0.19391000
   0.66667000  0.66667000  0.12928000
   0.83333000  0.83333000  0.19391000
   0.00000000  0.00000000  0.25855000
   0.16644000  0.16674000  0.32462000
   0.33333000  0.00000000  0.25855000
   0.49902000  0.16535000  0.32397000
   0.66667000  0.00000000  0.25855000
   0.83339000  0.16759000  0.32451000
   0.00000000  0.33333000  0.25855000
   0.16545000  0.49873000  0.32339000
   0.33333000  0.33333000  0.25855000
   0.49947000  0.50065000  0.32281000
   0.66667000  0.33333000  0.25855000
   0.83391000  0.49842000  0.32404000
   0.00000000  0.66667000  0.25855000
   0.16813000  0.83347000  0.32329000
   0.33333000  0.66667000  0.25855000
   0.49981000  0.83372000  0.32453000
   0.66667000  0.66667000  0.25855000
   0.83128000  0.83458000  0.32195000
   0.00774000  0.33332000  0.37962000
   0.65253000  0.33670000  0.38420000
   0.33050000  0.65992000  0.38394000
   0.51545000  0.53363000  0.44286000
Direct configuration=     2
   0.00000000  0.00000000  0.00000000
   0.99550030  0.98095995  0.38290511
   0.16667000  0.16667000  0.06464000
   0.33333000  0.00000000  0.00000000
   0.33092052  0.00451367  0.37968317
   0.50000000  0.16667000  0.06464000
   0.66667000  0.00000000  0.00000000
   0.67774169  0.00208591  0.38100356
   0.83333000  0.16667000  0.06464000
   0.00000000  0.33333000  0.00000000
   0.16667000  0.50000000  0.06464000
   0.33333000  0.33333000  0.00000000
   0.50000000  0.50000000  0.06464000
   0.66667000  0.33333000  0.00000000
   0.83333000  0.50000000  0.06464000
   0.00000000  0.66667000  0.00000000
   0.98933333  0.68844539  0.38260573
   0.16667000  0.83333000  0.06464000
   0.33333000  0.66667000  0.00000000
   0.50000000  0.83333000  0.06464000
   0.66667000  0.66667000  0.00000000
   0.67944692  0.66003016  0.38466371
   0.83333000  0.83333000  0.06464000
   0.00000000  0.00000000  0.12928000
   0.16667000  0.16667000  0.19391000
   0.33333000  0.00000000  0.12928000
   0.50000000  0.16667000  0.19391000
   0.66667000  0.00000000  0.12928000
   0.83333000  0.16667000  0.19391000
   0.00000000  0.33333000  0.12928000
   0.16667000  0.50000000  0.19391000
   0.33333000  0.33333000  0.12928000
   0.50000000  0.50000000  0.19391000
   0.66667000  0.33333000  0.12928000
   0.83333000  0.50000000  0.19391000
   0.00000000  0.66667000  0.12928000
   0.16667000  0.83333000  0.19391000
   0.33333000  0.66667000  0.12928000
   0.50000000  0.83333000  0.19391000
   0.66667000  0.66667000  0.12928000
   0.83333000  0.83333000  0.19391000
   0.00000000  0.00000000  0.25855000
   0.16630869  0.16678469  0.32466481
   0.33333000  0.00000000  0.25855000
   0.49896024  0.16495238  0.32373984
   0.66667000  0.00000000  0.25855000
   0.83374666  0.16727604  0.32442046
   0.00000000  0.33333000  0.25855000
   0.16504973  0.49856202  0.32305351
   0.33333000  0.33333000  0.25855000
   0.49872188  0.49997687  0.32284129
   0.66667000  0.33333000  0.25855000
   0.83418821  0.49860525  0.32382639
   0.00000000  0.66667000  0.25855000
   0.16740160  0.83423050  0.32301465
   0.33333000  0.66667000  0.25855000
   0.50018586  0.83437984  0.32410584
   0.66667000  0.66667000  0.25855000
   0.83187045  0.83531514  0.32168285
   0.00774211  0.33308891  0.37962069
   0.64899574  0.34038972  0.38665799
   0.33721710  0.65562351  0.38726096
   0.51825563  0.53652478  0.43577666
Direct configuration=     3
   0.00000000  0.00000000  0.00000000
   0.99546096  0.98134410  0.38311062
   0.16667000  0.16667000  0.06464000
   0.33333000  0.00000000  0.00000000
   0.33074898  0.00406807  0.37968736
   0.50000000  0.16667000  0.06464000
   0.66667000  0.00000000  0.00000000
   0.67811489  0.00288867  0.38076980
   0.83333000  0.16667000  0.06464000
   0.00000000  0.33333000  0.00000000
   0.16667000  0.50000000  0.06464000
   0.33333000  0.33333000  0.00000000
   0.50000000  0.50000000  0.06464000
   0.66667000  0.33333000  0.00000000
   0.83333000  0.50000000  0.06464000
   0.00000000  0.66667000  0.00000000
   0.98964247  0.68930046  0.38212312
   0.16667000  0.83333000  0.06464000
   0.33333000  0.66667000  0.00000000
   0.50000000  0.83333000  0.06464000
   0.66667000  0.66667000  0.00000000
   0.67142724  0.65492954  0.38859031
   0.83333000  0.83333000  0.06464000
   0.00000000  0.00000000  0.12928000
   0.16667000  0.16667000  0.19391000
   0.33333000  0.00000000  0.12928000
   0.50000000  0.16667000  0.19391000
   0.66667000  0.00000000  0.12928000
   0.83333000  0.16667000  0.19391000
   0.00000000  0.33333000  0.12928000
   0.16667000  0.50000000  0.19391000
   0.33333000  0.33333000  0.12928000
   0.50000000  0.50000000  0.19391000
   0.66667000  0.33333000  0.12928000
   0.83333000  0.50000000  0.19391000
   0.00000000  0.66667000  0.12928000
   0.16667000  0.83333000  0.19391000
   0.33333000  0.66667000  0.12928000
   0.50000000  0.83333000  0.19391000
   0.66667000  0.66667000  0.12928000
   0.83333000  0.83333000  0.19391000
   0.00000000  0.00000000  0.25855000
   0.16613471  0.16684391  0.32472419
   0.33333000  0.00000000  0.25855000
   0.49888107  0.16442558  0.32343490
   0.66667000  0.00000000  0.25855000
   0.83421920  0.16686008  0.32430183
   0.00000000  0.33333000  0.25855000
   0.16451941  0.49833947  0.32260769
   0.33333000  0.33333000  0.25855000
   0.49773071  0.49908504  0.32288276
   0.66667000  0.33333000  0.25855000
   0.83455682  0.49885068  0.32354338
   0.00000000  0.66667000  0.25855000
   0.16643654  0.83523809  0.32264985
   0.33333000  0.66667000  0.25855000
   0.50068384  0.83525406  0.32354387
   0.66667000  0.66667000  0.25855000
   0.83265273  0.83628913  0.32132891
   0.00774491  0.33278273  0.37962161
   0.64431322  0.34527822  0.38991456
   0.34611655  0.64993110  0.39166088
   0.52197278  0.54036006  0.42639197
Direct configuration=     4
   0.00000000  0.00000000  0.00000000
   0.99546802  0.98127509  0.38307370
   0.16667000  0.16667000  0.06464000
   0.33333000  0.00000000  0.00000000
   0.33077980  0.00414811  0.37968661
   0.50000000  0.16667000  0.06464000
   0.66667000  0.00000000  0.00000000
   0.67804785  0.00274446  0.38081179
   0.83333000  0.16667000  0.06464000
   0.00000000  0.33333000  0.00000000
   0.16667000  0.50000000  0.06464000
   0.33333000  0.33333000  0.00000000
   0.50000000  0.50000000  0.06464000
   0.66667000  0.33333000  0.00000000
   0.83333000  0.50000000  0.06464000
   0.00000000  0.66667000  0.00000000
   0.98958693  0.68914686  0.38220982
   0.16667000  0.83333000  0.06464000
   0.33333000  0.66667000  0.00000000
   0.50000000  0.83333000  0.06464000
   0.66667000  0.66667000  0.00000000
   0.67286790  0.65584582  0.38788493
   0.83333000  0.83333000  0.06464000
   0.00000000  0.00000000  0.12928000
   0.16667000  0.16667000  0.19391000
   0.33333000  0.00000000  0.12928000
   0.50000000  0.16667000  0.19391000
   0.66667000  0.00000000  0.12928000
   0.83333000  0.16667000  0.19391000
   0.00000000  0.33333000  0.12928000
   0.16667000  0.50000000  0.19391000
   0.33333000  0.33333000  0.12928000
   0.50000000  0.50000000  0.19391000
   0.66667000  0.33333000  0.12928000
   0.83333000  0.50000000  0.19391000
   0.00000000  0.66667000  0.12928000
   0.16667000  0.83333000  0.19391000
   0.33333000  0.66667000  0.12928000
   0.50000000  0.83333000  0.19391000
   0.66667000  0.66667000  0.12928000
   0.83333000  0.83333000  0.19391000
   0.00000000  0.00000000  0.25855000
   0.16616596  0.16683327  0.32471352
   0.33333000  0.00000000  0.25855000
   0.49889529  0.16452022  0.32348968
   0.66667000  0.00000000  0.25855000
   0.83413431  0.16693480  0.32432314
   0.00000000  0.33333000  0.25855000
   0.16461468  0.49837945  0.32268778
   0.33333000  0.33333000  0.25855000
   0.49790876  0.49924525  0.32287531
   0.66667000  0.33333000  0.25855000
   0.83449060  0.49880659  0.32359422
   0.00000000  0.66667000  0.25855000
   0.16660990  0.83505708  0.32271539
   0.33333000  0.66667000  0.25855000
   0.50059439  0.83509701  0.32364482
   0.66667000  0.66667000  0.25855000
   0.83251220  0.83611416  0.32139249
   0.00774441  0.33283773  0.37962145
   0.64515440  0.34440005  0.38932955
   0.34451784  0.65095369  0.39087048
   0.52130503  0.53967109  0.42807784
Direct configuration=     5
   0.00000000  0.00000000  0.00000000
   0.99547260  0.98136630  0.38266922
   0.16667000  0.16667000  0.06464000
   0.33333000  0.00000000  0.00000000
   0.33095976  0.00290210  0.37934963
   0.50000000  0.16667000  0.06464000
   0.66667000  0.00000000  0.00000000
   0.67790132  0.00310381  0.38076363
   0.83333000  0.16667000  0.06464000
   0.00000000  0.33333000  0.00000000
   0.16667000  0.50000000  0.06464000
   0.33333000  0.33333000  0.00000000
   0.50000000  0.50000000  0.06464000
   0.66667000  0.33333000  0.00000000
   0.83333000  0.50000000  0.06464000
   0.00000000  0.66667000  0.00000000
   0.98942542  0.68928562  0.38212563
   0.16667000  0.83333000  0.06464000
   0.33333000  0.66667000  0.00000000
   0.50000000  0.83333000  0.06464000
   0.66667000  0.66667000  0.00000000
   0.67302059  0.65699409  0.38655365
   0.83333000  0.83333000  0.06464000
   0.00000000  0.00000000  0.12928000
   0.16667000  0.16667000  0.19391000
   0.33333000  0.00000000  0.12928000
   0.50000000  0.16667000  0.19391000
   0.66667000  0.00000000  0.12928000
   0.83333000  0.16667000  0.19391000
   0.00000000  0.33333000  0.12928000
   0.16667000  0.50000000  0.19391000
   0.33333000  0.33333000  0.12928000
   0.50000000  0.50000000  0.19391000
   0.66667000  0.33333000  0.12928000
   0.83333000  0.50000000  0.19391000
   0.00000000  0.66667000  0.12928000
   0.16667000  0.83333000  0.19391000
   0.33333000  0.66667000  0.12928000
   0.50000000  0.83333000  0.19391000
   0.66667000  0.66667000  0.12928000
   0.83333000  0.83333000  0.19391000
   0.00000000  0.00000000  0.25855000
   0.16647826  0.16728927  0.32484715
   0.33333000  0.00000000  0.25855000
   0.49922078  0.16581913  0.32420178
   0.66667000  0.00000000  0.25855000
   0.83332752  0.16860703  0.32496233
   0.00000000  0.33333000  0.25855000
   0.16607205  0.49903641  0.32373690
   0.33333000  0.33333000  0.25855000
   0.49705893  0.49855996  0.32327060
   0.66667000  0.33333000  0.25855000
   0.83212783  0.49957903  0.32510068
   0.00000000  0.66667000  0.25855000
   0.16839410  0.83369431  0.32366713
   0.33333000  0.66667000  0.25855000
   0.50038299  0.83285264  0.32507465
   0.66667000  0.66667000  0.25855000
   0.83147205  0.83459591  0.32228660
   0.00672778  0.33340899  0.37918883
   0.64369756  0.34629259  0.38877142
   0.34867830  0.64992034  0.39006475
   0.52115544  0.53891179  0.42300277
Direct configuration=     6
   0.00000000  0.00000000  0.00000000
   0.99547509  0.98141587  0.38244942
   0.16667000  0.16667000  0.06464000
   0.33333000  0.00000000  0.00000000
   0.33105755  0.00222498  0.37916651
   0.50000000  0.16667000  0.06464000
   0.66667000  0.00000000  0.00000000
   0.67782169  0.00329909  0.38073746
   0.83333000  0.16667000  0.06464000
   0.00000000  0.33333000  0.00000000
   0.16667000  0.50000000  0.06464000
   0.33333000  0.33333000  0.00000000
   0.50000000  0.50000000  0.06464000
   0.66667000  0.33333000  0.00000000
   0.83333000  0.50000000  0.06464000
   0.00000000  0.66667000  0.00000000
   0.98933765  0.68936103  0.38207988
   0.16667000  0.83333000  0.06464000
   0.33333000  0.66667000  0.00000000
   0.50000000  0.83333000  0.06464000
   0.66667000  0.66667000  0.00000000
   0.67310357  0.65761809  0.38583020
   0.83333000  0.83333000  0.06464000
   0.00000000  0.00000000  0.12928000
   0.16667000  0.16667000  0.19391000
   0.33333000  0.00000000  0.12928000
   0.50000000  0.16667000  0.19391000
   0.66667000  0.00000000  0.12928000
   0.83333000  0.16667000  0.19391000
   0.00000000  0.33333000  0.12928000
   0.16667000  0.50000000  0.19391000
   0.33333000  0.33333000  0.12928000
   0.50000000  0.50000000  0.19391000
   0.66667000  0.33333000  0.12928000
   0.83333000  0.50000000  0.19391000
   0.00000000  0.66667000  0.12928000
   0.16667000  0.83333000  0.19391000
   0.33333000  0.66667000  0.12928000
   0.50000000  0.83333000  0.19391000
   0.66667000  0.66667000  0.12928000
   0.83333000  0.83333000  0.19391000
   0.00000000  0.00000000  0.25855000
   0.16664797  0.16753707  0.32491977
   0.33333000  0.00000000  0.25855000
   0.49939767  0.16652499  0.32458875
   0.66667000  0.00000000  0.25855000
   0.83288909  0.16951576  0.32530968
   0.00000000  0.33333000  0.25855000
   0.16686402  0.49939342  0.32430701
   0.33333000  0.33333000  0.25855000
   0.49659710  0.49818756  0.32348540
   0.66667000  0.33333000  0.25855000
   0.83084385  0.49999879  0.32591932
   0.00000000  0.66667000  0.25855000
   0.16936368  0.83295374  0.32418434
   0.33333000  0.66667000  0.25855000
   0.50026811  0.83163299  0.32585166
   0.66667000  0.66667000  0.25855000
   0.83090680  0.83377086  0.32277248
   0.00617533  0.33371942  0.37895373
   0.64290589  0.34732105  0.38846813
   0.35093919  0.64935880  0.38962691
   0.52107415  0.53849916  0.42024485
Direct configuration=     7
   0.00000000  0.00000000  0.00000000
   0.99569125  0.98197870  0.38202939
   0.16667000  0.16667000  0.06464000
   0.33333000  0.00000000  0.00000000
   0.33111781  0.00108208  0.37937641
   0.50000000  0.16667000  0.06464000
   0.66667000  0.00000000  0.00000000
   0.67729918  0.00433880  0.38110695
   0.83333000  0.16667000  0.06464000
   0.00000000  0.33333000  0.00000000
   0.16667000  0.50000000  0.06464000
   0.33333000  0.33333000  0.00000000
   0.50000000  0.50000000  0.06464000
   0.66667000  0.33333000  0.00000000
   0.83333000  0.50000000  0.06464000
   0.00000000  0.66667000  0.00000000
   0.99002137  0.68862300  0.38251853
   0.16667000  0.83333000  0.06464000
   0.33333000  0.66667000  0.00000000
   0.50000000  0.83333000  0.06464000
   0.66667000  0.66667000  0.00000000
   0.67858820  0.66422512  0.38371396
   0.83333000  0.83333000  0.06464000
   0.00000000  0.00000000  0.12928000
   0.16667000  0.16667000  0.19391000
   0.33333000  0.00000000  0.12928000
   0.50000000  0.16667000  0.19391000
   0.66667000  0.00000000  0.12928000
   0.83333000  0.16667000  0.19391000
   0.00000000  0.33333000  0.12928000
   0.16667000  0.50000000  0.19391000
   0.33333000  0.33333000  0.12928000
   0.50000000  0.50000000  0.19391000
   0.66667000  0.33333000  0.12928000
   0.83333000  0.50000000  0.19391000
   0.00000000  0.66667000  0.12928000
   0.16667000  0.83333000  0.19391000
   0.33333000  0.66667000  0.12928000
   0.50000000  0.83333000  0.19391000
   0.66667000  0.66667000  0.12928000
   0.83333000  0.83333000  0.19391000
   0.00000000  0.00000000  0.25855000
   0.16668305  0.16757640  0.32474410
   0.33333000  0.00000000  0.25855000
   0.49976021  0.16684096  0.32489125
   0.66667000  0.00000000  0.25855000
   0.83232470  0.17060373  0.32543568
   0.00000000  0.33333000  0.25855000
   0.16728549  0.49986455  0.32480241
   0.33333000  0.33333000  0.25855000
   0.49636306  0.49736825  0.32266721
   0.66667000  0.33333000  0.25855000
   0.83003507  0.49994834  0.32630169
   0.00000000  0.66667000  0.25855000
   0.17044459  0.83221459  0.32449469
   0.33333000  0.66667000  0.25855000
   0.50035045  0.83090777  0.32626199
   0.66667000  0.66667000  0.25855000
   0.83042426  0.83401222  0.32275704
   0.00526105  0.33439178  0.37916204
   0.64303106  0.34592939  0.38785176
   0.34906572  0.65232942  0.38839484
   0.51922445  0.53121887  0.41565029
Direct configuration=     8
   0.00000000  0.00000000  0.00000000
   0.99577934  0.98220808  0.38185821
   0.16667000  0.16667000  0.06464000
   0.33333000  0.00000000  0.00000000
   0.33114236  0.00061631  0.37946195
   0.50000000  0.16667000  0.06464000
   0.66667000  0.00000000  0.00000000
   0.67708624  0.00476252  0.38125753
   0.83333000  0.16667000  0.06464000
   0.00000000  0.33333000  0.00000000
   0.16667000  0.50000000  0.06464000
   0.33333000  0.33333000  0.00000000
   0.50000000  0.50000000  0.06464000
   0.66667000  0.33333000  0.00000000
   0.83333000  0.50000000  0.06464000
   0.00000000  0.66667000  0.00000000
   0.99030001  0.68832222  0.38269730
   0.16667000  0.83333000  0.06464000
   0.33333000  0.66667000  0.00000000
   0.50000000  0.83333000  0.06464000
   0.66667000  0.66667000  0.00000000
   0.68082337  0.66691771  0.38285152
   0.83333000  0.83333000  0.06464000
   0.00000000  0.00000000  0.12928000
   0.16667000  0.16667000  0.19391000
   0.33333000  0.00000000  0.12928000
   0.50000000  0.16667000  0.19391000
   0.66667000  0.00000000  0.12928000
   0.83333000  0.16667000  0.19391000
   0.00000000  0.33333000  0.12928000
   0.16667000  0.50000000  0.19391000
   0.33333000  0.33333000  0.12928000
   0.50000000  0.50000000  0.19391000
   0.66667000  0.33333000  0.12928000
   0.83333000  0.50000000  0.19391000
   0.00000000  0.66667000  0.12928000
   0.16667000  0.83333000  0.19391000
   0.33333000  0.66667000  0.12928000
   0.50000000  0.83333000  0.19391000
   0.66667000  0.66667000  0.12928000
   0.83333000  0.83333000  0.19391000
   0.00000000  0.00000000  0.25855000
   0.16669735  0.16759243  0.32467251
   0.33333000  0.00000000  0.25855000
   0.49990795  0.16696973  0.32501453
   0.66667000  0.00000000  0.25855000
   0.83209469  0.17104711  0.32548703
   0.00000000  0.33333000  0.25855000
   0.16745726  0.50005654  0.32500431
   0.33333000  0.33333000  0.25855000
   0.49626768  0.49703436  0.32233377
   0.66667000  0.33333000  0.25855000
   0.82970546  0.49992778  0.32645752
   0.00000000  0.66667000  0.25855000
   0.17088509  0.83191336  0.32462117
   0.33333000  0.66667000  0.25855000
   0.50038400  0.83061221  0.32642921
   0.66667000  0.66667000  0.25855000
   0.83022761  0.83411059  0.32275075
   0.00488845  0.33466579  0.37924694
   0.64308207  0.34536224  0.38760057
   0.34830221  0.65354005  0.38789273
   0.51847063  0.52825190  0.41377784
Direct configuration=     9
   0.00000000  0.00000000  0.00000000
   0.99603075  0.98282057  0.38192759
   0.16667000  0.16667000  0.06464000
   0.33333000  0.00000000  0.00000000
   0.33101151  0.00056679  0.37999473
   0.50000000  0.16667000  0.06464000
   0.66667000  0.00000000  0.00000000
   0.67694564  0.00635059  0.38155860
   0.83333000  0.16667000  0.06464000
   0.00000000  0.33333000  0.00000000
   0.16667000  0.50000000  0.06464000
   0.33333000  0.33333000  0.00000000
   0.50000000  0.50000000  0.06464000
   0.66667000  0.33333000  0.00000000
   0.83333000  0.50000000  0.06464000
   0.00000000  0.66667000  0.00000000
   0.99157402  0.68796411  0.38292475
   0.16667000  0.83333000  0.06464000
   0.33333000  0.66667000  0.00000000
   0.50000000  0.83333000  0.06464000
   0.66667000  0.66667000  0.00000000
   0.68211466  0.66926845  0.38356101
   0.83333000  0.83333000  0.06464000
   0.00000000  0.00000000  0.12928000
   0.16667000  0.16667000  0.19391000
   0.33333000  0.00000000  0.12928000
   0.50000000  0.16667000  0.19391000
   0.66667000  0.00000000  0.12928000
   0.83333000  0.16667000  0.19391000
   0.00000000  0.33333000  0.12928000
   0.16667000  0.50000000  0.19391000
   0.33333000  0.33333000  0.12928000
   0.50000000  0.50000000  0.19391000
   0.66667000  0.33333000  0.12928000
   0.83333000  0.50000000  0.19391000
   0.00000000  0.66667000  0.12928000
   0.16667000  0.83333000  0.19391000
   0.33333000  0.66667000  0.12928000
   0.50000000  0.83333000  0.19391000
   0.66667000  0.66667000  0.12928000
   0.83333000  0.83333000  0.19391000
   0.00000000  0.00000000  0.25855000
   0.16605359  0.16702288  0.32451422
   0.33333000  0.00000000  0.25855000
   0.49970024  0.16557685  0.32450174
   0.66667000  0.00000000  0.25855000
   0.83265867  0.16986590  0.32497215
   0.00000000  0.33333000  0.25855000
   0.16604709  0.49987515  0.32436210
   0.33333000  0.33333000  0.25855000
   0.49771777  0.49857191  0.32116063
   0.66667000  0.33333000  0.25855000
   0.83203750  0.49892946  0.32492294
   0.00000000  0.66667000  0.25855000
   0.16955516  0.83302820  0.32386856
   0.33333000  0.66667000  0.25855000
   0.50032298  0.83277551  0.32488615
   0.66667000  0.66667000  0.25855000
   0.83220893  0.83648452  0.32161226
   0.00485445  0.33497288  0.37984467
   0.64420393  0.34359754  0.38772650
   0.34508051  0.65529598  0.38770002
   0.51786185  0.52251932  0.41007122
Direct configuration=    10
   0.00000000  0.00000000  0.00000000
   0.99605356  0.98287615  0.38193388
   0.16667000  0.16667000  0.06464000
   0.33333000  0.00000000  0.00000000
   0.33099964  0.00056230  0.38004308
   0.50000000  0.16667000  0.06464000
   0.66667000  0.00000000  0.00000000
   0.67693288  0.00649469  0.38158592
   0.83333000  0.16667000  0.06464000
   0.00000000  0.33333000  0.00000000
   0.16667000  0.50000000  0.06464000
   0.33333000  0.33333000  0.00000000
   0.50000000  0.50000000  0.06464000
   0.66667000  0.33333000  0.00000000
   0.83333000  0.50000000  0.06464000
   0.00000000  0.66667000  0.00000000
   0.99168962  0.68793161  0.38294539
   0.16667000  0.83333000  0.06464000
   0.33333000  0.66667000  0.00000000
   0.50000000  0.83333000  0.06464000
   0.66667000  0.66667000  0.00000000
   0.68223183  0.66948175  0.38362539
   0.83333000  0.83333000  0.06464000
   0.00000000  0.00000000  0.12928000
   0.16667000  0.16667000  0.19391000
   0.33333000  0.00000000  0.12928000
   0.50000000  0.16667000  0.19391000
   0.66667000  0.00000000  0.12928000
   0.83333000  0.16667000  0.19391000
   0.00000000  0.33333000  0.12928000
   0.16667000  0.50000000  0.19391000
   0.33333000  0.33333000  0.12928000
   0.50000000  0.50000000  0.19391000
   0.66667000  0.33333000  0.12928000
   0.83333000  0.50000000  0.19391000
   0.00000000  0.66667000  0.12928000
   0.16667000  0.83333000  0.19391000
   0.33333000  0.66667000  0.12928000
   0.50000000  0.83333000  0.19391000
   0.66667000  0.66667000  0.12928000
   0.83333000  0.83333000  0.19391000
   0.00000000  0.00000000  0.25855000
   0.16599518  0.16697120  0.32449986
   0.33333000  0.00000000  0.25855000
   0.49968139  0.16545046  0.32445521
   0.66667000  0.00000000  0.25855000
   0.83270984  0.16975871  0.32492543
   0.00000000  0.33333000  0.25855000
   0.16591913  0.49985870  0.32430383
   0.33333000  0.33333000  0.25855000
   0.49784935  0.49871142  0.32105418
   0.66667000  0.33333000  0.25855000
   0.83224910  0.49883888  0.32478370
   0.00000000  0.66667000  0.25855000
   0.16943449  0.83312935  0.32380027
   0.33333000  0.66667000  0.25855000
   0.50031744  0.83297181  0.32474614
   0.66667000  0.66667000  0.25855000
   0.83238872  0.83669993  0.32150895
   0.00485136  0.33500074  0.37989890
   0.64430573  0.34343741  0.38773793
   0.34478817  0.65545531  0.38768253
   0.51780661  0.52199915  0.40973488
Direct configuration=    11
   0.00000000  0.00000000  0.00000000
   0.99580527  0.98295258  0.38224768
   0.16667000  0.16667000  0.06464000
   0.33333000  0.00000000  0.00000000
   0.33112403  0.00058735  0.37976501
   0.50000000  0.16667000  0.06464000
   0.66667000  0.00000000  0.00000000
   0.67731859  0.00669654  0.38124871
   0.83333000  0.16667000  0.06464000
   0.00000000  0.33333000  0.00000000
   0.16667000  0.50000000  0.06464000
   0.33333000  0.33333000  0.00000000
   0.50000000  0.50000000  0.06464000
   0.66667000  0.33333000  0.00000000
   0.83333000  0.50000000  0.06464000
   0.00000000  0.66667000  0.00000000
   0.99164855  0.68826640  0.38248090
   0.16667000  0.83333000  0.06464000
   0.33333000  0.66667000  0.00000000
   0.50000000  0.83333000  0.06464000
   0.66667000  0.66667000  0.00000000
   0.68158768  0.66822498  0.38381859
   0.83333000  0.83333000  0.06464000
   0.00000000  0.00000000  0.12928000
   0.16667000  0.16667000  0.19391000
   0.33333000  0.00000000  0.12928000
   0.50000000  0.16667000  0.19391000
   0.66667000  0.00000000  0.12928000
   0.83333000  0.16667000  0.19391000
   0.00000000  0.33333000  0.12928000
   0.16667000  0.50000000  0.19391000
   0.33333000  0.33333000  0.12928000
   0.50000000  0.50000000  0.19391000
   0.66667000  0.33333000  0.12928000
   0.83333000  0.50000000  0.19391000
   0.00000000  0.66667000  0.12928000
   0.16667000  0.83333000  0.19391000
   0.33333000  0.66667000  0.12928000
   0.50000000  0.83333000  0.19391000
   0.66667000  0.66667000  0.12928000
   0.83333000  0.83333000  0.19391000
   0.00000000  0.00000000  0.25855000
   0.16583234  0.16691552  0.32477264
   0.33333000  0.00000000  0.25855000
   0.49941547  0.16551303  0.32428153
   0.66667000  0.00000000  0.25855000
   0.83312566  0.16895733  0.32489865
   0.00000000  0.33333000  0.25855000
   0.16567862  0.49971485  0.32401756
   0.33333000  0.33333000  0.25855000
   0.49866780  0.50005760  0.32078181
   0.66667000  0.33333000  0.25855000
   0.83282761  0.49944445  0.32470991
   0.00000000  0.66667000  0.25855000
   0.16871448  0.83369237  0.32361874
   0.33333000  0.66667000  0.25855000
   0.50031192  0.83341603  0.32455205
   0.66667000  0.66667000  0.25855000
   0.83285193  0.83600092  0.32188836
   0.00471870  0.33523028  0.37963214
   0.64577916  0.34315013  0.38716077
   0.34442535  0.65471423  0.38710278
   0.51754754  0.52195224  0.40916514
Direct configuration=    12
   0.00000000  0.00000000  0.00000000
   0.99566982  0.98299428  0.38241885
   0.16667000  0.16667000  0.06464000
   0.33333000  0.00000000  0.00000000
   0.33119188  0.00060101  0.37961333
   0.50000000  0.16667000  0.06464000
   0.66667000  0.00000000  0.00000000
   0.67752899  0.00680665  0.38106476
   0.83333000  0.16667000  0.06464000
   0.00000000  0.33333000  0.00000000
   0.16667000  0.50000000  0.06464000
   0.33333000  0.33333000  0.00000000
   0.50000000  0.50000000  0.06464000
   0.66667000  0.33333000  0.00000000
   0.83333000  0.50000000  0.06464000
   0.00000000  0.66667000  0.00000000
   0.99162614  0.68844903  0.38222752
   0.16667000  0.83333000  0.06464000
   0.33333000  0.66667000  0.00000000
   0.50000000  0.83333000  0.06464000
   0.66667000  0.66667000  0.00000000
   0.68123631  0.66753943  0.38392398
   0.83333000  0.83333000  0.06464000
   0.00000000  0.00000000  0.12928000
   0.16667000  0.16667000  0.19391000
   0.33333000  0.00000000  0.12928000
   0.50000000  0.16667000  0.19391000
   0.66667000  0.00000000  0.12928000
   0.83333000  0.16667000  0.19391000
   0.00000000  0.33333000  0.12928000
   0.16667000  0.50000000  0.19391000
   0.33333000  0.33333000  0.12928000
   0.50000000  0.50000000  0.19391000
   0.66667000  0.33333000  0.12928000
   0.83333000  0.50000000  0.19391000
   0.00000000  0.66667000  0.12928000
   0.16667000  0.83333000  0.19391000
   0.33333000  0.66667000  0.12928000
   0.50000000  0.83333000  0.19391000
   0.66667000  0.66667000  0.12928000
   0.83333000  0.83333000  0.19391000
   0.00000000  0.00000000  0.25855000
   0.16574351  0.16688514  0.32492145
   0.33333000  0.00000000  0.25855000
   0.49927042  0.16554715  0.32418679
   0.66667000  0.00000000  0.25855000
   0.83335249  0.16852019  0.32488404
   0.00000000  0.33333000  0.25855000
   0.16554742  0.49963638  0.32386140
   0.33333000  0.33333000  0.25855000
   0.49911425  0.50079192  0.32063323
   0.66667000  0.33333000  0.25855000
   0.83314318  0.49977478  0.32466965
   0.00000000  0.66667000  0.25855000
   0.16832172  0.83399948  0.32351971
   0.33333000  0.66667000  0.25855000
   0.50030891  0.83365834  0.32444618
   0.66667000  0.66667000  0.25855000
   0.83310461  0.83561962  0.32209532
   0.00464633  0.33535549  0.37948663
   0.64658291  0.34299342  0.38684594
   0.34422744  0.65430998  0.38678654
   0.51740623  0.52192665  0.40885435
Direct configuration=    13
   0.00000000  0.00000000  0.00000000
   0.99542165  0.98324739  0.38266374
   0.16667000  0.16667000  0.06464000
   0.33333000  0.00000000  0.00000000
   0.33135480  0.00074551  0.37953088
   0.50000000  0.16667000  0.06464000
   0.66667000  0.00000000  0.00000000
   0.67761871  0.00677612  0.38104325
   0.83333000  0.16667000  0.06464000
   0.00000000  0.33333000  0.00000000
   0.16667000  0.50000000  0.06464000
   0.33333000  0.33333000  0.00000000
   0.50000000  0.50000000  0.06464000
   0.66667000  0.33333000  0.00000000
   0.83333000  0.50000000  0.06464000
   0.00000000  0.66667000  0.00000000
   0.99204272  0.68814195  0.38234082
   0.16667000  0.83333000  0.06464000
   0.33333000  0.66667000  0.00000000
   0.50000000  0.83333000  0.06464000
   0.66667000  0.66667000  0.00000000
   0.68064319  0.66658982  0.38378522
   0.83333000  0.83333000  0.06464000
   0.00000000  0.00000000  0.12928000
   0.16667000  0.16667000  0.19391000
   0.33333000  0.00000000  0.12928000
   0.50000000  0.16667000  0.19391000
   0.66667000  0.00000000  0.12928000
   0.83333000  0.16667000  0.19391000
   0.00000000  0.33333000  0.12928000
   0.16667000  0.50000000  0.19391000
   0.33333000  0.33333000  0.12928000
   0.50000000  0.50000000  0.19391000
   0.66667000  0.33333000  0.12928000
   0.83333000  0.50000000  0.19391000
   0.00000000  0.66667000  0.12928000
   0.16667000  0.83333000  0.19391000
   0.33333000  0.66667000  0.12928000
   0.50000000  0.83333000  0.19391000
   0.66667000  0.66667000  0.12928000
   0.83333000  0.83333000  0.19391000
   0.00000000  0.00000000  0.25855000
   0.16588058  0.16704608  0.32488368
   0.33333000  0.00000000  0.25855000
   0.49940669  0.16613412  0.32396852
   0.66667000  0.00000000  0.25855000
   0.83350182  0.16856618  0.32467164
   0.00000000  0.33333000  0.25855000
   0.16613455  0.49964093  0.32356922
   0.33333000  0.33333000  0.25855000
   0.49923613  0.50052108  0.32024160
   0.66667000  0.33333000  0.25855000
   0.83295299  0.49975957  0.32459361
   0.00000000  0.66667000  0.25855000
   0.16857202  0.83401246  0.32341322
   0.33333000  0.66667000  0.25855000
   0.50031171  0.83351966  0.32446954
   0.66667000  0.66667000  0.25855000
   0.83227495  0.83559257  0.32203002
   0.00462218  0.33550749  0.37951225
   0.64759900  0.34289193  0.38635107
   0.34379949  0.65394458  0.38635448
   0.51745598  0.52169481  0.40877353
Direct configuration=    14
   0.00000000  0.00000000  0.00000000
   0.99540416  0.98326522  0.38268100
   0.16667000  0.16667000  0.06464000
   0.33333000  0.00000000  0.00000000
   0.33136628  0.00075569  0.37952507
   0.50000000  0.16667000  0.06464000
   0.66667000  0.00000000  0.00000000
   0.67762503  0.00677397  0.38104174
   0.83333000  0.16667000  0.06464000
   0.00000000  0.33333000  0.00000000
   0.16667000  0.50000000  0.06464000
   0.33333000  0.33333000  0.00000000
   0.50000000  0.50000000  0.06464000
   0.66667000  0.33333000  0.00000000
   0.83333000  0.50000000  0.06464000
   0.00000000  0.66667000  0.00000000
   0.99207206  0.68812031  0.38234880
   0.16667000  0.83333000  0.06464000
   0.33333000  0.66667000  0.00000000
   0.50000000  0.83333000  0.06464000
   0.66667000  0.66667000  0.00000000
   0.68060140  0.66652292  0.38377544
   0.83333000  0.83333000  0.06464000
   0.00000000  0.00000000  0.12928000
   0.16667000  0.16667000  0.19391000
   0.33333000  0.00000000  0.12928000
   0.50000000  0.16667000  0.19391000
   0.66667000  0.00000000  0.12928000
   0.83333000  0.16667000  0.19391000
   0.00000000  0.33333000  0.12928000
   0.16667000  0.50000000  0.19391000
   0.33333000  0.33333000  0.12928000
   0.50000000  0.50000000  0.19391000
   0.66667000  0.33333000  0.12928000
   0.83333000  0.50000000  0.19391000
   0.00000000  0.66667000  0.12928000
   0.16667000  0.83333000  0.19391000
   0.33333000  0.66667000  0.12928000
   0.50000000  0.83333000  0.19391000
   0.66667000  0.66667000  0.12928000
   0.83333000  0.83333000  0.19391000
   0.00000000  0.00000000  0.25855000
   0.16589024  0.16705742  0.32488102
   0.33333000  0.00000000  0.25855000
   0.49941629  0.16617547  0.32395314
   0.66667000  0.00000000  0.25855000
   0.83351234  0.16856942  0.32465667
   0.00000000  0.33333000  0.25855000
   0.16617592  0.49964125  0.32354864
   0.33333000  0.33333000  0.25855000
   0.49924472  0.50050199  0.32021401
   0.66667000  0.33333000  0.25855000
   0.83293959  0.49975850  0.32458825
   0.00000000  0.66667000  0.25855000
   0.16858965  0.83401337  0.32340572
   0.33333000  0.66667000  0.25855000
   0.50031190  0.83350989  0.32447118
   0.66667000  0.66667000  0.25855000
   0.83221650  0.83559067  0.32202541
   0.00462048  0.33551820  0.37951406
   0.64767058  0.34288478  0.38631621
   0.34376934  0.65391884  0.38632404
   0.51745948  0.52167848  0.40876784
Direct configuration=    15
   0.00000000  0.00000000  0.00000000
   0.99506044  0.98309675  0.38256260
   0.16667000  0.16667000  0.06464000
   0.33333000  0.00000000  0.00000000
   0.33146153  0.00092985  0.37950996
   0.50000000  0.16667000  0.06464000
   0.66667000  0.00000000  0.00000000
   0.67774905  0.00678441  0.38107188
   0.83333000  0.16667000  0.06464000
   0.00000000  0.33333000  0.00000000
   0.16667000  0.50000000  0.06464000
   0.33333000  0.33333000  0.00000000
   0.50000000  0.50000000  0.06464000
   0.66667000  0.33333000  0.00000000
   0.83333000  0.50000000  0.06464000
   0.00000000  0.66667000  0.00000000
   0.99238093  0.68816343  0.38236949
   0.16667000  0.83333000  0.06464000
   0.33333000  0.66667000  0.00000000
   0.50000000  0.83333000  0.06464000
   0.66667000  0.66667000  0.00000000
   0.68025451  0.66622031  0.38361167
   0.83333000  0.83333000  0.06464000
   0.00000000  0.00000000  0.12928000
   0.16667000  0.16667000  0.19391000
   0.33333000  0.00000000  0.12928000
   0.50000000  0.16667000  0.19391000
   0.66667000  0.00000000  0.12928000
   0.83333000  0.16667000  0.19391000
   0.00000000  0.33333000  0.12928000
   0.16667000  0.50000000  0.19391000
   0.33333000  0.33333000  0.12928000
   0.50000000  0.50000000  0.19391000
   0.66667000  0.33333000  0.12928000
   0.83333000  0.50000000  0.19391000
   0.00000000  0.66667000  0.12928000
   0.16667000  0.83333000  0.19391000
   0.33333000  0.66667000  0.12928000
   0.50000000  0.83333000  0.19391000
   0.66667000  0.66667000  0.12928000
   0.83333000  0.83333000  0.19391000
   0.00000000  0.00000000  0.25855000
   0.16594415  0.16708888  0.32481259
   0.33333000  0.00000000  0.25855000
   0.49955723  0.16613000  0.32382809
   0.66667000  0.00000000  0.25855000
   0.83366096  0.16864782  0.32459275
   0.00000000  0.33333000  0.25855000
   0.16629096  0.49966877  0.32348085
   0.33333000  0.33333000  0.25855000
   0.49905692  0.49999347  0.32022806
   0.66667000  0.33333000  0.25855000
   0.83307640  0.49971822  0.32449987
   0.00000000  0.66667000  0.25855000
   0.16848212  0.83396610  0.32352549
   0.33333000  0.66667000  0.25855000
   0.50023927  0.83343804  0.32449962
   0.66667000  0.66667000  0.25855000
   0.83233059  0.83577261  0.32211695
   0.00472768  0.33553848  0.37951008
   0.64791231  0.34284710  0.38623150
   0.34361041  0.65363233  0.38624524
   0.51759924  0.52126389  0.40863027
Direct configuration=    16
   0.00000000  0.00000000  0.00000000
   0.99491275  0.98302436  0.38251173
   0.16667000  0.16667000  0.06464000
   0.33333000  0.00000000  0.00000000
   0.33150246  0.00100468  0.37950347
   0.50000000  0.16667000  0.06464000
   0.66667000  0.00000000  0.00000000
   0.67780235  0.00678889  0.38108484
   0.83333000  0.16667000  0.06464000
   0.00000000  0.33333000  0.00000000
   0.16667000  0.50000000  0.06464000
   0.33333000  0.33333000  0.00000000
   0.50000000  0.50000000  0.06464000
   0.66667000  0.33333000  0.00000000
   0.83333000  0.50000000  0.06464000
   0.00000000  0.66667000  0.00000000
   0.99251364  0.68818195  0.38237838
   0.16667000  0.83333000  0.06464000
   0.33333000  0.66667000  0.00000000
   0.50000000  0.83333000  0.06464000
   0.66667000  0.66667000  0.00000000
   0.68010547  0.66609029  0.38354130
   0.83333000  0.83333000  0.06464000
   0.00000000  0.00000000  0.12928000
   0.16667000  0.16667000  0.19391000
   0.33333000  0.00000000  0.12928000
   0.50000000  0.16667000  0.19391000
   0.66667000  0.00000000  0.12928000
   0.83333000  0.16667000  0.19391000
   0.00000000  0.33333000  0.12928000
   0.16667000  0.50000000  0.19391000
   0.33333000  0.33333000  0.12928000
   0.50000000  0.50000000  0.19391000
   0.66667000  0.33333000  0.12928000
   0.83333000  0.50000000  0.19391000
   0.00000000  0.66667000  0.12928000
   0.16667000  0.83333000  0.19391000
   0.33333000  0.66667000  0.12928000
   0.50000000  0.83333000  0.19391000
   0.66667000  0.66667000  0.12928000
   0.83333000  0.83333000  0.19391000
   0.00000000  0.00000000  0.25855000
   0.16596732  0.16710239  0.32478319
   0.33333000  0.00000000  0.25855000
   0.49961778  0.16611047  0.32377436
   0.66667000  0.00000000  0.25855000
   0.83372481  0.16868150  0.32456528
   0.00000000  0.33333000  0.25855000
   0.16634039  0.49968059  0.32345172
   0.33333000  0.33333000  0.25855000
   0.49897623  0.49977497  0.32023410
   0.66667000  0.33333000  0.25855000
   0.83313518  0.49970092  0.32446190
   0.00000000  0.66667000  0.25855000
   0.16843592  0.83394579  0.32357695
   0.33333000  0.66667000  0.25855000
   0.50020806  0.83340717  0.32451184
   0.66667000  0.66667000  0.25855000
   0.83237961  0.83585079  0.32215628
   0.00477374  0.33554720  0.37950837
   0.64801617  0.34283091  0.38619510
   0.34354212  0.65350922  0.38621138
   0.51765928  0.52108575  0.40857116
Direct configuration=    17
   0.00000000  0.00000000  0.00000000
   0.99456168  0.98303333  0.38251017
   0.16667000  0.16667000  0.06464000
   0.33333000  0.00000000  0.00000000
   0.33165792  0.00123773  0.37948040
   0.50000000  0.16667000  0.06464000
   0.66667000  0.00000000  0.00000000
   0.67799783  0.00689318  0.38107528
   0.83333000  0.16667000  0.06464000
   0.00000000  0.33333000  0.00000000
   0.16667000  0.50000000  0.06464000
   0.33333000  0.33333000  0.00000000
   0.50000000  0.50000000  0.06464000
   0.66667000  0.33333000  0.00000000
   0.83333000  0.50000000  0.06464000
   0.00000000  0.66667000  0.00000000
   0.99285093  0.68815588  0.38236794
   0.16667000  0.83333000  0.06464000
   0.33333000  0.66667000  0.00000000
   0.50000000  0.83333000  0.06464000
   0.66667000  0.66667000  0.00000000
   0.67973880  0.66596493  0.38340251
   0.83333000  0.83333000  0.06464000
   0.00000000  0.00000000  0.12928000
   0.16667000  0.16667000  0.19391000
   0.33333000  0.00000000  0.12928000
   0.50000000  0.16667000  0.19391000
   0.66667000  0.00000000  0.12928000
   0.83333000  0.16667000  0.19391000
   0.00000000  0.33333000  0.12928000
   0.16667000  0.50000000  0.19391000
   0.33333000  0.33333000  0.12928000
   0.50000000  0.50000000  0.19391000
   0.66667000  0.33333000  0.12928000
   0.83333000  0.50000000  0.19391000
   0.00000000  0.66667000  0.12928000
   0.16667000  0.83333000  0.19391000
   0.33333000  0.66667000  0.12928000
   0.50000000  0.83333000  0.19391000
   0.66667000  0.66667000  0.12928000
   0.83333000  0.83333000  0.19391000
   0.00000000  0.00000000  0.25855000
   0.16608056  0.16709547  0.32474318
   0.33333000  0.00000000  0.25855000
   0.49965088  0.16581808  0.32375545
   0.66667000  0.00000000  0.25855000
   0.83376292  0.16871980  0.32455982
   0.00000000  0.33333000  0.25855000
   0.16623900  0.49963282  0.32347121
   0.33333000  0.33333000  0.25855000
   0.49893501  0.49964196  0.32014214
   0.66667000  0.33333000  0.25855000
   0.83330253  0.49979345  0.32441708
   0.00000000  0.66667000  0.25855000
   0.16850829  0.83390115  0.32360949
   0.33333000  0.66667000  0.25855000
   0.50018695  0.83330221  0.32452455
   0.66667000  0.66667000  0.25855000
   0.83237295  0.83566851  0.32211423
   0.00493739  0.33552559  0.37944714
   0.64821855  0.34252648  0.38623649
   0.34340292  0.65311367  0.38627029
   0.51772911  0.52054292  0.40851136
Direct configuration=    18
   0.00000000  0.00000000  0.00000000
   0.99429299  0.98304020  0.38250897
   0.16667000  0.16667000  0.06464000
   0.33333000  0.00000000  0.00000000
   0.33177691  0.00141609  0.37946274
   0.50000000  0.16667000  0.06464000
   0.66667000  0.00000000  0.00000000
   0.67814745  0.00697300  0.38106797
   0.83333000  0.16667000  0.06464000
   0.00000000  0.33333000  0.00000000
   0.16667000  0.50000000  0.06464000
   0.33333000  0.33333000  0.00000000
   0.50000000  0.50000000  0.06464000
   0.66667000  0.33333000  0.00000000
   0.83333000  0.50000000  0.06464000
   0.00000000  0.66667000  0.00000000
   0.99310909  0.68813593  0.38235995
   0.16667000  0.83333000  0.06464000
   0.33333000  0.66667000  0.00000000
   0.50000000  0.83333000  0.06464000
   0.66667000  0.66667000  0.00000000
   0.67945817  0.66586899  0.38329628
   0.83333000  0.83333000  0.06464000
   0.00000000  0.00000000  0.12928000
   0.16667000  0.16667000  0.19391000
   0.33333000  0.00000000  0.12928000
   0.50000000  0.16667000  0.19391000
   0.66667000  0.00000000  0.12928000
   0.83333000  0.16667000  0.19391000
   0.00000000  0.33333000  0.12928000
   0.16667000  0.50000000  0.19391000
   0.33333000  0.33333000  0.12928000
   0.50000000  0.50000000  0.19391000
   0.66667000  0.33333000  0.12928000
   0.83333000  0.50000000  0.19391000
   0.00000000  0.66667000  0.12928000
   0.16667000  0.83333000  0.19391000
   0.33333000  0.66667000  0.12928000
   0.50000000  0.83333000  0.19391000
   0.66667000  0.66667000  0.12928000
   0.83333000  0.83333000  0.19391000
   0.00000000  0.00000000  0.25855000
   0.16616724  0.16709016  0.32471256
   0.33333000  0.00000000  0.25855000
   0.49967622  0.16559429  0.32374099
   0.66667000  0.00000000  0.25855000
   0.83379209  0.16874911  0.32455564
   0.00000000  0.33333000  0.25855000
   0.16616139  0.49959625  0.32348613
   0.33333000  0.33333000  0.25855000
   0.49890347  0.49954016  0.32007176
   0.66667000  0.33333000  0.25855000
   0.83343061  0.49986426  0.32438279
   0.00000000  0.66667000  0.25855000
   0.16856368  0.83386698  0.32363440
   0.33333000  0.66667000  0.25855000
   0.50017080  0.83322188  0.32453427
   0.66667000  0.66667000  0.25855000
   0.83236785  0.83552899  0.32208204
   0.00506265  0.33550906  0.37940027
   0.64837345  0.34229347  0.38626817
   0.34329637  0.65281093  0.38631539
   0.51778255  0.52012745  0.40846559
Direct configuration=    19
   0.00000000  0.00000000  0.00000000
   0.99384805  0.98310697  0.38255874
   0.16667000  0.16667000  0.06464000
   0.33333000  0.00000000  0.00000000
   0.33195969  0.00155593  0.37949061
   0.50000000  0.16667000  0.06464000
   0.66667000  0.00000000  0.00000000
   0.67850744  0.00703220  0.38106230
   0.83333000  0.16667000  0.06464000
   0.00000000  0.33333000  0.00000000
   0.16667000  0.50000000  0.06464000
   0.33333000  0.33333000  0.00000000
   0.50000000  0.50000000  0.06464000
   0.66667000  0.33333000  0.00000000
   0.83333000  0.50000000  0.06464000
   0.00000000  0.66667000  0.00000000
   0.99356663  0.68815262  0.38229057
   0.16667000  0.83333000  0.06464000
   0.33333000  0.66667000  0.00000000
   0.50000000  0.83333000  0.06464000
   0.66667000  0.66667000  0.00000000
   0.67897408  0.66578361  0.38324967
   0.83333000  0.83333000  0.06464000
   0.00000000  0.00000000  0.12928000
   0.16667000  0.16667000  0.19391000
   0.33333000  0.00000000  0.12928000
   0.50000000  0.16667000  0.19391000
   0.66667000  0.00000000  0.12928000
   0.83333000  0.16667000  0.19391000
   0.00000000  0.33333000  0.12928000
   0.16667000  0.50000000  0.19391000
   0.33333000  0.33333000  0.12928000
   0.50000000  0.50000000  0.19391000
   0.66667000  0.33333000  0.12928000
   0.83333000  0.50000000  0.19391000
   0.00000000  0.66667000  0.12928000
   0.16667000  0.83333000  0.19391000
   0.33333000  0.66667000  0.12928000
   0.50000000  0.83333000  0.19391000
   0.66667000  0.66667000  0.12928000
   0.83333000  0.83333000  0.19391000
   0.00000000  0.00000000  0.25855000
   0.16626108  0.16699602  0.32469968
   0.33333000  0.00000000  0.25855000
   0.49964902  0.16557866  0.32380854
   0.66667000  0.00000000  0.25855000
   0.83379008  0.16869589  0.32452770
   0.00000000  0.33333000  0.25855000
   0.16622378  0.49955888  0.32352944
   0.33333000  0.33333000  0.25855000
   0.49906625  0.49955798  0.32016710
   0.66667000  0.33333000  0.25855000
   0.83328428  0.49981257  0.32442982
   0.00000000  0.66667000  0.25855000
   0.16870113  0.83383663  0.32362905
   0.33333000  0.66667000  0.25855000
   0.50012259  0.83299198  0.32456318
   0.66667000  0.66667000  0.25855000
   0.83240406  0.83535981  0.32204267
   0.00521305  0.33543365  0.37942771
   0.64851287  0.34191634  0.38622385
   0.34326992  0.65225689  0.38633174
   0.51772127  0.51949246  0.40841055
Direct configuration=    20
   0.00000000  0.00000000  0.00000000
   0.99366438  0.98313454  0.38257929
   0.16667000  0.16667000  0.06464000
   0.33333000  0.00000000  0.00000000
   0.33203515  0.00161365  0.37950212
   0.50000000  0.16667000  0.06464000
   0.66667000  0.00000000  0.00000000
   0.67865604  0.00705663  0.38105995
   0.83333000  0.16667000  0.06464000
   0.00000000  0.33333000  0.00000000
   0.16667000  0.50000000  0.06464000
   0.33333000  0.33333000  0.00000000
   0.50000000  0.50000000  0.06464000
   0.66667000  0.33333000  0.00000000
   0.83333000  0.50000000  0.06464000
   0.00000000  0.66667000  0.00000000
   0.99375551  0.68815951  0.38226193
   0.16667000  0.83333000  0.06464000
   0.33333000  0.66667000  0.00000000
   0.50000000  0.83333000  0.06464000
   0.66667000  0.66667000  0.00000000
   0.67877424  0.66574837  0.38323043
   0.83333000  0.83333000  0.06464000
   0.00000000  0.00000000  0.12928000
   0.16667000  0.16667000  0.19391000
   0.33333000  0.00000000  0.12928000
   0.50000000  0.16667000  0.19391000
   0.66667000  0.00000000  0.12928000
   0.83333000  0.16667000  0.19391000
   0.00000000  0.33333000  0.12928000
   0.16667000  0.50000000  0.19391000
   0.33333000  0.33333000  0.12928000
   0.50000000  0.50000000  0.19391000
   0.66667000  0.33333000  0.12928000
   0.83333000  0.50000000  0.19391000
   0.00000000  0.66667000  0.12928000
   0.16667000  0.83333000  0.19391000
   0.33333000  0.66667000  0.12928000
   0.50000000  0.83333000  0.19391000
   0.66667000  0.66667000  0.12928000
   0.83333000  0.83333000  0.19391000
   0.00000000  0.00000000  0.25855000
   0.16629982  0.16695716  0.32469436
   0.33333000  0.00000000  0.25855000
   0.49963779  0.16557221  0.32383643
   0.66667000  0.00000000  0.25855000
   0.83378925  0.16867392  0.32451616
   0.00000000  0.33333000  0.25855000
   0.16624953  0.49954345  0.32354732
   0.33333000  0.33333000  0.25855000
   0.49913345  0.49956534  0.32020645
   0.66667000  0.33333000  0.25855000
   0.83322387  0.49979123  0.32444923
   0.00000000  0.66667000  0.25855000
   0.16875788  0.83382411  0.32362685
   0.33333000  0.66667000  0.25855000
   0.50010269  0.83289707  0.32457511
   0.66667000  0.66667000  0.25855000
   0.83241901  0.83528996  0.32202641
   0.00527513  0.33540252  0.37943903
   0.64857043  0.34176065  0.38620555
   0.34325900  0.65202818  0.38633849
   0.51769597  0.51923034  0.40838782
Direct configuration=    21
   0.00000000  0.00000000  0.00000000
   0.99321865  0.98313265  0.38259063
   0.16667000  0.16667000  0.06464000
   0.33333000  0.00000000  0.00000000
   0.33212964  0.00161802  0.37953813
   0.50000000  0.16667000  0.06464000
   0.66667000  0.00000000  0.00000000
   0.67906914  0.00700169  0.38108490
   0.83333000  0.16667000  0.06464000
   0.00000000  0.33333000  0.00000000
   0.16667000  0.50000000  0.06464000
   0.33333000  0.33333000  0.00000000
   0.50000000  0.50000000  0.06464000
   0.66667000  0.33333000  0.00000000
   0.83333000  0.50000000  0.06464000
   0.00000000  0.66667000  0.00000000
   0.99426631  0.68822677  0.38219075
   0.16667000  0.83333000  0.06464000
   0.33333000  0.66667000  0.00000000
   0.50000000  0.83333000  0.06464000
   0.66667000  0.66667000  0.00000000
   0.67837572  0.66577245  0.38325178
   0.83333000  0.83333000  0.06464000
   0.00000000  0.00000000  0.12928000
   0.16667000  0.16667000  0.19391000
   0.33333000  0.00000000  0.12928000
   0.50000000  0.16667000  0.19391000
   0.66667000  0.00000000  0.12928000
   0.83333000  0.16667000  0.19391000
   0.00000000  0.33333000  0.12928000
   0.16667000  0.50000000  0.19391000
   0.33333000  0.33333000  0.12928000
   0.50000000  0.50000000  0.19391000
   0.66667000  0.33333000  0.12928000
   0.83333000  0.50000000  0.19391000
   0.00000000  0.66667000  0.12928000
   0.16667000  0.83333000  0.19391000
   0.33333000  0.66667000  0.12928000
   0.50000000  0.83333000  0.19391000
   0.66667000  0.66667000  0.12928000
   0.83333000  0.83333000  0.19391000
   0.00000000  0.00000000  0.25855000
   0.16631817  0.16689328  0.32472914
   0.33333000  0.00000000  0.25855000
   0.49956064  0.16561075  0.32383707
   0.66667000  0.00000000  0.25855000
   0.83388670  0.16862602  0.32446422
   0.00000000  0.33333000  0.25855000
   0.16631309  0.49946529  0.32356050
   0.33333000  0.33333000  0.25855000
   0.49917915  0.49947103  0.32015248
   0.66667000  0.33333000  0.25855000
   0.83317728  0.49968318  0.32449440
   0.00000000  0.66667000  0.25855000
   0.16880883  0.83383471  0.32364951
   0.33333000  0.66667000  0.25855000
   0.50009405  0.83280703  0.32460897
   0.66667000  0.66667000  0.25855000
   0.83246535  0.83521793  0.32205369
   0.00537399  0.33526174  0.37947320
   0.64867738  0.34139619  0.38621421
   0.34317218  0.65163965  0.38635404
   0.51761063  0.51872930  0.40845365
Direct configuration=    22
   0.00000000  0.00000000  0.00000000
   0.99296393  0.98313157  0.38259711
   0.16667000  0.16667000  0.06464000
   0.33333000  0.00000000  0.00000000
   0.33218364  0.00162051  0.37955871
   0.50000000  0.16667000  0.06464000
   0.66667000  0.00000000  0.00000000
   0.67930521  0.00697030  0.38109916
   0.83333000  0.16667000  0.06464000
   0.00000000  0.33333000  0.00000000
   0.16667000  0.50000000  0.06464000
   0.33333000  0.33333000  0.00000000
   0.50000000  0.50000000  0.06464000
   0.66667000  0.33333000  0.00000000
   0.83333000  0.50000000  0.06464000
   0.00000000  0.66667000  0.00000000
   0.99455821  0.68826521  0.38215008
   0.16667000  0.83333000  0.06464000
   0.33333000  0.66667000  0.00000000
   0.50000000  0.83333000  0.06464000
   0.66667000  0.66667000  0.00000000
   0.67814798  0.66578622  0.38326398
   0.83333000  0.83333000  0.06464000
   0.00000000  0.00000000  0.12928000
   0.16667000  0.16667000  0.19391000
   0.33333000  0.00000000  0.12928000
   0.50000000  0.16667000  0.19391000
   0.66667000  0.00000000  0.12928000
   0.83333000  0.16667000  0.19391000
   0.00000000  0.33333000  0.12928000
   0.16667000  0.50000000  0.19391000
   0.33333000  0.33333000  0.12928000
   0.50000000  0.50000000  0.19391000
   0.66667000  0.33333000  0.12928000
   0.83333000  0.50000000  0.19391000
   0.00000000  0.66667000  0.12928000
   0.16667000  0.83333000  0.19391000
   0.33333000  0.66667000  0.12928000
   0.50000000  0.83333000  0.19391000
   0.66667000  0.66667000  0.12928000
   0.83333000  0.83333000  0.19391000
   0.00000000  0.00000000  0.25855000
   0.16632866  0.16685677  0.32474901
   0.33333000  0.00000000  0.25855000
   0.49951655  0.16563278  0.32383743
   0.66667000  0.00000000  0.25855000
   0.83394238  0.16859865  0.32443453
   0.00000000  0.33333000  0.25855000
   0.16634941  0.49942062  0.32356803
   0.33333000  0.33333000  0.25855000
   0.49920527  0.49941714  0.32012164
   0.66667000  0.33333000  0.25855000
   0.83315065  0.49962143  0.32452022
   0.00000000  0.66667000  0.25855000
   0.16883794  0.83384076  0.32366246
   0.33333000  0.66667000  0.25855000
   0.50008911  0.83275558  0.32462832
   0.66667000  0.66667000  0.25855000
   0.83249182  0.83517676  0.32206928
   0.00543049  0.33518129  0.37949273
   0.64873850  0.34118792  0.38621916
   0.34312256  0.65141761  0.38636292
   0.51756186  0.51844296  0.40849127
Direct configuration=    23
   0.00000000  0.00000000  0.00000000
   0.99245449  0.98312941  0.38261006
   0.16667000  0.16667000  0.06464000
   0.33333000  0.00000000  0.00000000
   0.33229164  0.00162550  0.37959988
   0.50000000  0.16667000  0.06464000
   0.66667000  0.00000000  0.00000000
   0.67977736  0.00690750  0.38112768
   0.83333000  0.16667000  0.06464000
   0.00000000  0.33333000  0.00000000
   0.16667000  0.50000000  0.06464000
   0.33333000  0.33333000  0.00000000
   0.50000000  0.50000000  0.06464000
   0.66667000  0.33333000  0.00000000
   0.83333000  0.50000000  0.06464000
   0.00000000  0.66667000  0.00000000
   0.99514202  0.68834208  0.38206873
   0.16667000  0.83333000  0.06464000
   0.33333000  0.66667000  0.00000000
   0.50000000  0.83333000  0.06464000
   0.66667000  0.66667000  0.00000000
   0.67769250  0.66581374  0.38328838
   0.83333000  0.83333000  0.06464000
   0.00000000  0.00000000  0.12928000
   0.16667000  0.16667000  0.19391000
   0.33333000  0.00000000  0.12928000
   0.50000000  0.16667000  0.19391000
   0.66667000  0.00000000  0.12928000
   0.83333000  0.16667000  0.19391000
   0.00000000  0.33333000  0.12928000
   0.16667000  0.50000000  0.19391000
   0.33333000  0.33333000  0.12928000
   0.50000000  0.50000000  0.19391000
   0.66667000  0.33333000  0.12928000
   0.83333000  0.50000000  0.19391000
   0.00000000  0.66667000  0.12928000
   0.16667000  0.83333000  0.19391000
   0.33333000  0.66667000  0.12928000
   0.50000000  0.83333000  0.19391000
   0.66667000  0.66667000  0.12928000
   0.83333000  0.83333000  0.19391000
   0.00000000  0.00000000  0.25855000
   0.16634964  0.16678376  0.32478877
   0.33333000  0.00000000  0.25855000
   0.49942836  0.16567684  0.32383817
   0.66667000  0.00000000  0.25855000
   0.83405376  0.16854391  0.32437516
   0.00000000  0.33333000  0.25855000
   0.16642205  0.49933129  0.32358310
   0.33333000  0.33333000  0.25855000
   0.49925750  0.49930935  0.32005995
   0.66667000  0.33333000  0.25855000
   0.83309740  0.49949793  0.32457185
   0.00000000  0.66667000  0.25855000
   0.16889617  0.83385288  0.32368837
   0.33333000  0.66667000  0.25855000
   0.50007922  0.83265267  0.32466703
   0.66667000  0.66667000  0.25855000
   0.83254478  0.83509442  0.32210046
   0.00554348  0.33502039  0.37953178
   0.64886074  0.34077136  0.38622906
   0.34302333  0.65097355  0.38638069
   0.51746432  0.51787030  0.40856650
Direct configuration=    24
   0.00000000  0.00000000  0.00000000
   0.99280468  0.98313090  0.38260116
   0.16667000  0.16667000  0.06464000
   0.33333000  0.00000000  0.00000000
   0.33221740  0.00162207  0.37957158
   0.50000000  0.16667000  0.06464000
   0.66667000  0.00000000  0.00000000
   0.67945280  0.00695067  0.38110808
   0.83333000  0.16667000  0.06464000
   0.00000000  0.33333000  0.00000000
   0.16667000  0.50000000  0.06464000
   0.33333000  0.33333000  0.00000000
   0.50000000  0.50000000  0.06464000
   0.66667000  0.33333000  0.00000000
   0.83333000  0.50000000  0.06464000
   0.00000000  0.66667000  0.00000000
   0.99474071  0.68828924  0.38212465
   0.16667000  0.83333000  0.06464000
   0.33333000  0.66667000  0.00000000
   0.50000000  0.83333000  0.06464000
   0.66667000  0.66667000  0.00000000
   0.67800560  0.66579482  0.38327161
   0.83333000  0.83333000  0.06464000
   0.00000000  0.00000000  0.12928000
   0.16667000  0.16667000  0.19391000
   0.33333000  0.00000000  0.12928000
   0.50000000  0.16667000  0.19391000
   0.66667000  0.00000000  0.12928000
   0.83333000  0.16667000  0.19391000
   0.00000000  0.33333000  0.12928000
   0.16667000  0.50000000  0.19391000
   0.33333000  0.33333000  0.12928000
   0.50000000  0.50000000  0.19391000
   0.66667000  0.33333000  0.12928000
   0.83333000  0.50000000  0.19391000
   0.00000000  0.66667000  0.12928000
   0.16667000  0.83333000  0.19391000
   0.33333000  0.66667000  0.12928000
   0.50000000  0.83333000  0.19391000
   0.66667000  0.66667000  0.12928000
   0.83333000  0.83333000  0.19391000
   0.00000000  0.00000000  0.25855000
   0.16633522  0.16683395  0.32476144
   0.33333000  0.00000000  0.25855000
   0.49948898  0.16564655  0.32383766
   0.66667000  0.00000000  0.25855000
   0.83397720  0.16858154  0.32441597
   0.00000000  0.33333000  0.25855000
   0.16637211  0.49939270  0.32357274
   0.33333000  0.33333000  0.25855000
   0.49922159  0.49938344  0.32010235
   0.66667000  0.33333000  0.25855000
   0.83313401  0.49958283  0.32453636
   0.00000000  0.66667000  0.25855000
   0.16885615  0.83384455  0.32367056
   0.33333000  0.66667000  0.25855000
   0.50008602  0.83272341  0.32464042
   0.66667000  0.66667000  0.25855000
   0.83250838  0.83515102  0.32207903
   0.00546581  0.33513099  0.37950493
   0.64877671  0.34105770  0.38622225
   0.34309154  0.65127880  0.38636847
   0.51753137  0.51826395  0.40851479
Direct configuration=    25
   0.00000000  0.00000000  0.00000000
   0.99227522  0.98313612  0.38262469
   0.16667000  0.16667000  0.06464000
   0.33333000  0.00000000  0.00000000
   0.33225864  0.00153779  0.37959440
   0.50000000  0.16667000  0.06464000
   0.66667000  0.00000000  0.00000000
   0.67998416  0.00679148  0.38117900
   0.83333000  0.16667000  0.06464000
   0.00000000  0.33333000  0.00000000
   0.16667000  0.50000000  0.06464000
   0.33333000  0.33333000  0.00000000
   0.50000000  0.50000000  0.06464000
   0.66667000  0.33333000  0.00000000
   0.83333000  0.50000000  0.06464000
   0.00000000  0.66667000  0.00000000
   0.99545780  0.68828408  0.38212343
   0.16667000  0.83333000  0.06464000
   0.33333000  0.66667000  0.00000000
   0.50000000  0.83333000  0.06464000
   0.66667000  0.66667000  0.00000000
   0.67752096  0.66579796  0.38329286
   0.83333000  0.83333000  0.06464000
   0.00000000  0.00000000  0.12928000
   0.16667000  0.16667000  0.19391000
   0.33333000  0.00000000  0.12928000
   0.50000000  0.16667000  0.19391000
   0.66667000  0.00000000  0.12928000
   0.83333000  0.16667000  0.19391000
   0.00000000  0.33333000  0.12928000
   0.16667000  0.50000000  0.19391000
   0.33333000  0.33333000  0.12928000
   0.50000000  0.50000000  0.19391000
   0.66667000  0.33333000  0.12928000
   0.83333000  0.50000000  0.19391000
   0.00000000  0.66667000  0.12928000
   0.16667000  0.83333000  0.19391000
   0.33333000  0.66667000  0.12928000
   0.50000000  0.83333000  0.19391000
   0.66667000  0.66667000  0.12928000
   0.83333000  0.83333000  0.19391000
   0.00000000  0.00000000  0.25855000
   0.16633391  0.16682506  0.32480975
   0.33333000  0.00000000  0.25855000
   0.49944051  0.16553291  0.32375297
   0.66667000  0.00000000  0.25855000
   0.83406086  0.16860842  0.32437180
   0.00000000  0.33333000  0.25855000
   0.16632051  0.49928538  0.32355657
   0.33333000  0.33333000  0.25855000
   0.49918756  0.49920063  0.32015201
   0.66667000  0.33333000  0.25855000
   0.83323224  0.49958639  0.32457384
   0.00000000  0.66667000  0.25855000
   0.16892276  0.83384364  0.32369612
   0.33333000  0.66667000  0.25855000
   0.50015128  0.83274136  0.32469561
   0.66667000  0.66667000  0.25855000
   0.83240796  0.83496589  0.32208763
   0.00550834  0.33488869  0.37951045
   0.64872726  0.34085623  0.38625889
   0.34301992  0.65091234  0.38635960
   0.51752390  0.51793379  0.40853878
Direct configuration=    26
   0.00000000  0.00000000  0.00000000
   0.99196687  0.98313916  0.38263839
   0.16667000  0.16667000  0.06464000
   0.33333000  0.00000000  0.00000000
   0.33228266  0.00148870  0.37960770
   0.50000000  0.16667000  0.06464000
   0.66667000  0.00000000  0.00000000
   0.68029362  0.00669877  0.38122031
   0.83333000  0.16667000  0.06464000
   0.00000000  0.33333000  0.00000000
   0.16667000  0.50000000  0.06464000
   0.33333000  0.33333000  0.00000000
   0.50000000  0.50000000  0.06464000
   0.66667000  0.33333000  0.00000000
   0.83333000  0.50000000  0.06464000
   0.00000000  0.66667000  0.00000000
   0.99587543  0.68828107  0.38212272
   0.16667000  0.83333000  0.06464000
   0.33333000  0.66667000  0.00000000
   0.50000000  0.83333000  0.06464000
   0.66667000  0.66667000  0.00000000
   0.67723872  0.66579979  0.38330523
   0.83333000  0.83333000  0.06464000
   0.00000000  0.00000000  0.12928000
   0.16667000  0.16667000  0.19391000
   0.33333000  0.00000000  0.12928000
   0.50000000  0.16667000  0.19391000
   0.66667000  0.00000000  0.12928000
   0.83333000  0.16667000  0.19391000
   0.00000000  0.33333000  0.12928000
   0.16667000  0.50000000  0.19391000
   0.33333000  0.33333000  0.12928000
   0.50000000  0.50000000  0.19391000
   0.66667000  0.33333000  0.12928000
   0.83333000  0.50000000  0.19391000
   0.00000000  0.66667000  0.12928000
   0.16667000  0.83333000  0.19391000
   0.33333000  0.66667000  0.12928000
   0.50000000  0.83333000  0.19391000
   0.66667000  0.66667000  0.12928000
   0.83333000  0.83333000  0.19391000
   0.00000000  0.00000000  0.25855000
   0.16633314  0.16681988  0.32483789
   0.33333000  0.00000000  0.25855000
   0.49941229  0.16546673  0.32370364
   0.66667000  0.00000000  0.25855000
   0.83410958  0.16862407  0.32434608
   0.00000000  0.33333000  0.25855000
   0.16629046  0.49922288  0.32354715
   0.33333000  0.33333000  0.25855000
   0.49916773  0.49909417  0.32018094
   0.66667000  0.33333000  0.25855000
   0.83328945  0.49958847  0.32459567
   0.00000000  0.66667000  0.25855000
   0.16896155  0.83384311  0.32371101
   0.33333000  0.66667000  0.25855000
   0.50018928  0.83275182  0.32472775
   0.66667000  0.66667000  0.25855000
   0.83234947  0.83485808  0.32209263
   0.00553310  0.33474757  0.37951366
   0.64869845  0.34073889  0.38628023
   0.34297821  0.65069892  0.38635444
   0.51751955  0.51774151  0.40855275
Direct configuration=    27
   0.00000000  0.00000000  0.00000000
   0.99156548  0.98313058  0.38266273
   0.16667000  0.16667000  0.06464000
   0.33333000  0.00000000  0.00000000
   0.33230761  0.00144884  0.37959305
   0.50000000  0.16667000  0.06464000
   0.66667000  0.00000000  0.00000000
   0.68069314  0.00655550  0.38125992
   0.83333000  0.16667000  0.06464000
   0.00000000  0.33333000  0.00000000
   0.16667000  0.50000000  0.06464000
   0.33333000  0.33333000  0.00000000
   0.50000000  0.50000000  0.06464000
   0.66667000  0.33333000  0.00000000
   0.83333000  0.50000000  0.06464000
   0.00000000  0.66667000  0.00000000
   0.99636610  0.68822707  0.38215505
   0.16667000  0.83333000  0.06464000
   0.33333000  0.66667000  0.00000000
   0.50000000  0.83333000  0.06464000
   0.66667000  0.66667000  0.00000000
   0.67700972  0.66586850  0.38326152
   0.83333000  0.83333000  0.06464000
   0.00000000  0.00000000  0.12928000
   0.16667000  0.16667000  0.19391000
   0.33333000  0.00000000  0.12928000
   0.50000000  0.16667000  0.19391000
   0.66667000  0.00000000  0.12928000
   0.83333000  0.16667000  0.19391000
   0.00000000  0.33333000  0.12928000
   0.16667000  0.50000000  0.19391000
   0.33333000  0.33333000  0.12928000
   0.50000000  0.50000000  0.19391000
   0.66667000  0.33333000  0.12928000
   0.83333000  0.50000000  0.19391000
   0.00000000  0.66667000  0.12928000
   0.16667000  0.83333000  0.19391000
   0.33333000  0.66667000  0.12928000
   0.50000000  0.83333000  0.19391000
   0.66667000  0.66667000  0.12928000
   0.83333000  0.83333000  0.19391000
   0.00000000  0.00000000  0.25855000
   0.16637259  0.16678422  0.32480077
   0.33333000  0.00000000  0.25855000
   0.49946417  0.16535407  0.32370974
   0.66667000  0.00000000  0.25855000
   0.83397908  0.16865481  0.32437190
   0.00000000  0.33333000  0.25855000
   0.16622472  0.49922901  0.32354369
   0.33333000  0.33333000  0.25855000
   0.49919779  0.49905871  0.32019082
   0.66667000  0.33333000  0.25855000
   0.83321909  0.49969459  0.32462303
   0.00000000  0.66667000  0.25855000
   0.16899138  0.83379340  0.32370373
   0.33333000  0.66667000  0.25855000
   0.50019451  0.83263704  0.32474885
   0.66667000  0.66667000  0.25855000
   0.83242266  0.83469154  0.32209491
   0.00545385  0.33456508  0.37951557
   0.64861530  0.34069283  0.38624751
   0.34284840  0.65066680  0.38634938
   0.51754013  0.51775791  0.40856463
Direct configuration=    28
   0.00000000  0.00000000  0.00000000
   0.99123893  0.98312360  0.38268252
   0.16667000  0.16667000  0.06464000
   0.33333000  0.00000000  0.00000000
   0.33232790  0.00141641  0.37958114
   0.50000000  0.16667000  0.06464000
   0.66667000  0.00000000  0.00000000
   0.68101816  0.00643895  0.38129215
   0.83333000  0.16667000  0.06464000
   0.00000000  0.33333000  0.00000000
   0.16667000  0.50000000  0.06464000
   0.33333000  0.33333000  0.00000000
   0.50000000  0.50000000  0.06464000
   0.66667000  0.33333000  0.00000000
   0.83333000  0.50000000  0.06464000
   0.00000000  0.66667000  0.00000000
   0.99676529  0.68818314  0.38218135
   0.16667000  0.83333000  0.06464000
   0.33333000  0.66667000  0.00000000
   0.50000000  0.83333000  0.06464000
   0.66667000  0.66667000  0.00000000
   0.67682342  0.66592440  0.38322596
   0.83333000  0.83333000  0.06464000
   0.00000000  0.00000000  0.12928000
   0.16667000  0.16667000  0.19391000
   0.33333000  0.00000000  0.12928000
   0.50000000  0.16667000  0.19391000
   0.66667000  0.00000000  0.12928000
   0.83333000  0.16667000  0.19391000
   0.00000000  0.33333000  0.12928000
   0.16667000  0.50000000  0.19391000
   0.33333000  0.33333000  0.12928000
   0.50000000  0.50000000  0.19391000
   0.66667000  0.33333000  0.12928000
   0.83333000  0.50000000  0.19391000
   0.00000000  0.66667000  0.12928000
   0.16667000  0.83333000  0.19391000
   0.33333000  0.66667000  0.12928000
   0.50000000  0.83333000  0.19391000
   0.66667000  0.66667000  0.12928000
   0.83333000  0.83333000  0.19391000
   0.00000000  0.00000000  0.25855000
   0.16640469  0.16675520  0.32477057
   0.33333000  0.00000000  0.25855000
   0.49950638  0.16526242  0.32371470
   0.66667000  0.00000000  0.25855000
   0.83387291  0.16867983  0.32439290
   0.00000000  0.33333000  0.25855000
   0.16617123  0.49923399  0.32354088
   0.33333000  0.33333000  0.25855000
   0.49922223  0.49902986  0.32019887
   0.66667000  0.33333000  0.25855000
   0.83316185  0.49978092  0.32464530
   0.00000000  0.66667000  0.25855000
   0.16901565  0.83375296  0.32369780
   0.33333000  0.66667000  0.25855000
   0.50019875  0.83254366  0.32476602
   0.66667000  0.66667000  0.25855000
   0.83248220  0.83455606  0.32209677
   0.00538938  0.33441662  0.37951711
   0.64854765  0.34065535  0.38622089
   0.34274280  0.65064067  0.38634526
   0.51755687  0.51777125  0.40857429
Direct configuration=    29
   0.00000000  0.00000000  0.00000000
   0.99110917  0.98312083  0.38269039
   0.16667000  0.16667000  0.06464000
   0.33333000  0.00000000  0.00000000
   0.33233596  0.00140352  0.37957640
   0.50000000  0.16667000  0.06464000
   0.66667000  0.00000000  0.00000000
   0.68114731  0.00639263  0.38130496
   0.83333000  0.16667000  0.06464000
   0.00000000  0.33333000  0.00000000
   0.16667000  0.50000000  0.06464000
   0.33333000  0.33333000  0.00000000
   0.50000000  0.50000000  0.06464000
   0.66667000  0.33333000  0.00000000
   0.83333000  0.50000000  0.06464000
   0.00000000  0.66667000  0.00000000
   0.99692391  0.68816568  0.38219180
   0.16667000  0.83333000  0.06464000
   0.33333000  0.66667000  0.00000000
   0.50000000  0.83333000  0.06464000
   0.66667000  0.66667000  0.00000000
   0.67674939  0.66594661  0.38321183
   0.83333000  0.83333000  0.06464000
   0.00000000  0.00000000  0.12928000
   0.16667000  0.16667000  0.19391000
   0.33333000  0.00000000  0.12928000
   0.50000000  0.16667000  0.19391000
   0.66667000  0.00000000  0.12928000
   0.83333000  0.16667000  0.19391000
   0.00000000  0.33333000  0.12928000
   0.16667000  0.50000000  0.19391000
   0.33333000  0.33333000  0.12928000
   0.50000000  0.50000000  0.19391000
   0.66667000  0.33333000  0.12928000
   0.83333000  0.50000000  0.19391000
   0.00000000  0.66667000  0.12928000
   0.16667000  0.83333000  0.19391000
   0.33333000  0.66667000  0.12928000
   0.50000000  0.83333000  0.19391000
   0.66667000  0.66667000  0.12928000
   0.83333000  0.83333000  0.19391000
   0.00000000  0.00000000  0.25855000
   0.16641744  0.16674368  0.32475857
   0.33333000  0.00000000  0.25855000
   0.49952316  0.16522600  0.32371668
   0.66667000  0.00000000  0.25855000
   0.83383073  0.16868976  0.32440124
   0.00000000  0.33333000  0.25855000
   0.16614998  0.49923597  0.32353976
   0.33333000  0.33333000  0.25855000
   0.49923195  0.49901840  0.32020206
   0.66667000  0.33333000  0.25855000
   0.83313911  0.49981522  0.32465414
   0.00000000  0.66667000  0.25855000
   0.16902530  0.83373689  0.32369544
   0.33333000  0.66667000  0.25855000
   0.50020044  0.83250656  0.32477284
   0.66667000  0.66667000  0.25855000
   0.83250586  0.83450223  0.32209751
   0.00536376  0.33435762  0.37951773
   0.64852077  0.34064046  0.38621031
   0.34270084  0.65063028  0.38634363
   0.51756352  0.51777656  0.40857813
Direct configuration=    30
   0.00000000  0.00000000  0.00000000
   0.99076586  0.98311681  0.38271740
   0.16667000  0.16667000  0.06464000
   0.33333000  0.00000000  0.00000000
   0.33234130  0.00138675  0.37956773
   0.50000000  0.16667000  0.06464000
   0.66667000  0.00000000  0.00000000
   0.68148343  0.00624575  0.38134347
   0.83333000  0.16667000  0.06464000
   0.00000000  0.33333000  0.00000000
   0.16667000  0.50000000  0.06464000
   0.33333000  0.33333000  0.00000000
   0.50000000  0.50000000  0.06464000
   0.66667000  0.33333000  0.00000000
   0.83333000  0.50000000  0.06464000
   0.00000000  0.66667000  0.00000000
   0.99738152  0.68814014  0.38219124
   0.16667000  0.83333000  0.06464000
   0.33333000  0.66667000  0.00000000
   0.50000000  0.83333000  0.06464000
   0.66667000  0.66667000  0.00000000
   0.67653970  0.66607254  0.38320913
   0.83333000  0.83333000  0.06464000
   0.00000000  0.00000000  0.12928000
   0.16667000  0.16667000  0.19391000
   0.33333000  0.00000000  0.12928000
   0.50000000  0.16667000  0.19391000
   0.66667000  0.00000000  0.12928000
   0.83333000  0.16667000  0.19391000
   0.00000000  0.33333000  0.12928000
   0.16667000  0.50000000  0.19391000
   0.33333000  0.33333000  0.12928000
   0.50000000  0.50000000  0.19391000
   0.66667000  0.33333000  0.12928000
   0.83333000  0.50000000  0.19391000
   0.00000000  0.66667000  0.12928000
   0.16667000  0.83333000  0.19391000
   0.33333000  0.66667000  0.12928000
   0.50000000  0.83333000  0.19391000
   0.66667000  0.66667000  0.12928000
   0.83333000  0.83333000  0.19391000
   0.00000000  0.00000000  0.25855000
   0.16639106  0.16669772  0.32472956
   0.33333000  0.00000000  0.25855000
   0.49949593  0.16518584  0.32372851
   0.66667000  0.00000000  0.25855000
   0.83386417  0.16872223  0.32438328
   0.00000000  0.33333000  0.25855000
   0.16611275  0.49922042  0.32355649
   0.33333000  0.33333000  0.25855000
   0.49917859  0.49904269  0.32017508
   0.66667000  0.33333000  0.25855000
   0.83311923  0.49977426  0.32465569
   0.00000000  0.66667000  0.25855000
   0.16900886  0.83373342  0.32369981
   0.33333000  0.66667000  0.25855000
   0.50019552  0.83243892  0.32475374
   0.66667000  0.66667000  0.25855000
   0.83261698  0.83446868  0.32208050
   0.00527247  0.33420961  0.37950065
   0.64847547  0.34059598  0.38621590
   0.34257570  0.65064322  0.38634689
   0.51753570  0.51787326  0.40857796
Direct configuration=    31
   0.00000000  0.00000000  0.00000000
   0.99054916  0.98311427  0.38273445
   0.16667000  0.16667000  0.06464000
   0.33333000  0.00000000  0.00000000
   0.33234468  0.00137617  0.37956225
   0.50000000  0.16667000  0.06464000
   0.66667000  0.00000000  0.00000000
   0.68169557  0.00615305  0.38136778
   0.83333000  0.16667000  0.06464000
   0.00000000  0.33333000  0.00000000
   0.16667000  0.50000000  0.06464000
   0.33333000  0.33333000  0.00000000
   0.50000000  0.50000000  0.06464000
   0.66667000  0.33333000  0.00000000
   0.83333000  0.50000000  0.06464000
   0.00000000  0.66667000  0.00000000
   0.99767034  0.68812402  0.38219089
   0.16667000  0.83333000  0.06464000
   0.33333000  0.66667000  0.00000000
   0.50000000  0.83333000  0.06464000
   0.66667000  0.66667000  0.00000000
   0.67640735  0.66615203  0.38320743
   0.83333000  0.83333000  0.06464000
   0.00000000  0.00000000  0.12928000
   0.16667000  0.16667000  0.19391000
   0.33333000  0.00000000  0.12928000
   0.50000000  0.16667000  0.19391000
   0.66667000  0.00000000  0.12928000
   0.83333000  0.16667000  0.19391000
   0.00000000  0.33333000  0.12928000
   0.16667000  0.50000000  0.19391000
   0.33333000  0.33333000  0.12928000
   0.50000000  0.50000000  0.19391000
   0.66667000  0.33333000  0.12928000
   0.83333000  0.50000000  0.19391000
   0.00000000  0.66667000  0.12928000
   0.16667000  0.83333000  0.19391000
   0.33333000  0.66667000  0.12928000
   0.50000000  0.83333000  0.19391000
   0.66667000  0.66667000  0.12928000
   0.83333000  0.83333000  0.19391000
   0.00000000  0.00000000  0.25855000
   0.16637441  0.16666872  0.32471126
   0.33333000  0.00000000  0.25855000
   0.49947874  0.16516049  0.32373598
   0.66667000  0.00000000  0.25855000
   0.83388528  0.16874272  0.32437194
   0.00000000  0.33333000  0.25855000
   0.16608925  0.49921060  0.32356704
   0.33333000  0.33333000  0.25855000
   0.49914491  0.49905803  0.32015805
   0.66667000  0.33333000  0.25855000
   0.83310668  0.49974841  0.32465666
   0.00000000  0.66667000  0.25855000
   0.16899849  0.83373122  0.32370257
   0.33333000  0.66667000  0.25855000
   0.50019241  0.83239622  0.32474169
   0.66667000  0.66667000  0.25855000
   0.83268711  0.83444750  0.32206977
   0.00521485  0.33411618  0.37948988
   0.64844687  0.34056790  0.38621943
   0.34249672  0.65065138  0.38634894
   0.51751815  0.51793430  0.40857785
Direct configuration=    32
   0.00000000  0.00000000  0.00000000
   0.99011578  0.98310920  0.38276855
   0.16667000  0.16667000  0.06464000
   0.33333000  0.00000000  0.00000000
   0.33235142  0.00135500  0.37955131
   0.50000000  0.16667000  0.06464000
   0.66667000  0.00000000  0.00000000
   0.68211987  0.00596764  0.38141640
   0.83333000  0.16667000  0.06464000
   0.00000000  0.33333000  0.00000000
   0.16667000  0.50000000  0.06464000
   0.33333000  0.33333000  0.00000000
   0.50000000  0.50000000  0.06464000
   0.66667000  0.33333000  0.00000000
   0.83333000  0.50000000  0.06464000
   0.00000000  0.66667000  0.00000000
   0.99824799  0.68809177  0.38219019
   0.16667000  0.83333000  0.06464000
   0.33333000  0.66667000  0.00000000
   0.50000000  0.83333000  0.06464000
   0.66667000  0.66667000  0.00000000
   0.67614265  0.66631100  0.38320402
   0.83333000  0.83333000  0.06464000
   0.00000000  0.00000000  0.12928000
   0.16667000  0.16667000  0.19391000
   0.33333000  0.00000000  0.12928000
   0.50000000  0.16667000  0.19391000
   0.66667000  0.00000000  0.12928000
   0.83333000  0.16667000  0.19391000
   0.00000000  0.33333000  0.12928000
   0.16667000  0.50000000  0.19391000
   0.33333000  0.33333000  0.12928000
   0.50000000  0.50000000  0.19391000
   0.66667000  0.33333000  0.12928000
   0.83333000  0.50000000  0.19391000
   0.00000000  0.66667000  0.12928000
   0.16667000  0.83333000  0.19391000
   0.33333000  0.66667000  0.12928000
   0.50000000  0.83333000  0.19391000
   0.66667000  0.66667000  0.12928000
   0.83333000  0.83333000  0.19391000
   0.00000000  0.00000000  0.25855000
   0.16634110  0.16661070  0.32467465
   0.33333000  0.00000000  0.25855000
   0.49944436  0.16510980  0.32375092
   0.66667000  0.00000000  0.25855000
   0.83392750  0.16878371  0.32434927
   0.00000000  0.33333000  0.25855000
   0.16604226  0.49919097  0.32358816
   0.33333000  0.33333000  0.25855000
   0.49907756  0.49908870  0.32012398
   0.66667000  0.33333000  0.25855000
   0.83308159  0.49969671  0.32465862
   0.00000000  0.66667000  0.25855000
   0.16897774  0.83372684  0.32370809
   0.33333000  0.66667000  0.25855000
   0.50018620  0.83231083  0.32471759
   0.66667000  0.66667000  0.25855000
   0.83282738  0.83440515  0.32204830
   0.00509961  0.33392933  0.37946833
   0.64838968  0.34051176  0.38622649
   0.34233875  0.65066770  0.38635305
   0.51748304  0.51805638  0.40857763
Direct configuration=    33
   0.00000000  0.00000000  0.00000000
   0.98966117  0.98317500  0.38282916
   0.16667000  0.16667000  0.06464000
   0.33333000  0.00000000  0.00000000
   0.33235596  0.00138774  0.37955542
   0.50000000  0.16667000  0.06464000
   0.66667000  0.00000000  0.00000000
   0.68255230  0.00578657  0.38143755
   0.83333000  0.16667000  0.06464000
   0.00000000  0.33333000  0.00000000
   0.16667000  0.50000000  0.06464000
   0.33333000  0.33333000  0.00000000
   0.50000000  0.50000000  0.06464000
   0.66667000  0.33333000  0.00000000
   0.83333000  0.50000000  0.06464000
   0.00000000  0.66667000  0.00000000
   0.99882771  0.68805039  0.38213602
   0.16667000  0.83333000  0.06464000
   0.33333000  0.66667000  0.00000000
   0.50000000  0.83333000  0.06464000
   0.66667000  0.66667000  0.00000000
   0.67583968  0.66659976  0.38319177
   0.83333000  0.83333000  0.06464000
   0.00000000  0.00000000  0.12928000
   0.16667000  0.16667000  0.19391000
   0.33333000  0.00000000  0.12928000
   0.50000000  0.16667000  0.19391000
   0.66667000  0.00000000  0.12928000
   0.83333000  0.16667000  0.19391000
   0.00000000  0.33333000  0.12928000
   0.16667000  0.50000000  0.19391000
   0.33333000  0.33333000  0.12928000
   0.50000000  0.50000000  0.19391000
   0.66667000  0.33333000  0.12928000
   0.83333000  0.50000000  0.19391000
   0.00000000  0.66667000  0.12928000
   0.16667000  0.83333000  0.19391000
   0.33333000  0.66667000  0.12928000
   0.50000000  0.83333000  0.19391000
   0.66667000  0.66667000  0.12928000
   0.83333000  0.83333000  0.19391000
   0.00000000  0.00000000  0.25855000
   0.16632237  0.16655127  0.32468212
   0.33333000  0.00000000  0.25855000
   0.49938347  0.16518560  0.32375302
   0.66667000  0.00000000  0.25855000
   0.83398063  0.16876863  0.32429176
   0.00000000  0.33333000  0.25855000
   0.16603198  0.49917085  0.32360416
   0.33333000  0.33333000  0.25855000
   0.49905128  0.49910283  0.32017960
   0.66667000  0.33333000  0.25855000
   0.83301902  0.49964421  0.32467443
   0.00000000  0.66667000  0.25855000
   0.16900371  0.83377331  0.32371045
   0.33333000  0.66667000  0.25855000
   0.50024382  0.83237247  0.32470253
   0.66667000  0.66667000  0.25855000
   0.83280623  0.83431192  0.32202619
   0.00496922  0.33375165  0.37946654
   0.64834054  0.34051318  0.38623323
   0.34222621  0.65067638  0.38634993
   0.51742058  0.51817004  0.40852334
Direct configuration=    34
   0.00000000  0.00000000  0.00000000
   0.98949143  0.98319957  0.38285180
   0.16667000  0.16667000  0.06464000
   0.33333000  0.00000000  0.00000000
   0.33235766  0.00139997  0.37955695
   0.50000000  0.16667000  0.06464000
   0.66667000  0.00000000  0.00000000
   0.68271377  0.00571896  0.38144545
   0.83333000  0.16667000  0.06464000
   0.00000000  0.33333000  0.00000000
   0.16667000  0.50000000  0.06464000
   0.33333000  0.33333000  0.00000000
   0.50000000  0.50000000  0.06464000
   0.66667000  0.33333000  0.00000000
   0.83333000  0.50000000  0.06464000
   0.00000000  0.66667000  0.00000000
   0.99904418  0.68803493  0.38211579
   0.16667000  0.83333000  0.06464000
   0.33333000  0.66667000  0.00000000
   0.50000000  0.83333000  0.06464000
   0.66667000  0.66667000  0.00000000
   0.67572656  0.66670759  0.38318720
   0.83333000  0.83333000  0.06464000
   0.00000000  0.00000000  0.12928000
   0.16667000  0.16667000  0.19391000
   0.33333000  0.00000000  0.12928000
   0.50000000  0.16667000  0.19391000
   0.66667000  0.00000000  0.12928000
   0.83333000  0.16667000  0.19391000
   0.00000000  0.33333000  0.12928000
   0.16667000  0.50000000  0.19391000
   0.33333000  0.33333000  0.12928000
   0.50000000  0.50000000  0.19391000
   0.66667000  0.33333000  0.12928000
   0.83333000  0.50000000  0.19391000
   0.00000000  0.66667000  0.12928000
   0.16667000  0.83333000  0.19391000
   0.33333000  0.66667000  0.12928000
   0.50000000  0.83333000  0.19391000
   0.66667000  0.66667000  0.12928000
   0.83333000  0.83333000  0.19391000
   0.00000000  0.00000000  0.25855000
   0.16631538  0.16652908  0.32468490
   0.33333000  0.00000000  0.25855000
   0.49936073  0.16521391  0.32375380
   0.66667000  0.00000000  0.25855000
   0.83400046  0.16876301  0.32427029
   0.00000000  0.33333000  0.25855000
   0.16602815  0.49916334  0.32361014
   0.33333000  0.33333000  0.25855000
   0.49904146  0.49910811  0.32020037
   0.66667000  0.33333000  0.25855000
   0.83299566  0.49962461  0.32468033
   0.00000000  0.66667000  0.25855000
   0.16901341  0.83379066  0.32371133
   0.33333000  0.66667000  0.25855000
   0.50026533  0.83239549  0.32469690
   0.66667000  0.66667000  0.25855000
   0.83279834  0.83427711  0.32201794
   0.00492053  0.33368531  0.37946587
   0.64832219  0.34051371  0.38623575
   0.34218419  0.65067962  0.38634877
   0.51739726  0.51821248  0.40850307
Direct configuration=    35
   0.00000000  0.00000000  0.00000000
   0.98941207  0.98321106  0.38286238
   0.16667000  0.16667000  0.06464000
   0.33333000  0.00000000  0.00000000
   0.33235845  0.00140568  0.37955767
   0.50000000  0.16667000  0.06464000
   0.66667000  0.00000000  0.00000000
   0.68278926  0.00568735  0.38144914
   0.83333000  0.16667000  0.06464000
   0.00000000  0.33333000  0.00000000
   0.16667000  0.50000000  0.06464000
   0.33333000  0.33333000  0.00000000
   0.50000000  0.50000000  0.06464000
   0.66667000  0.33333000  0.00000000
   0.83333000  0.50000000  0.06464000
   0.00000000  0.66667000  0.00000000
   0.99914537  0.68802771  0.38210633
   0.16667000  0.83333000  0.06464000
   0.33333000  0.66667000  0.00000000
   0.50000000  0.83333000  0.06464000
   0.66667000  0.66667000  0.00000000
   0.67567367  0.66675800  0.38318506
   0.83333000  0.83333000  0.06464000
   0.00000000  0.00000000  0.12928000
   0.16667000  0.16667000  0.19391000
   0.33333000  0.00000000  0.12928000
   0.50000000  0.16667000  0.19391000
   0.66667000  0.00000000  0.12928000
   0.83333000  0.16667000  0.19391000
   0.00000000  0.33333000  0.12928000
   0.16667000  0.50000000  0.19391000
   0.33333000  0.33333000  0.12928000
   0.50000000  0.50000000  0.19391000
   0.66667000  0.33333000  0.12928000
   0.83333000  0.50000000  0.19391000
   0.00000000  0.66667000  0.12928000
   0.16667000  0.83333000  0.19391000
   0.33333000  0.66667000  0.12928000
   0.50000000  0.83333000  0.19391000
   0.66667000  0.66667000  0.12928000
   0.83333000  0.83333000  0.19391000
   0.00000000  0.00000000  0.25855000
   0.16631211  0.16651870  0.32468621
   0.33333000  0.00000000  0.25855000
   0.49935010  0.16522714  0.32375417
   0.66667000  0.00000000  0.25855000
   0.83400974  0.16876038  0.32426025
   0.00000000  0.33333000  0.25855000
   0.16602635  0.49915983  0.32361293
   0.33333000  0.33333000  0.25855000
   0.49903688  0.49911057  0.32021008
   0.66667000  0.33333000  0.25855000
   0.83298474  0.49961545  0.32468309
   0.00000000  0.66667000  0.25855000
   0.16901794  0.83379877  0.32371174
   0.33333000  0.66667000  0.25855000
   0.50027539  0.83240625  0.32469427
   0.66667000  0.66667000  0.25855000
   0.83279465  0.83426083  0.32201408
   0.00489777  0.33365429  0.37946556
   0.64831361  0.34051396  0.38623692
   0.34216455  0.65068113  0.38634822
   0.51738636  0.51823232  0.40849360
Direct configuration=    36
   0.00000000  0.00000000  0.00000000
   0.98913401  0.98329565  0.38287521
   0.16667000  0.16667000  0.06464000
   0.33333000  0.00000000  0.00000000
   0.33237651  0.00153421  0.37957722
   0.50000000  0.16667000  0.06464000
   0.66667000  0.00000000  0.00000000
   0.68299221  0.00562577  0.38144653
   0.83333000  0.16667000  0.06464000
   0.00000000  0.33333000  0.00000000
   0.16667000  0.50000000  0.06464000
   0.33333000  0.33333000  0.00000000
   0.50000000  0.50000000  0.06464000
   0.66667000  0.33333000  0.00000000
   0.83333000  0.50000000  0.06464000
   0.00000000  0.66667000  0.00000000
   0.99941757  0.68796800  0.38204710
   0.16667000  0.83333000  0.06464000
   0.33333000  0.66667000  0.00000000
   0.50000000  0.83333000  0.06464000
   0.66667000  0.66667000  0.00000000
   0.67547814  0.66707728  0.38315957
   0.83333000  0.83333000  0.06464000
   0.00000000  0.00000000  0.12928000
   0.16667000  0.16667000  0.19391000
   0.33333000  0.00000000  0.12928000
   0.50000000  0.16667000  0.19391000
   0.66667000  0.00000000  0.12928000
   0.83333000  0.16667000  0.19391000
   0.00000000  0.33333000  0.12928000
   0.16667000  0.50000000  0.19391000
   0.33333000  0.33333000  0.12928000
   0.50000000  0.50000000  0.19391000
   0.66667000  0.33333000  0.12928000
   0.83333000  0.50000000  0.19391000
   0.00000000  0.66667000  0.12928000
   0.16667000  0.83333000  0.19391000
   0.33333000  0.66667000  0.12928000
   0.50000000  0.83333000  0.19391000
   0.66667000  0.66667000  0.12928000
   0.83333000  0.83333000  0.19391000
   0.00000000  0.00000000  0.25855000
   0.16634958  0.16652355  0.32473114
   0.33333000  0.00000000  0.25855000
   0.49933841  0.16535051  0.32373611
   0.66667000  0.00000000  0.25855000
   0.83395749  0.16874097  0.32423810
   0.00000000  0.33333000  0.25855000
   0.16601173  0.49917095  0.32360775
   0.33333000  0.33333000  0.25855000
   0.49910116  0.49911105  0.32017405
   0.66667000  0.33333000  0.25855000
   0.83291767  0.49966503  0.32470773
   0.00000000  0.66667000  0.25855000
   0.16907649  0.83385817  0.32370584
   0.33333000  0.66667000  0.25855000
   0.50028952  0.83252244  0.32471609
   0.66667000  0.66667000  0.25855000
   0.83277013  0.83414349  0.32201112
   0.00483235  0.33356852  0.37948998
   0.64835790  0.34053568  0.38623787
   0.34210098  0.65072031  0.38634453
   0.51735345  0.51821051  0.40851103
Direct configuration=    37
   0.00000000  0.00000000  0.00000000
   0.98902599  0.98332851  0.38288019
   0.16667000  0.16667000  0.06464000
   0.33333000  0.00000000  0.00000000
   0.33238353  0.00158413  0.37958481
   0.50000000  0.16667000  0.06464000
   0.66667000  0.00000000  0.00000000
   0.68307105  0.00560184  0.38144552
   0.83333000  0.16667000  0.06464000
   0.00000000  0.33333000  0.00000000
   0.16667000  0.50000000  0.06464000
   0.33333000  0.33333000  0.00000000
   0.50000000  0.50000000  0.06464000
   0.66667000  0.33333000  0.00000000
   0.83333000  0.50000000  0.06464000
   0.00000000  0.66667000  0.00000000
   0.99952331  0.68794481  0.38202409
   0.16667000  0.83333000  0.06464000
   0.33333000  0.66667000  0.00000000
   0.50000000  0.83333000  0.06464000
   0.66667000  0.66667000  0.00000000
   0.67540219  0.66720130  0.38314967
   0.83333000  0.83333000  0.06464000
   0.00000000  0.00000000  0.12928000
   0.16667000  0.16667000  0.19391000
   0.33333000  0.00000000  0.12928000
   0.50000000  0.16667000  0.19391000
   0.66667000  0.00000000  0.12928000
   0.83333000  0.16667000  0.19391000
   0.00000000  0.33333000  0.12928000
   0.16667000  0.50000000  0.19391000
   0.33333000  0.33333000  0.12928000
   0.50000000  0.50000000  0.19391000
   0.66667000  0.33333000  0.12928000
   0.83333000  0.50000000  0.19391000
   0.00000000  0.66667000  0.12928000
   0.16667000  0.83333000  0.19391000
   0.33333000  0.66667000  0.12928000
   0.50000000  0.83333000  0.19391000
   0.66667000  0.66667000  0.12928000
   0.83333000  0.83333000  0.19391000
   0.00000000  0.00000000  0.25855000
   0.16636414  0.16652543  0.32474860
   0.33333000  0.00000000  0.25855000
   0.49933386  0.16539843  0.32372910
   0.66667000  0.00000000  0.25855000
   0.83393719  0.16873343  0.32422949
   0.00000000  0.33333000  0.25855000
   0.16600605  0.49917527  0.32360573
   0.33333000  0.33333000  0.25855000
   0.49912613  0.49911123  0.32016006
   0.66667000  0.33333000  0.25855000
   0.83289162  0.49968429  0.32471730
   0.00000000  0.66667000  0.25855000
   0.16909924  0.83388124  0.32370355
   0.33333000  0.66667000  0.25855000
   0.50029501  0.83256757  0.32472456
   0.66667000  0.66667000  0.25855000
   0.83276061  0.83409791  0.32200997
   0.00480694  0.33353519  0.37949946
   0.64837510  0.34054412  0.38623824
   0.34207629  0.65073553  0.38634309
   0.51734066  0.51820204  0.40851780
Direct configuration=    38
   0.00000000  0.00000000  0.00000000
   0.98880342  0.98342931  0.38285545
   0.16667000  0.16667000  0.06464000
   0.33333000  0.00000000  0.00000000
   0.33242181  0.00180317  0.37960906
   0.50000000  0.16667000  0.06464000
   0.66667000  0.00000000  0.00000000
   0.68316097  0.00558246  0.38146242
   0.83333000  0.16667000  0.06464000
   0.00000000  0.33333000  0.00000000
   0.16667000  0.50000000  0.06464000
   0.33333000  0.33333000  0.00000000
   0.50000000  0.50000000  0.06464000
   0.66667000  0.33333000  0.00000000
   0.83333000  0.50000000  0.06464000
   0.00000000  0.66667000  0.00000000
   0.99972973  0.68784787  0.38199066
   0.16667000  0.83333000  0.06464000
   0.33333000  0.66667000  0.00000000
   0.50000000  0.83333000  0.06464000
   0.66667000  0.66667000  0.00000000
   0.67511863  0.66747826  0.38315777
   0.83333000  0.83333000  0.06464000
   0.00000000  0.00000000  0.12928000
   0.16667000  0.16667000  0.19391000
   0.33333000  0.00000000  0.12928000
   0.50000000  0.16667000  0.19391000
   0.66667000  0.00000000  0.12928000
   0.83333000  0.16667000  0.19391000
   0.00000000  0.33333000  0.12928000
   0.16667000  0.50000000  0.19391000
   0.33333000  0.33333000  0.12928000
   0.50000000  0.50000000  0.19391000
   0.66667000  0.33333000  0.12928000
   0.83333000  0.50000000  0.19391000
   0.00000000  0.66667000  0.12928000
   0.16667000  0.83333000  0.19391000
   0.33333000  0.66667000  0.12928000
   0.50000000  0.83333000  0.19391000
   0.66667000  0.66667000  0.12928000
   0.83333000  0.83333000  0.19391000
   0.00000000  0.00000000  0.25855000
   0.16636712  0.16656981  0.32477665
   0.33333000  0.00000000  0.25855000
   0.49932612  0.16547316  0.32371040
   0.66667000  0.00000000  0.25855000
   0.83394807  0.16878043  0.32422179
   0.00000000  0.33333000  0.25855000
   0.16596900  0.49920192  0.32361178
   0.33333000  0.33333000  0.25855000
   0.49915266  0.49919298  0.32017041
   0.66667000  0.33333000  0.25855000
   0.83289018  0.49971402  0.32472543
   0.00000000  0.66667000  0.25855000
   0.16911911  0.83393988  0.32371466
   0.33333000  0.66667000  0.25855000
   0.50024923  0.83263025  0.32474078
   0.66667000  0.66667000  0.25855000
   0.83283191  0.83408861  0.32198940
   0.00477034  0.33350681  0.37951394
   0.64843903  0.34064947  0.38624019
   0.34210605  0.65070018  0.38631670
   0.51735249  0.51816476  0.40850806
Direct configuration=    39
   0.00000000  0.00000000  0.00000000
   0.98852662  0.98355467  0.38282468
   0.16667000  0.16667000  0.06464000
   0.33333000  0.00000000  0.00000000
   0.33246942  0.00207557  0.37963921
   0.50000000  0.16667000  0.06464000
   0.66667000  0.00000000  0.00000000
   0.68327279  0.00555834  0.38148344
   0.83333000  0.16667000  0.06464000
   0.00000000  0.33333000  0.00000000
   0.16667000  0.50000000  0.06464000
   0.33333000  0.33333000  0.00000000
   0.50000000  0.50000000  0.06464000
   0.66667000  0.33333000  0.00000000
   0.83333000  0.50000000  0.06464000
   0.00000000  0.66667000  0.00000000
   0.99998644  0.68772731  0.38194907
   0.16667000  0.83333000  0.06464000
   0.33333000  0.66667000  0.00000000
   0.50000000  0.83333000  0.06464000
   0.66667000  0.66667000  0.00000000
   0.67476600  0.66782268  0.38316784
   0.83333000  0.83333000  0.06464000
   0.00000000  0.00000000  0.12928000
   0.16667000  0.16667000  0.19391000
   0.33333000  0.00000000  0.12928000
   0.50000000  0.16667000  0.19391000
   0.66667000  0.00000000  0.12928000
   0.83333000  0.16667000  0.19391000
   0.00000000  0.33333000  0.12928000
   0.16667000  0.50000000  0.19391000
   0.33333000  0.33333000  0.12928000
   0.50000000  0.50000000  0.19391000
   0.66667000  0.33333000  0.12928000
   0.83333000  0.50000000  0.19391000
   0.00000000  0.66667000  0.12928000
   0.16667000  0.83333000  0.19391000
   0.33333000  0.66667000  0.12928000
   0.50000000  0.83333000  0.19391000
   0.66667000  0.66667000  0.12928000
   0.83333000  0.83333000  0.19391000
   0.00000000  0.00000000  0.25855000
   0.16637083  0.16662500  0.32481154
   0.33333000  0.00000000  0.25855000
   0.49931649  0.16556608  0.32368715
   0.66667000  0.00000000  0.25855000
   0.83396160  0.16883888  0.32421220
   0.00000000  0.33333000  0.25855000
   0.16592294  0.49923507  0.32361930
   0.33333000  0.33333000  0.25855000
   0.49918565  0.49929465  0.32018329
   0.66667000  0.33333000  0.25855000
   0.83288838  0.49975099  0.32473554
   0.00000000  0.66667000  0.25855000
   0.16914382  0.83401281  0.32372847
   0.33333000  0.66667000  0.25855000
   0.50019231  0.83270820  0.32476096
   0.66667000  0.66667000  0.25855000
   0.83292058  0.83407705  0.32196382
   0.00472482  0.33347151  0.37953195
   0.64851854  0.34078049  0.38624262
   0.34214307  0.65065621  0.38628389
   0.51736719  0.51811839  0.40849594
Direct configuration=    40
   0.00000000  0.00000000  0.00000000
   0.98832714  0.98371498  0.38281703
   0.16667000  0.16667000  0.06464000
   0.33333000  0.00000000  0.00000000
   0.33252420  0.00233087  0.37963092
   0.50000000  0.16667000  0.06464000
   0.66667000  0.00000000  0.00000000
   0.68335344  0.00551020  0.38149027
   0.83333000  0.16667000  0.06464000
   0.00000000  0.33333000  0.00000000
   0.16667000  0.50000000  0.06464000
   0.33333000  0.33333000  0.00000000
   0.50000000  0.50000000  0.06464000
   0.66667000  0.33333000  0.00000000
   0.83333000  0.50000000  0.06464000
   0.00000000  0.66667000  0.00000000
   0.00018313  0.68760030  0.38193082
   0.16667000  0.83333000  0.06464000
   0.33333000  0.66667000  0.00000000
   0.50000000  0.83333000  0.06464000
   0.66667000  0.66667000  0.00000000
   0.67449605  0.66811053  0.38316783
   0.83333000  0.83333000  0.06464000
   0.00000000  0.00000000  0.12928000
   0.16667000  0.16667000  0.19391000
   0.33333000  0.00000000  0.12928000
   0.50000000  0.16667000  0.19391000
   0.66667000  0.00000000  0.12928000
   0.83333000  0.16667000  0.19391000
   0.00000000  0.33333000  0.12928000
   0.16667000  0.50000000  0.19391000
   0.33333000  0.33333000  0.12928000
   0.50000000  0.50000000  0.19391000
   0.66667000  0.33333000  0.12928000
   0.83333000  0.50000000  0.19391000
   0.00000000  0.66667000  0.12928000
   0.16667000  0.83333000  0.19391000
   0.33333000  0.66667000  0.12928000
   0.50000000  0.83333000  0.19391000
   0.66667000  0.66667000  0.12928000
   0.83333000  0.83333000  0.19391000
   0.00000000  0.00000000  0.25855000
   0.16638251  0.16665601  0.32479556
   0.33333000  0.00000000  0.25855000
   0.49929736  0.16559315  0.32369817
   0.66667000  0.00000000  0.25855000
   0.83399752  0.16890126  0.32419636
   0.00000000  0.33333000  0.25855000
   0.16591286  0.49925812  0.32362562
   0.33333000  0.33333000  0.25855000
   0.49917182  0.49931549  0.32016044
   0.66667000  0.33333000  0.25855000
   0.83288402  0.49980950  0.32473913
   0.00000000  0.66667000  0.25855000
   0.16912890  0.83405324  0.32375578
   0.33333000  0.66667000  0.25855000
   0.50020436  0.83272951  0.32476253
   0.66667000  0.66667000  0.25855000
   0.83290337  0.83408490  0.32196941
   0.00468167  0.33350228  0.37954212
   0.64861704  0.34088246  0.38624697
   0.34211090  0.65061651  0.38628551
   0.51742251  0.51811101  0.40849945
Direct configuration=    41
   0.00000000  0.00000000  0.00000000
   0.98795896  0.98401084  0.38280291
   0.16667000  0.16667000  0.06464000
   0.33333000  0.00000000  0.00000000
   0.33262529  0.00280208  0.37961562
   0.50000000  0.16667000  0.06464000
   0.66667000  0.00000000  0.00000000
   0.68350229  0.00542134  0.38150287
   0.83333000  0.16667000  0.06464000
   0.00000000  0.33333000  0.00000000
   0.16667000  0.50000000  0.06464000
   0.33333000  0.33333000  0.00000000
   0.50000000  0.50000000  0.06464000
   0.66667000  0.33333000  0.00000000
   0.83333000  0.50000000  0.06464000
   0.00000000  0.66667000  0.00000000
   0.00054614  0.68736589  0.38189713
   0.16667000  0.83333000  0.06464000
   0.33333000  0.66667000  0.00000000
   0.50000000  0.83333000  0.06464000
   0.66667000  0.66667000  0.00000000
   0.67399781  0.66864180  0.38316782
   0.83333000  0.83333000  0.06464000
   0.00000000  0.00000000  0.12928000
   0.16667000  0.16667000  0.19391000
   0.33333000  0.00000000  0.12928000
   0.50000000  0.16667000  0.19391000
   0.66667000  0.00000000  0.12928000
   0.83333000  0.16667000  0.19391000
   0.00000000  0.33333000  0.12928000
   0.16667000  0.50000000  0.19391000
   0.33333000  0.33333000  0.12928000
   0.50000000  0.50000000  0.19391000
   0.66667000  0.33333000  0.12928000
   0.83333000  0.50000000  0.19391000
   0.00000000  0.66667000  0.12928000
   0.16667000  0.83333000  0.19391000
   0.33333000  0.66667000  0.12928000
   0.50000000  0.83333000  0.19391000
   0.66667000  0.66667000  0.12928000
   0.83333000  0.83333000  0.19391000
   0.00000000  0.00000000  0.25855000
   0.16640407  0.16671324  0.32476606
   0.33333000  0.00000000  0.25855000
   0.49926205  0.16564310  0.32371852
   0.66667000  0.00000000  0.25855000
   0.83406383  0.16901639  0.32416713
   0.00000000  0.33333000  0.25855000
   0.16589426  0.49930066  0.32363728
   0.33333000  0.33333000  0.25855000
   0.49914630  0.49935396  0.32011828
   0.66667000  0.33333000  0.25855000
   0.83287597  0.49991749  0.32474575
   0.00000000  0.66667000  0.25855000
   0.16910137  0.83412785  0.32380618
   0.33333000  0.66667000  0.25855000
   0.50022660  0.83276883  0.32476545
   0.66667000  0.66667000  0.25855000
   0.83287163  0.83409939  0.32197971
   0.00460203  0.33355908  0.37956090
   0.64879883  0.34107066  0.38625499
   0.34205151  0.65054323  0.38628850
   0.51752459  0.51809740  0.40850592
Direct configuration=    42
   0.00000000  0.00000000  0.00000000
   0.98776334  0.98426798  0.38282674
   0.16667000  0.16667000  0.06464000
   0.33333000  0.00000000  0.00000000
   0.33267472  0.00303599  0.37958259
   0.50000000  0.16667000  0.06464000
   0.66667000  0.00000000  0.00000000
   0.68363848  0.00530160  0.38150678
   0.83333000  0.16667000  0.06464000
   0.00000000  0.33333000  0.00000000
   0.16667000  0.50000000  0.06464000
   0.33333000  0.33333000  0.00000000
   0.50000000  0.50000000  0.06464000
   0.66667000  0.33333000  0.00000000
   0.83333000  0.50000000  0.06464000
   0.00000000  0.66667000  0.00000000
   0.00076358  0.68721792  0.38187749
   0.16667000  0.83333000  0.06464000
   0.33333000  0.66667000  0.00000000
   0.50000000  0.83333000  0.06464000
   0.66667000  0.66667000  0.00000000
   0.67372575  0.66895550  0.38315481
   0.83333000  0.83333000  0.06464000
   0.00000000  0.00000000  0.12928000
   0.16667000  0.16667000  0.19391000
   0.33333000  0.00000000  0.12928000
   0.50000000  0.16667000  0.19391000
   0.66667000  0.00000000  0.12928000
   0.83333000  0.16667000  0.19391000
   0.00000000  0.33333000  0.12928000
   0.16667000  0.50000000  0.19391000
   0.33333000  0.33333000  0.12928000
   0.50000000  0.50000000  0.19391000
   0.66667000  0.33333000  0.12928000
   0.83333000  0.50000000  0.19391000
   0.00000000  0.66667000  0.12928000
   0.16667000  0.83333000  0.19391000
   0.33333000  0.66667000  0.12928000
   0.50000000  0.83333000  0.19391000
   0.66667000  0.66667000  0.12928000
   0.83333000  0.83333000  0.19391000
   0.00000000  0.00000000  0.25855000
   0.16643962  0.16672480  0.32473393
   0.33333000  0.00000000  0.25855000
   0.49928972  0.16568780  0.32371993
   0.66667000  0.00000000  0.25855000
   0.83403838  0.16903971  0.32414627
   0.00000000  0.33333000  0.25855000
   0.16590622  0.49934286  0.32364385
   0.33333000  0.33333000  0.25855000
   0.49914595  0.49928910  0.32017626
   0.66667000  0.33333000  0.25855000
   0.83284062  0.50002296  0.32474974
   0.00000000  0.66667000  0.25855000
   0.16905108  0.83410788  0.32383535
   0.33333000  0.66667000  0.25855000
   0.50019483  0.83275230  0.32475979
   0.66667000  0.66667000  0.25855000
   0.83293452  0.83405423  0.32201160
   0.00452595  0.33364015  0.37954653
   0.64894031  0.34119214  0.38624941
   0.34193167  0.65046606  0.38629642
   0.51759285  0.51815069  0.40848110
