Generated by VASPKIT code               
   1.00000000000000     
     9.5029000000000003    0.0000000000000000    0.0000000000000000
     0.0000000000000000   13.4327000000000005    0.0000000000000000
     0.0000000000000000    0.0000000000000000   26.1938999999999993
   Mo   Nb   O 
   106     1     1
Selective dynamics
Direct
  0.4996795682989914  0.0006305978938841  0.3416963648297744   T   T   T
  0.5000000000000000  0.1666700000000034  0.2564100000000025   F   F   F
  0.6666700000000034  0.1666700000000034  0.0000000000000000   F   F   F
  0.5000000000000000  0.1666700000000034  0.0854700000000008   F   F   F
  0.6666700000000034  0.1666700000000034  0.1709400000000016   F   F   F
  0.6666700000000034  0.0000000000000000  0.0854700000000008   F   F   F
  0.6663609054210320  0.1664153170551013  0.3423473733604382   T   T   T
  0.4976400712985846  0.1657235301529488  0.4229165711448002   T   T   T
  0.8333299999999966  0.3333299999999966  0.0000000000000000   F   F   F
  0.6666700000000034  0.3333299999999966  0.2564100000000025   F   F   F
  0.8362293554895756  0.8383289994435810  0.4237659683893461   T   T   T
  0.3326901004734946  0.5018325299380483  0.3433081203095265   T   T   T
  0.8333299999999966  0.6666700000000034  0.0000000000000000   F   F   F
  0.6666700000000034  0.6666700000000034  0.2564100000000025   F   F   F
  0.6673932531136266  0.8326672265137564  0.3431260453136363   T   T   T
  0.8333299999999966  0.8333299999999966  0.2564100000000025   F   F   F
  0.8359035781854753  0.6678911286139158  0.3420995368318850   T   T   T
  0.8333299999999966  0.8333299999999966  0.0854700000000008   F   F   F
  0.8333299999999966  0.6666700000000034  0.1709400000000016   F   F   F
  0.6651432763736940  0.3329642308629639  0.4227278897904061   T   T   T
  0.8333299999999966  0.3333299999999966  0.1709400000000016   F   F   F
  0.4967674401321061  0.4931413518371344  0.4265700219930430   T   T   T
  0.6666700000000034  0.5000000000000000  0.1709400000000016   F   F   F
  0.6666700000000034  0.3333299999999966  0.0854700000000008   F   F   F
  0.6662160392663242  0.5014481251762877  0.3429358992320000   T   T   T
  0.1623829135079249  0.8372994879252308  0.4215522169455119   T   T   T
  0.6666700000000034  0.5000000000000000  0.0000000000000000   F   F   F
  0.3335145580247471  0.8307581501720620  0.3425316133587062   T   T   T
  0.1666700000000034  0.6666700000000034  0.0000000000000000   F   F   F
  0.1670521418941328  0.3331594636263444  0.3419210103820626   T   T   T
  0.1666700000000034  0.5000000000000000  0.0854700000000008   F   F   F
  0.1666700000000034  0.3333299999999966  0.1709400000000016   F   F   F
  0.1666700000000034  0.3333299999999966  0.0000000000000000   F   F   F
  0.0000000000000000  0.3333299999999966  0.2564100000000025   F   F   F
  0.0006618501443501  0.4988610388982320  0.3425218352408506   T   T   T
  0.1666700000000034  0.5000000000000000  0.2564100000000025   F   F   F
  0.1666700000000034  0.8333299999999966  0.2564100000000025   F   F   F
  0.1666700000000034  0.6666700000000034  0.1709400000000016   F   F   F
  0.3333299999999966  0.6666700000000034  0.2564100000000025   F   F   F
  0.1684015715740390  0.6668228867912795  0.3427494512755358   T   T   T
  0.3333299999999966  0.6666700000000034  0.0854700000000008   F   F   F
  0.3333299999999966  0.8333299999999966  0.0000000000000000   F   F   F
  0.1666700000000034  0.8333299999999966  0.0854700000000008   F   F   F
  0.3333299999999966  0.8333299999999966  0.1709400000000016   F   F   F
  0.3333299999999966  0.1666700000000034  0.0000000000000000   F   F   F
  0.3333299999999966  0.0000000000000000  0.0854700000000008   F   F   F
  0.5000000000000000  0.0000000000000000  0.0000000000000000   F   F   F
  0.0000000000000000  0.6666700000000034  0.2564100000000025   F   F   F
  0.1666700000000034  0.1666700000000034  0.2564100000000025   F   F   F
  0.6666700000000034  0.8333299999999966  0.0000000000000000   F   F   F
  0.3333299999999966  0.0000000000000000  0.2564100000000025   F   F   F
  0.3333299999999966  0.1666700000000034  0.1709400000000016   F   F   F
  0.3328736881748360  0.0002529964587015  0.4232716101483795   T   T   T
  0.3336456199792499  0.1666311580833413  0.3418568573023803   T   T   T
  0.1667996987127343  0.1663580251503223  0.4225871723147023   T   T   T
  0.1676415427203688  0.0000776872767723  0.3415989689339758   T   T   T
  0.0000000000000000  0.1666700000000034  0.1709400000000016   F   F   F
  0.1666700000000034  0.1666700000000034  0.0854700000000008   F   F   F
  0.1666700000000034  0.0000000000000000  0.1709400000000016   F   F   F
  0.0000000000000000  0.3333299999999966  0.0854700000000008   F   F   F
 -0.0003362264625490  0.9991249503706822  0.4233499220758462   T   T   T
  0.1666700000000034  0.0000000000000000  0.0000000000000000   F   F   F
  0.0000000000000000  0.1666700000000034  0.0000000000000000   F   F   F
  0.0000000000000000  0.0000000000000000  0.0854700000000008   F   F   F
  0.6666700000000034  0.8333299999999966  0.1709400000000016   F   F   F
  0.5000000000000000  0.6666700000000034  0.0000000000000000   F   F   F
  0.9996586334627885  0.1668434433367972  0.3425728050484539   T   T   T
  0.0000000000000000  0.0000000000000000  0.2564100000000025   F   F   F
 -0.0056988032798362  0.6684392716510053  0.4214680675126586   T   T   T
  0.8322897515569531  0.3335386188490547  0.3414720492482957   T   T   T
  0.8333299999999966  0.5000000000000000  0.2564100000000025   F   F   F
  0.0000000000000000  0.8333299999999966  0.0000000000000000   F   F   F
  0.8361209711430341  0.4971581982836498  0.4216885920472850   T   T   T
  0.0000000000000000  0.8333299999999966  0.1709400000000016   F   F   F
  0.0000000000000000  0.6666700000000034  0.0854700000000008   F   F   F
  0.0013512217909557  0.8346454764605321  0.3421274830228673   T   T   T
  0.3333299999999966  0.3333299999999966  0.2564100000000025   F   F   F
  0.8326245090641229  0.1666469247587936  0.4230398870882786   T   T   T
  0.8333299999999966  0.0000000000000000  0.0000000000000000   F   F   F
  0.6675179075250804 -0.0002370108836064  0.4239794228770934   T   T   T
  0.8333299999999966  0.0000000000000000  0.1709400000000016   F   F   F
  0.8329031766013154 -0.0001321758084351  0.3417816889737481   T   T   T
  0.8333299999999966  0.1666700000000034  0.2564100000000025   F   F   F
  0.0000000000000000  0.5000000000000000  0.0000000000000000   F   F   F
  0.8333299999999966  0.1666700000000034  0.0854700000000008   F   F   F
  0.0000000000000000  0.5000000000000000  0.1709400000000016   F   F   F
  0.1608673067758122  0.4944130665492525  0.4221924047994354   T   T   T
  0.6666700000000034  0.6666700000000034  0.0854700000000008   F   F   F
  0.6666700000000034  0.0000000000000000  0.2564100000000025   F   F   F
  0.5036859174062465  0.8421205820530937  0.4213610600520710   T   T   T
  0.5009124979001408  0.6658162646888791  0.3422174086146481   T   T   T
  0.5000000000000000  0.8333299999999966  0.2564100000000025   F   F   F
  0.5000000000000000  0.6666700000000034  0.1709400000000016   F   F   F
  0.5000000000000000  0.8333299999999966  0.0854700000000008   F   F   F
  0.0012691950842692  0.3337199962890415  0.4236582163863527   T   T   T
  0.3333299999999966  0.5000000000000000  0.0000000000000000   F   F   F
  0.8333299999999966  0.5000000000000000  0.0854700000000008   F   F   F
  0.5000000000000000  0.0000000000000000  0.1709400000000016   F   F   F
  0.5000000000000000  0.3333299999999966  0.1709400000000016   F   F   F
  0.5000000000000000  0.5000000000000000  0.0854700000000008   F   F   F
  0.3333299999999966  0.5000000000000000  0.1709400000000016   F   F   F
  0.3333299999999966  0.3333299999999966  0.0854700000000008   F   F   F
  0.4993444177289973  0.3330090902191338  0.3415290302425545   T   T   T
  0.5000000000000000  0.5000000000000000  0.2564100000000025   F   F   F
  0.5000000000000000  0.3333299999999966  0.0000000000000000   F   F   F
  0.3330833820890265  0.3325767077079817  0.4236803391650565   T   T   T
  0.6631958028124844  0.6665020396967224  0.4310740689474699   T   T   T
  0.5303899846359890  0.5982071675787788  0.4755293247177411   T   T   T
 
  0.00000000E+00  0.00000000E+00  0.00000000E+00
  0.00000000E+00  0.00000000E+00  0.00000000E+00
  0.00000000E+00  0.00000000E+00  0.00000000E+00
  0.00000000E+00  0.00000000E+00  0.00000000E+00
  0.00000000E+00  0.00000000E+00  0.00000000E+00
  0.00000000E+00  0.00000000E+00  0.00000000E+00
  0.00000000E+00  0.00000000E+00  0.00000000E+00
  0.00000000E+00  0.00000000E+00  0.00000000E+00
  0.00000000E+00  0.00000000E+00  0.00000000E+00
  0.00000000E+00  0.00000000E+00  0.00000000E+00
  0.00000000E+00  0.00000000E+00  0.00000000E+00
  0.00000000E+00  0.00000000E+00  0.00000000E+00
  0.00000000E+00  0.00000000E+00  0.00000000E+00
  0.00000000E+00  0.00000000E+00  0.00000000E+00
  0.00000000E+00  0.00000000E+00  0.00000000E+00
  0.00000000E+00  0.00000000E+00  0.00000000E+00
  0.00000000E+00  0.00000000E+00  0.00000000E+00
  0.00000000E+00  0.00000000E+00  0.00000000E+00
  0.00000000E+00  0.00000000E+00  0.00000000E+00
  0.00000000E+00  0.00000000E+00  0.00000000E+00
  0.00000000E+00  0.00000000E+00  0.00000000E+00
  0.00000000E+00  0.00000000E+00  0.00000000E+00
  0.00000000E+00  0.00000000E+00  0.00000000E+00
  0.00000000E+00  0.00000000E+00  0.00000000E+00
  0.00000000E+00  0.00000000E+00  0.00000000E+00
  0.00000000E+00  0.00000000E+00  0.00000000E+00
  0.00000000E+00  0.00000000E+00  0.00000000E+00
  0.00000000E+00  0.00000000E+00  0.00000000E+00
  0.00000000E+00  0.00000000E+00  0.00000000E+00
  0.00000000E+00  0.00000000E+00  0.00000000E+00
  0.00000000E+00  0.00000000E+00  0.00000000E+00
  0.00000000E+00  0.00000000E+00  0.00000000E+00
  0.00000000E+00  0.00000000E+00  0.00000000E+00
  0.00000000E+00  0.00000000E+00  0.00000000E+00
  0.00000000E+00  0.00000000E+00  0.00000000E+00
  0.00000000E+00  0.00000000E+00  0.00000000E+00
  0.00000000E+00  0.00000000E+00  0.00000000E+00
  0.00000000E+00  0.00000000E+00  0.00000000E+00
  0.00000000E+00  0.00000000E+00  0.00000000E+00
  0.00000000E+00  0.00000000E+00  0.00000000E+00
  0.00000000E+00  0.00000000E+00  0.00000000E+00
  0.00000000E+00  0.00000000E+00  0.00000000E+00
  0.00000000E+00  0.00000000E+00  0.00000000E+00
  0.00000000E+00  0.00000000E+00  0.00000000E+00
  0.00000000E+00  0.00000000E+00  0.00000000E+00
  0.00000000E+00  0.00000000E+00  0.00000000E+00
  0.00000000E+00  0.00000000E+00  0.00000000E+00
  0.00000000E+00  0.00000000E+00  0.00000000E+00
  0.00000000E+00  0.00000000E+00  0.00000000E+00
  0.00000000E+00  0.00000000E+00  0.00000000E+00
  0.00000000E+00  0.00000000E+00  0.00000000E+00
  0.00000000E+00  0.00000000E+00  0.00000000E+00
  0.00000000E+00  0.00000000E+00  0.00000000E+00
  0.00000000E+00  0.00000000E+00  0.00000000E+00
  0.00000000E+00  0.00000000E+00  0.00000000E+00
  0.00000000E+00  0.00000000E+00  0.00000000E+00
  0.00000000E+00  0.00000000E+00  0.00000000E+00
  0.00000000E+00  0.00000000E+00  0.00000000E+00
  0.00000000E+00  0.00000000E+00  0.00000000E+00
  0.00000000E+00  0.00000000E+00  0.00000000E+00
  0.00000000E+00  0.00000000E+00  0.00000000E+00
  0.00000000E+00  0.00000000E+00  0.00000000E+00
  0.00000000E+00  0.00000000E+00  0.00000000E+00
  0.00000000E+00  0.00000000E+00  0.00000000E+00
  0.00000000E+00  0.00000000E+00  0.00000000E+00
  0.00000000E+00  0.00000000E+00  0.00000000E+00
  0.00000000E+00  0.00000000E+00  0.00000000E+00
  0.00000000E+00  0.00000000E+00  0.00000000E+00
  0.00000000E+00  0.00000000E+00  0.00000000E+00
  0.00000000E+00  0.00000000E+00  0.00000000E+00
  0.00000000E+00  0.00000000E+00  0.00000000E+00
  0.00000000E+00  0.00000000E+00  0.00000000E+00
  0.00000000E+00  0.00000000E+00  0.00000000E+00
  0.00000000E+00  0.00000000E+00  0.00000000E+00
  0.00000000E+00  0.00000000E+00  0.00000000E+00
  0.00000000E+00  0.00000000E+00  0.00000000E+00
  0.00000000E+00  0.00000000E+00  0.00000000E+00
  0.00000000E+00  0.00000000E+00  0.00000000E+00
  0.00000000E+00  0.00000000E+00  0.00000000E+00
  0.00000000E+00  0.00000000E+00  0.00000000E+00
  0.00000000E+00  0.00000000E+00  0.00000000E+00
  0.00000000E+00  0.00000000E+00  0.00000000E+00
  0.00000000E+00  0.00000000E+00  0.00000000E+00
  0.00000000E+00  0.00000000E+00  0.00000000E+00
  0.00000000E+00  0.00000000E+00  0.00000000E+00
  0.00000000E+00  0.00000000E+00  0.00000000E+00
  0.00000000E+00  0.00000000E+00  0.00000000E+00
  0.00000000E+00  0.00000000E+00  0.00000000E+00
  0.00000000E+00  0.00000000E+00  0.00000000E+00
  0.00000000E+00  0.00000000E+00  0.00000000E+00
  0.00000000E+00  0.00000000E+00  0.00000000E+00
  0.00000000E+00  0.00000000E+00  0.00000000E+00
  0.00000000E+00  0.00000000E+00  0.00000000E+00
  0.00000000E+00  0.00000000E+00  0.00000000E+00
  0.00000000E+00  0.00000000E+00  0.00000000E+00
  0.00000000E+00  0.00000000E+00  0.00000000E+00
  0.00000000E+00  0.00000000E+00  0.00000000E+00
  0.00000000E+00  0.00000000E+00  0.00000000E+00
  0.00000000E+00  0.00000000E+00  0.00000000E+00
  0.00000000E+00  0.00000000E+00  0.00000000E+00
  0.00000000E+00  0.00000000E+00  0.00000000E+00
  0.00000000E+00  0.00000000E+00  0.00000000E+00
  0.00000000E+00  0.00000000E+00  0.00000000E+00
  0.00000000E+00  0.00000000E+00  0.00000000E+00
  0.00000000E+00  0.00000000E+00  0.00000000E+00
  0.00000000E+00  0.00000000E+00  0.00000000E+00
  0.00000000E+00  0.00000000E+00  0.00000000E+00
  0.00000000E+00  0.00000000E+00  0.00000000E+00
