Generated by VASPKIT code               
   1.00000000000000     
     9.5029000000000003    0.0000000000000000    0.0000000000000000
     0.0000000000000000   13.4327000000000005    0.0000000000000000
     0.0000000000000000    0.0000000000000000   26.1938999999999993
   Mo
   108
Selective dynamics
Direct
  0.8333299999999966  0.0000000000000000  0.3418800000000033   F   F   F
  0.8333299999999966  0.1666700000000034  0.2564100000000025   F   F   F
  0.0000000000000000  0.5000000000000000  0.0000000000000000   F   F   F
  0.8333426057480352  0.1666660234151037  0.4229674746259749   T   T   T
  0.8333299999999966  0.0000000000000000  0.0000000000000000   F   F   F
  0.6666573853577203  0.0000000000000000  0.4229649497174104   T   T   T
  0.8333299999999966  0.0000000000000000  0.1709400000000016   F   F   F
  0.8333299999999966  0.1666700000000034  0.0854700000000008   F   F   F
  0.0000000000000000  0.5000000000000000  0.1709400000000016   F   F   F
  0.0000000000000000  0.3333299999999966  0.0854700000000008   F   F   F
  0.1666700000000034  0.0000000000000000  0.1709400000000016   F   F   F
  0.1666700000000034  0.1666700000000034  0.0854700000000008   F   F   F
  0.0000000000000000  0.1666700000000034  0.1709400000000016   F   F   F
  0.0000000000000000  0.0000000000000000  0.0854700000000008   F   F   F
  0.0000000000000000  0.1666700000000034  0.0000000000000000   F   F   F
  0.1666700000000034  0.0000000000000000  0.0000000000000000   F   F   F
  0.0000000000000000  0.0000000000000000  0.4229753153686722   T   T   T
  0.0000000000000000  0.1666700000000034  0.3418800000000033   F   F   F
  0.0000000000000000  0.0000000000000000  0.2564100000000025   F   F   F
  0.0000000000000000  0.3333299999999966  0.2564100000000025   F   F   F
  0.0000000000000000  0.5000000000000000  0.3418800000000033   F   F   F
  0.0000000000000000  0.3333341112717750  0.4229779158626903   T   T   T
  0.1666700000000034  0.3333299999999966  0.0000000000000000   F   F   F
  0.1666700000000034  0.5000000000000000  0.0854700000000008   F   F   F
  0.1666700000000034  0.3333299999999966  0.1709400000000016   F   F   F
  0.1666700000000034  0.5000000000000000  0.2564100000000025   F   F   F
  0.1666700000000034  0.3333299999999966  0.3418800000000033   F   F   F
  0.1666573853577204  0.5000000000000000  0.4229649497174104   T   T   T
  0.3333299999999966  0.5000000000000000  0.0000000000000000   F   F   F
  0.8333299999999966  0.8333299999999966  0.0854700000000008   F   F   F
  0.8333299999999966  0.6666700000000034  0.1709400000000016   F   F   F
  0.8333299999999966  0.8333299999999966  0.2564100000000025   F   F   F
  0.8333299999999966  0.6666700000000034  0.3418800000000033   F   F   F
  0.6666700000000034  0.6666700000000034  0.2564100000000025   F   F   F
  0.6666700000000034  0.8333299999999966  0.3418800000000033   F   F   F
  0.6666573942519648  0.6666660234151036  0.4229674746259749   T   T   T
  0.8333299999999966  0.6666700000000034  0.0000000000000000   F   F   F
  0.8333426057480352  0.8333339765848964  0.4229674746259749   T   T   T
  0.3333299999999966  0.5000000000000000  0.3418800000000033   F   F   F
  0.3333299999999966  0.3333299999999966  0.2564100000000025   F   F   F
  0.3333299999999966  0.5000000000000000  0.1709400000000016   F   F   F
  0.3333299999999966  0.3333299999999966  0.0854700000000008   F   F   F
  0.5000000000000000  0.3333299999999966  0.1709400000000016   F   F   F
  0.5000000000000000  0.5000000000000000  0.0854700000000008   F   F   F
  0.5000000000000000  0.3333299999999966  0.0000000000000000   F   F   F
  0.3333426057480351  0.3333339765848963  0.4229674746259749   T   T   T
  0.5000000000000000  0.3333299999999966  0.3418800000000033   F   F   F
  0.5000000000000000  0.5000000000000000  0.2564100000000025   F   F   F
  0.8333299999999966  0.5000000000000000  0.0854700000000008   F   F   F
  0.8333299999999966  0.3333299999999966  0.1709400000000016   F   F   F
  0.6666573942519648  0.3333339765848963  0.4229674746259749   T   T   T
  0.8333299999999966  0.3333299999999966  0.0000000000000000   F   F   F
  0.6666700000000034  0.3333299999999966  0.2564100000000025   F   F   F
  0.6666700000000034  0.5000000000000000  0.3418800000000033   F   F   F
  0.6666700000000034  0.3333299999999966  0.0854700000000008   F   F   F
  0.6666700000000034  0.5000000000000000  0.1709400000000016   F   F   F
  0.5000000000000000  0.5000000000000000  0.4229753153686722   T   T   T
  0.6666700000000034  0.5000000000000000  0.0000000000000000   F   F   F
  0.1666573942519649  0.8333339765848964  0.4229674746259749   T   T   T
  0.3333299999999966  0.8333299999999966  0.0000000000000000   F   F   F
  0.3333299999999966  0.6666700000000034  0.0854700000000008   F   F   F
  0.3333299999999966  0.8333299999999966  0.1709400000000016   F   F   F
  0.1666700000000034  0.8333299999999966  0.0854700000000008   F   F   F
  0.1666700000000034  0.6666700000000034  0.1709400000000016   F   F   F
  0.1666700000000034  0.8333299999999966  0.2564100000000025   F   F   F
  0.1666700000000034  0.6666700000000034  0.3418800000000033   F   F   F
  0.3333299999999966  0.6666700000000034  0.2564100000000025   F   F   F
  0.3333299999999966  0.8333299999999966  0.3418800000000033   F   F   F
  0.1666700000000034  0.6666700000000034  0.0000000000000000   F   F   F
  0.0000000000000000  0.6666658887282250  0.4229779158626903   T   T   T
  0.8333299999999966  0.3333299999999966  0.3418800000000033   F   F   F
  0.8333299999999966  0.5000000000000000  0.2564100000000025   F   F   F
  0.0000000000000000  0.8333299999999966  0.0000000000000000   F   F   F
  0.8333426146422797  0.5000000000000000  0.4229649497174104   T   T   T
  0.0000000000000000  0.8333299999999966  0.1709400000000016   F   F   F
  0.0000000000000000  0.6666700000000034  0.0854700000000008   F   F   F
  0.0000000000000000  0.8333299999999966  0.3418800000000033   F   F   F
  0.0000000000000000  0.6666700000000034  0.2564100000000025   F   F   F
  0.5000000000000000  0.0000000000000000  0.0000000000000000   F   F   F
  0.3333426146422796  0.0000000000000000  0.4229649497174104   T   T   T
  0.3333299999999966  0.1666700000000034  0.3418800000000033   F   F   F
  0.3333299999999966  0.0000000000000000  0.2564100000000025   F   F   F
  0.3333299999999966  0.1666700000000034  0.1709400000000016   F   F   F
  0.3333299999999966  0.0000000000000000  0.0854700000000008   F   F   F
  0.3333299999999966  0.1666700000000034  0.0000000000000000   F   F   F
  0.1666573942519649  0.1666660234151037  0.4229674746259749   T   T   T
  0.1666700000000034  0.0000000000000000  0.3418800000000033   F   F   F
  0.1666700000000034  0.1666700000000034  0.2564100000000025   F   F   F
  0.6666700000000034  0.8333299999999966  0.0000000000000000   F   F   F
  0.5000000000000000  0.8333341112717750  0.4229779158626903   T   T   T
  0.5000000000000000  0.6666700000000034  0.3418800000000033   F   F   F
  0.5000000000000000  0.8333299999999966  0.2564100000000025   F   F   F
  0.5000000000000000  0.6666700000000034  0.1709400000000016   F   F   F
  0.5000000000000000  0.8333299999999966  0.0854700000000008   F   F   F
  0.5000000000000000  0.6666700000000034  0.0000000000000000   F   F   F
  0.3333426057480351  0.6666660234151036  0.4229674746259749   T   T   T
  0.6666700000000034  0.8333299999999966  0.1709400000000016   F   F   F
  0.6666700000000034  0.6666700000000034  0.0854700000000008   F   F   F
  0.6666700000000034  0.0000000000000000  0.2564100000000025   F   F   F
  0.6666700000000034  0.1666700000000034  0.3418800000000033   F   F   F
  0.5000000000000000  0.1666700000000034  0.2564100000000025   F   F   F
  0.5000000000000000  0.0000000000000000  0.3418800000000033   F   F   F
  0.5000000000000000  0.1666700000000034  0.0854700000000008   F   F   F
  0.5000000000000000  0.0000000000000000  0.1709400000000016   F   F   F
  0.6666700000000034  0.0000000000000000  0.0854700000000008   F   F   F
  0.6666700000000034  0.1666700000000034  0.1709400000000016   F   F   F
  0.5000000000000000  0.1666658887282250  0.4229779158626903   T   T   T
  0.6666700000000034  0.1666700000000034  0.0000000000000000   F   F   F
 
  0.00000000E+00  0.00000000E+00  0.00000000E+00
  0.00000000E+00  0.00000000E+00  0.00000000E+00
  0.00000000E+00  0.00000000E+00  0.00000000E+00
  0.00000000E+00  0.00000000E+00  0.00000000E+00
  0.00000000E+00  0.00000000E+00  0.00000000E+00
  0.00000000E+00  0.00000000E+00  0.00000000E+00
  0.00000000E+00  0.00000000E+00  0.00000000E+00
  0.00000000E+00  0.00000000E+00  0.00000000E+00
  0.00000000E+00  0.00000000E+00  0.00000000E+00
  0.00000000E+00  0.00000000E+00  0.00000000E+00
  0.00000000E+00  0.00000000E+00  0.00000000E+00
  0.00000000E+00  0.00000000E+00  0.00000000E+00
  0.00000000E+00  0.00000000E+00  0.00000000E+00
  0.00000000E+00  0.00000000E+00  0.00000000E+00
  0.00000000E+00  0.00000000E+00  0.00000000E+00
  0.00000000E+00  0.00000000E+00  0.00000000E+00
  0.00000000E+00  0.00000000E+00  0.00000000E+00
  0.00000000E+00  0.00000000E+00  0.00000000E+00
  0.00000000E+00  0.00000000E+00  0.00000000E+00
  0.00000000E+00  0.00000000E+00  0.00000000E+00
  0.00000000E+00  0.00000000E+00  0.00000000E+00
  0.00000000E+00  0.00000000E+00  0.00000000E+00
  0.00000000E+00  0.00000000E+00  0.00000000E+00
  0.00000000E+00  0.00000000E+00  0.00000000E+00
  0.00000000E+00  0.00000000E+00  0.00000000E+00
  0.00000000E+00  0.00000000E+00  0.00000000E+00
  0.00000000E+00  0.00000000E+00  0.00000000E+00
  0.00000000E+00  0.00000000E+00  0.00000000E+00
  0.00000000E+00  0.00000000E+00  0.00000000E+00
  0.00000000E+00  0.00000000E+00  0.00000000E+00
  0.00000000E+00  0.00000000E+00  0.00000000E+00
  0.00000000E+00  0.00000000E+00  0.00000000E+00
  0.00000000E+00  0.00000000E+00  0.00000000E+00
  0.00000000E+00  0.00000000E+00  0.00000000E+00
  0.00000000E+00  0.00000000E+00  0.00000000E+00
  0.00000000E+00  0.00000000E+00  0.00000000E+00
  0.00000000E+00  0.00000000E+00  0.00000000E+00
  0.00000000E+00  0.00000000E+00  0.00000000E+00
  0.00000000E+00  0.00000000E+00  0.00000000E+00
  0.00000000E+00  0.00000000E+00  0.00000000E+00
  0.00000000E+00  0.00000000E+00  0.00000000E+00
  0.00000000E+00  0.00000000E+00  0.00000000E+00
  0.00000000E+00  0.00000000E+00  0.00000000E+00
  0.00000000E+00  0.00000000E+00  0.00000000E+00
  0.00000000E+00  0.00000000E+00  0.00000000E+00
  0.00000000E+00  0.00000000E+00  0.00000000E+00
  0.00000000E+00  0.00000000E+00  0.00000000E+00
  0.00000000E+00  0.00000000E+00  0.00000000E+00
  0.00000000E+00  0.00000000E+00  0.00000000E+00
  0.00000000E+00  0.00000000E+00  0.00000000E+00
  0.00000000E+00  0.00000000E+00  0.00000000E+00
  0.00000000E+00  0.00000000E+00  0.00000000E+00
  0.00000000E+00  0.00000000E+00  0.00000000E+00
  0.00000000E+00  0.00000000E+00  0.00000000E+00
  0.00000000E+00  0.00000000E+00  0.00000000E+00
  0.00000000E+00  0.00000000E+00  0.00000000E+00
  0.00000000E+00  0.00000000E+00  0.00000000E+00
  0.00000000E+00  0.00000000E+00  0.00000000E+00
  0.00000000E+00  0.00000000E+00  0.00000000E+00
  0.00000000E+00  0.00000000E+00  0.00000000E+00
  0.00000000E+00  0.00000000E+00  0.00000000E+00
  0.00000000E+00  0.00000000E+00  0.00000000E+00
  0.00000000E+00  0.00000000E+00  0.00000000E+00
  0.00000000E+00  0.00000000E+00  0.00000000E+00
  0.00000000E+00  0.00000000E+00  0.00000000E+00
  0.00000000E+00  0.00000000E+00  0.00000000E+00
  0.00000000E+00  0.00000000E+00  0.00000000E+00
  0.00000000E+00  0.00000000E+00  0.00000000E+00
  0.00000000E+00  0.00000000E+00  0.00000000E+00
  0.00000000E+00  0.00000000E+00  0.00000000E+00
  0.00000000E+00  0.00000000E+00  0.00000000E+00
  0.00000000E+00  0.00000000E+00  0.00000000E+00
  0.00000000E+00  0.00000000E+00  0.00000000E+00
  0.00000000E+00  0.00000000E+00  0.00000000E+00
  0.00000000E+00  0.00000000E+00  0.00000000E+00
  0.00000000E+00  0.00000000E+00  0.00000000E+00
  0.00000000E+00  0.00000000E+00  0.00000000E+00
  0.00000000E+00  0.00000000E+00  0.00000000E+00
  0.00000000E+00  0.00000000E+00  0.00000000E+00
  0.00000000E+00  0.00000000E+00  0.00000000E+00
  0.00000000E+00  0.00000000E+00  0.00000000E+00
  0.00000000E+00  0.00000000E+00  0.00000000E+00
  0.00000000E+00  0.00000000E+00  0.00000000E+00
  0.00000000E+00  0.00000000E+00  0.00000000E+00
  0.00000000E+00  0.00000000E+00  0.00000000E+00
  0.00000000E+00  0.00000000E+00  0.00000000E+00
  0.00000000E+00  0.00000000E+00  0.00000000E+00
  0.00000000E+00  0.00000000E+00  0.00000000E+00
  0.00000000E+00  0.00000000E+00  0.00000000E+00
  0.00000000E+00  0.00000000E+00  0.00000000E+00
  0.00000000E+00  0.00000000E+00  0.00000000E+00
  0.00000000E+00  0.00000000E+00  0.00000000E+00
  0.00000000E+00  0.00000000E+00  0.00000000E+00
  0.00000000E+00  0.00000000E+00  0.00000000E+00
  0.00000000E+00  0.00000000E+00  0.00000000E+00
  0.00000000E+00  0.00000000E+00  0.00000000E+00
  0.00000000E+00  0.00000000E+00  0.00000000E+00
  0.00000000E+00  0.00000000E+00  0.00000000E+00
  0.00000000E+00  0.00000000E+00  0.00000000E+00
  0.00000000E+00  0.00000000E+00  0.00000000E+00
  0.00000000E+00  0.00000000E+00  0.00000000E+00
  0.00000000E+00  0.00000000E+00  0.00000000E+00
  0.00000000E+00  0.00000000E+00  0.00000000E+00
  0.00000000E+00  0.00000000E+00  0.00000000E+00
  0.00000000E+00  0.00000000E+00  0.00000000E+00
  0.00000000E+00  0.00000000E+00  0.00000000E+00
  0.00000000E+00  0.00000000E+00  0.00000000E+00
  0.00000000E+00  0.00000000E+00  0.00000000E+00
