       N       E                     dE             d eps       ncg     rms          rms(c)
DAV:   1    -0.660099955622E+03   -0.66010E+03   -0.93477E-06 11792   0.669E-03
DAV:   2    -0.660099955712E+03   -0.89349E-07   -0.89601E-07  6440   0.188E-03
DAV:   3    -0.660099955733E+03   -0.21129E-07   -0.20963E-07  5976   0.106E-03
DAV:   4    -0.660099955745E+03   -0.12224E-07   -0.12121E-07  5944   0.652E-04
DAV:   5    -0.660099955753E+03   -0.81491E-08   -0.83411E-08  5912   0.550E-04
   1 F= -.66009996E+03 E0= -.66009996E+03  d E =0.000000E+00
