srun: ROUTE: split_hostlist: hl=b05r1n00 tree_width 0
 running on    4 total cores
 distrk:  each k-point on    1 cores,    4 groups
 distr:  one band on    1 cores,    1 groups
 HIP runtime initialized ...    4 DCUs will be used
 Created    4 streams on each DCU
 vasp.6.3.2 27Jun22 (build Mar 15 2023 15:45:48) complex                        
  
 POSCAR found type information on POSCAR MoNbO 
 POSCAR found :  3 types and      64 ions
 Reading from existing POTCAR
 scaLAPACK will be used selectively (only on CPU)
 Reading from existing POTCAR
 LDA part: xc-table for Pade appr. of Perdew
 POSCAR found type information on POSCAR MoNbO 
 POSCAR found :  3 types and      64 ions
 Optimize memory usage for KPAR
 found WAVECAR, reading the header
 WARNING: stress and forces are not correct
 POSCAR, INCAR and KPOINTS ok, starting setup
 FFT: planning ... GRIDC
 FFT: planning ... GRID_SOFT
 FFT: planning ... GRID
 reading WAVECAR
 the WAVECAR file was read successfully
 charge-density read from file: ni3al                                   
 entering main loop
       N       E                     dE             d eps       ncg     rms          rms(c)
DAV:   1    -0.660099955622E+03   -0.66010E+03   -0.93477E-06 11792   0.669E-03
DAV:   2    -0.660099955712E+03   -0.89349E-07   -0.89601E-07  6440   0.188E-03
DAV:   3    -0.660099955733E+03   -0.21129E-07   -0.20963E-07  5976   0.106E-03
DAV:   4    -0.660099955745E+03   -0.12224E-07   -0.12121E-07  5944   0.652E-04
DAV:   5    -0.660099955753E+03   -0.81491E-08   -0.83411E-08  5912   0.550E-04
   1 F= -.66009996E+03 E0= -.66009996E+03  d E =0.000000E+00
 writing wavefunctions
 -----------------------------------------------------------------------------
|                                                                             |
|           W    W    AA    RRRRR   N    N  II  N    N   GGGG   !!!           |
|           W    W   A  A   R    R  NN   N  II  NN   N  G    G  !!!           |
|           W    W  A    A  R    R  N N  N  II  N N  N  G       !!!           |
|           W WW W  AAAAAA  RRRRR   N  N N  II  N  N N  G  GGG   !            |
|           WW  WW  A    A  R   R   N   NN  II  N   NN  G    G                |
|           W    W  A    A  R    R  N    N  II  N    N   GGGG   !!!           |
|                                                                             |
|     Tetrahedron method does not include variations of the Fermi             |
|     occupations, so forces and stress will be inaccurate. We suggest        |
|     using a different smearing scheme ISMEAR = 1 or 2 for metals in         |
|     relaxations.                                                            |
|                                                                             |
 -----------------------------------------------------------------------------

 PROFILE, used timers:     190
