Generated by VASPKIT code               
   1.00000000000000     
     4.6466215626401937   -3.4082774283424619    0.0000000000000000
     4.6466215626401954    3.4082774283424619    0.0000000000000000
    -1.9551569167667064    0.0000000000000000    3.7236786701613385
   O 
     8
Direct
  0.7554314767728441  0.2011639872498105  0.8377118537475313
  0.7988360127501918  0.2445685232271556  0.1622881462524709
  0.2445685232271556  0.7988360127501918  0.1622881462524709
  0.2011639872498105  0.7554314767728441  0.8377118537475313
  0.8017751284910466  0.8017751284910466  0.7605962459003131
  0.1982248715089561  0.1982248715089561  0.2394037540996877
  0.8450471893818604  0.8450471893818604  0.0851444771289111
  0.1549528106181380  0.1549528106181380  0.9148555228710855
 
  0.00000000E+00  0.00000000E+00  0.00000000E+00
  0.00000000E+00  0.00000000E+00  0.00000000E+00
  0.00000000E+00  0.00000000E+00  0.00000000E+00
  0.00000000E+00  0.00000000E+00  0.00000000E+00
  0.00000000E+00  0.00000000E+00  0.00000000E+00
  0.00000000E+00  0.00000000E+00  0.00000000E+00
  0.00000000E+00  0.00000000E+00  0.00000000E+00
  0.00000000E+00  0.00000000E+00  0.00000000E+00
