    8    8  300    1
  0.1475987E+02  0.5726390E-09  0.5726390E-09  0.4184242E-09  0.5000000E-15
  1.000000000000000E-004
  CAR 
 ni3al                                   
     48     96     30
 
  0.8333333E-01  0.8333333E-01 -0.9405851E-15  0.6172840E-02
      1        -28.278211   1.000000
      2        -27.472949   1.000000
      3        -27.466344   1.000000
      4        -26.737741   1.000000
      5        -15.982792   1.000000
      6        -15.064761   1.000000
      7        -15.039057   1.000000
      8        -14.158471   1.000000
      9        -10.161372   1.000000
     10         -9.703276   1.000000
     11         -9.121079   1.000000
     12         -9.087986   1.000000
     13         -9.044144   1.000000
     14         -8.252534   1.000000
     15         -8.209820   1.000000
     16         -7.724962   1.000000
     17         -6.250721   1.000000
     18         -6.245964   1.000000
     19         -5.770837   1.000000
     20         -5.753535   1.000000
     21         -2.552248   1.000000
     22         -2.526898   1.000000
     23         -2.023926   1.000000
     24         -1.832261   1.000000
     25         -0.134321   0.000000
     26         -0.095765   0.000000
     27          0.201150   0.000000
     28          0.360504   0.000000
     29          5.694301   0.000000
     30          8.033293   0.000000
 
  0.2500000E+00  0.8333333E-01 -0.3405440E-14  0.1234568E-01
      1        -28.271666   1.000000
      2        -27.478292   1.000000
      3        -27.465775   1.000000
      4        -26.741485   1.000000
      5        -15.998456   1.000000
      6        -15.071936   1.000000
      7        -15.027948   1.000000
      8        -14.138714   1.000000
      9        -10.153065   1.000000
     10         -9.658143   1.000000
     11         -9.143019   1.000000
     12         -9.074802   1.000000
     13         -8.960827   1.000000
     14         -8.295641   1.000000
     15         -8.161572   1.000000
     16         -7.768310   1.000000
     17         -6.353343   1.000000
     18         -6.251052   1.000000
     19         -5.808012   1.000000
     20         -5.759555   1.000000
     21         -2.585746   1.000000
     22         -2.553137   1.000000
     23         -2.027953   1.000000
     24         -1.860937   1.000000
     25         -0.137191   0.000000
     26         -0.071374   0.000000
     27          0.246263   0.000000
     28          0.381461   0.000000
     29          5.909263   0.000000
     30          7.868262   0.000000
 
  0.4166667E+00  0.8333333E-01 -0.5864794E-14  0.1234568E-01
      1        -28.264396   1.000000
      2        -27.486899   1.000000
      3        -27.463735   1.000000
      4        -26.744518   1.000000
      5        -16.012501   1.000000
      6        -15.086099   1.000000
      7        -15.012674   1.000000
      8        -14.117865   1.000000
      9        -10.140905   1.000000
     10         -9.611112   1.000000
     11         -9.185640   1.000000
     12         -9.052058   1.000000
     13         -8.818095   1.000000
     14         -8.408552   1.000000
     15         -8.077201   1.000000
     16         -7.832426   1.000000
     17         -6.465035   1.000000
     18         -6.258219   1.000000
     19         -5.850584   1.000000
     20         -5.748784   1.000000
     21         -2.624831   1.000000
     22         -2.561605   1.000000
     23         -2.047893   1.000000
     24         -1.883663   1.000000
     25         -0.152461   0.000000
     26         -0.043955   0.000000
     27          0.295345   0.000000
     28          0.405067   0.000000
     29          6.245822   0.000000
     30          7.458936   0.000000
 
 -0.4166667E+00  0.8333333E-01  0.6157025E-14  0.1234568E-01
      1        -28.263846   1.000000
      2        -27.487703   1.000000
      3        -27.464081   1.000000
      4        -26.743628   1.000000
      5        -16.011454   1.000000
      6        -15.087007   1.000000
      7        -15.014412   1.000000
      8        -14.116115   1.000000
      9        -10.136973   1.000000
     10         -9.610149   1.000000
     11         -9.195853   1.000000
     12         -9.045589   1.000000
     13         -8.801351   1.000000
     14         -8.426244   1.000000
     15         -8.087771   1.000000
     16         -7.824715   1.000000
     17         -6.471451   1.000000
     18         -6.262027   1.000000
     19         -5.847192   1.000000
     20         -5.739930   1.000000
     21         -2.622346   1.000000
     22         -2.554665   1.000000
     23         -2.049043   1.000000
     24         -1.893374   1.000000
     25         -0.156125   0.000000
     26         -0.049928   0.000000
     27          0.307024   0.000000
     28          0.404061   0.000000
     29          6.313122   0.000000
     30          7.335950   0.000000
 
 -0.2500000E+00  0.8333333E-01  0.3705568E-14  0.1234568E-01
      1        -28.270442   1.000000
      2        -27.480311   1.000000
      3        -27.466337   1.000000
      4        -26.739877   1.000000
      5        -15.996197   1.000000
      6        -15.073308   1.000000
      7        -15.032136   1.000000
      8        -14.135155   1.000000
      9        -10.145219   1.000000
     10         -9.657700   1.000000
     11         -9.162738   1.000000
     12         -9.054579   1.000000
     13         -8.950005   1.000000
     14         -8.311981   1.000000
     15         -8.178890   1.000000
     16         -7.759722   1.000000
     17         -6.366028   1.000000
     18         -6.259721   1.000000
     19         -5.799342   1.000000
     20         -5.742770   1.000000
     21         -2.577576   1.000000
     22         -2.542963   1.000000
     23         -2.025900   1.000000
     24         -1.884494   1.000000
     25         -0.142565   0.000000
     26         -0.087869   0.000000
     27          0.275122   0.000000
     28          0.376909   0.000000
     29          5.991815   0.000000
     30          7.613820   0.000000
 
 -0.8333333E-01  0.8333333E-01  0.1270683E-14  0.6172840E-02
      1        -28.277587   1.000000
      2        -27.474176   1.000000
      3        -27.466231   1.000000
      4        -26.736915   1.000000
      5        -15.981639   1.000000
      6        -15.064887   1.000000
      7        -15.041798   1.000000
      8        -14.156646   1.000000
      9        -10.157445   1.000000
     10         -9.703421   1.000000
     11         -9.129281   1.000000
     12         -9.064291   1.000000
     13         -9.056121   1.000000
     14         -8.248365   1.000000
     15         -8.227165   1.000000
     16         -7.721822   1.000000
     17         -6.258454   1.000000
     18         -6.249315   1.000000
     19         -5.755850   1.000000
     20         -5.755301   1.000000
     21         -2.541171   1.000000
     22         -2.529040   1.000000
     23         -2.022065   1.000000
     24         -1.844789   1.000000
     25         -0.131537   0.000000
     26         -0.111566   0.000000
     27          0.218148   0.000000
     28          0.357948   0.000000
     29          5.726923   0.000000
     30          7.881065   0.000000
 
  0.2500000E+00  0.2500000E+00 -0.5877713E-14  0.6172840E-02
      1        -28.266200   1.000000
      2        -27.474562   1.000000
      3        -27.471816   1.000000
      4        -26.746588   1.000000
      5        -16.016161   1.000000
      6        -15.061786   1.000000
      7        -15.028995   1.000000
      8        -14.122194   1.000000
      9        -10.153051   1.000000
     10         -9.602667   1.000000
     11         -9.128542   1.000000
     12         -9.114593   1.000000
     13         -8.882386   1.000000
     14         -8.239382   1.000000
     15         -8.178664   1.000000
     16         -7.820761   1.000000
     17         -6.359321   1.000000
     18         -6.328558   1.000000
     19         -5.831268   1.000000
     20         -5.808068   1.000000
     21         -2.616798   1.000000
     22         -2.597450   1.000000
     23         -2.024476   1.000000
     24         -1.878494   1.000000
     25         -0.113713   0.000000
     26         -0.049992   0.000000
     27          0.265227   0.000000
     28          0.403153   0.000000
     29          6.059265   0.000000
     30          7.934579   0.000000
 
  0.4166667E+00  0.2500000E+00  0.5951464E-14  0.1234568E-01
      1        -28.259463   1.000000
      2        -27.481346   1.000000
      3        -27.469950   1.000000
      4        -26.750369   1.000000
      5        -16.031102   1.000000
      6        -15.067672   1.000000
      7        -15.019435   1.000000
      8        -14.102826   1.000000
      9        -10.145261   1.000000
     10         -9.541885   1.000000
     11         -9.183462   1.000000
     12         -9.088045   1.000000
     13         -8.760012   1.000000
     14         -8.309107   1.000000
     15         -8.107756   1.000000
     16         -7.892316   1.000000
     17         -6.450730   1.000000
     18         -6.345531   1.000000
     19         -5.867066   1.000000
     20         -5.816567   1.000000
     21         -2.650122   1.000000
     22         -2.619619   1.000000
     23         -2.032714   1.000000
     24         -1.903711   1.000000
     25         -0.111384   0.000000
     26         -0.032304   0.000000
     27          0.309447   0.000000
     28          0.423266   0.000000
     29          6.361390   0.000000
     30          7.521376   0.000000
 
 -0.4166667E+00  0.2500000E+00  0.3698629E-14  0.1234568E-01
      1        -28.258380   1.000000
      2        -27.483102   1.000000
      3        -27.470983   1.000000
      4        -26.748807   1.000000
      5        -16.029095   1.000000
      6        -15.068720   1.000000
      7        -15.023688   1.000000
      8        -14.099437   1.000000
      9        -10.137496   1.000000
     10         -9.538196   1.000000
     11         -9.213976   1.000000
     12         -9.067279   1.000000
     13         -8.720378   1.000000
     14         -8.350861   1.000000
     15         -8.136283   1.000000
     16         -7.868619   1.000000
     17         -6.461633   1.000000
     18         -6.358804   1.000000
     19         -5.856628   1.000000
     20         -5.798908   1.000000
     21         -2.644033   1.000000
     22         -2.608804   1.000000
     23         -2.031842   1.000000
     24         -1.924009   1.000000
     25         -0.111768   0.000000
     26         -0.053455   0.000000
     27          0.337000   0.000000
     28          0.418995   0.000000
     29          6.523766   0.000000
     30          7.254967   0.000000
 
 -0.2500000E+00  0.2500000E+00  0.1272282E-14  0.6172840E-02
      1        -28.263933   1.000000
      2        -27.479749   1.000000
      3        -27.471919   1.000000
      4        -26.743551   1.000000
      5        -16.011979   1.000000
      6        -15.062369   1.000000
      7        -15.039136   1.000000
      8        -14.115331   1.000000
      9        -10.137429   1.000000
     10         -9.599872   1.000000
     11         -9.193570   1.000000
     12         -9.058892   1.000000
     13         -8.840264   1.000000
     14         -8.290834   1.000000
     15         -8.213593   1.000000
     16         -7.796269   1.000000
     17         -6.380208   1.000000
     18         -6.353542   1.000000
     19         -5.815748   1.000000
     20         -5.769637   1.000000
     21         -2.604427   1.000000
     22         -2.574559   1.000000
     23         -2.018533   1.000000
     24         -1.925286   1.000000
     25         -0.105062   0.000000
     26         -0.102211   0.000000
     27          0.323188   0.000000
     28          0.392997   0.000000
     29          6.265509   0.000000
     30          7.396069   0.000000
 
  0.4166667E+00  0.4166667E+00  0.3414595E-14  0.6172840E-02
      1        -28.254067   1.000000
      2        -27.477564   1.000000
      3        -27.476171   1.000000
      4        -26.755692   1.000000
      5        -16.047898   1.000000
      6        -15.059769   1.000000
      7        -15.018801   1.000000
      8        -14.086577   1.000000
      9        -10.145661   1.000000
     10         -9.457566   1.000000
     11         -9.212856   1.000000
     12         -9.105252   1.000000
     13         -8.671374   1.000000
     14         -8.202520   1.000000
     15         -8.146002   1.000000
     16         -7.989292   1.000000
     17         -6.466849   1.000000
     18         -6.410109   1.000000
     19         -5.893923   1.000000
     20         -5.865721   1.000000
     21         -2.676254   1.000000
     22         -2.663735   1.000000
     23         -2.029504   1.000000
     24         -1.923397   1.000000
     25         -0.092212   0.000000
     26         -0.007741   0.000000
     27          0.328528   0.000000
     28          0.443655   0.000000
     29          6.624371   0.000000
     30          7.306695   0.000000
 
 -0.4166667E+00  0.4166667E+00  0.1296650E-14  0.6172840E-02
      1        -28.253440   1.000000
      2        -27.477578   1.000000
      3        -27.477491   1.000000
      4        -26.754849   1.000000
      5        -16.046945   1.000000
      6        -15.059881   1.000000
      7        -15.021197   1.000000
      8        -14.084877   1.000000
      9        -10.141794   1.000000
     10         -9.452561   1.000000
     11         -9.235340   1.000000
     12         -9.091325   1.000000
     13         -8.645440   1.000000
     14         -8.221484   1.000000
     15         -8.185926   1.000000
     16         -7.959103   1.000000
     17         -6.465398   1.000000
     18         -6.425882   1.000000
     19         -5.875593   1.000000
     20         -5.867745   1.000000
     21         -2.667018   1.000000
     22         -2.665219   1.000000
     23         -2.028242   1.000000
     24         -1.933465   1.000000
     25         -0.089368   0.000000
     26         -0.022916   0.000000
     27          0.344111   0.000000
     28          0.441211   0.000000
     29          6.774461   0.000000
     30          7.118621   0.000000
 
  0.8333333E-01  0.8333333E-01  0.1111111E+00  0.6172840E-02
      1        -28.273092   1.000000
      2        -27.472277   1.000000
      3        -27.465810   1.000000
      4        -26.739707   1.000000
      5        -16.051188   1.000000
      6        -15.077329   1.000000
      7        -15.057008   1.000000
      8        -14.144854   1.000000
      9        -10.135269   1.000000
     10         -9.693143   1.000000
     11         -9.093004   1.000000
     12         -9.064251   1.000000
     13         -8.955021   1.000000
     14         -8.208218   1.000000
     15         -8.160541   1.000000
     16         -7.741824   1.000000
     17         -6.261241   1.000000
     18         -6.256161   1.000000
     19         -5.776819   1.000000
     20         -5.769562   1.000000
     21         -2.630489   1.000000
     22         -2.610817   1.000000
     23         -2.038551   1.000000
     24         -1.876445   1.000000
     25         -0.087855   0.000000
     26         -0.052838   0.000000
     27          0.255841   0.000000
     28          0.393628   0.000000
     29          5.705863   0.000000
     30          7.964356   0.000000
 
  0.2500000E+00  0.8333333E-01  0.1111111E+00  0.1234568E-01
      1        -28.266084   1.000000
      2        -27.477916   1.000000
      3        -27.464880   1.000000
      4        -26.743539   1.000000
      5        -16.069164   1.000000
      6        -15.087264   1.000000
      7        -15.041534   1.000000
      8        -14.122230   1.000000
      9        -10.126775   1.000000
     10         -9.644659   1.000000
     11         -9.122162   1.000000
     12         -9.063517   1.000000
     13         -8.834222   1.000000
     14         -8.270072   1.000000
     15         -8.097088   1.000000
     16         -7.801187   1.000000
     17         -6.365609   1.000000
     18         -6.260577   1.000000
     19         -5.821544   1.000000
     20         -5.770863   1.000000
     21         -2.673168   1.000000
     22         -2.637552   1.000000
     23         -2.048547   1.000000
     24         -1.903008   1.000000
     25         -0.089788   0.000000
     26         -0.019731   0.000000
     27          0.303879   0.000000
     28          0.419469   0.000000
     29          5.924476   0.000000
     30          7.937671   0.000000
 
  0.4166667E+00  0.8333333E-01  0.1111111E+00  0.1234568E-01
      1        -28.260222   1.000000
      2        -27.484929   1.000000
      3        -27.463692   1.000000
      4        -26.745301   1.000000
      5        -16.071319   1.000000
      6        -15.093299   1.000000
      7        -15.040075   1.000000
      8        -14.113303   1.000000
      9        -10.111978   1.000000
     10         -9.598207   1.000000
     11         -9.162130   1.000000
     12         -9.045737   1.000000
     13         -8.713123   1.000000
     14         -8.365603   1.000000
     15         -8.053853   1.000000
     16         -7.832972   1.000000
     17         -6.465826   1.000000
     18         -6.269721   1.000000
     19         -5.857699   1.000000
     20         -5.756849   1.000000
     21         -2.663118   1.000000
     22         -2.632373   1.000000
     23         -2.044415   1.000000
     24         -1.927651   1.000000
     25         -0.100222   0.000000
     26         -0.046456   0.000000
     27          0.331801   0.000000
     28          0.421428   0.000000
     29          6.258702   0.000000
     30          7.359335   0.000000
 
 -0.4166667E+00  0.8333333E-01  0.1111111E+00  0.1234568E-01
      1        -28.261390   1.000000
      2        -27.483944   1.000000
      3        -27.465342   1.000000
      4        -26.743022   1.000000
      5        -16.055530   1.000000
      6        -15.084036   1.000000
      7        -15.059714   1.000000
      8        -14.126400   1.000000
      9        -10.105887   1.000000
     10         -9.601682   1.000000
     11         -9.164721   1.000000
     12         -9.037904   1.000000
     13         -8.776267   1.000000
     14         -8.316007   1.000000
     15         -8.122178   1.000000
     16         -7.776685   1.000000
     17         -6.459385   1.000000
     18         -6.276421   1.000000
     19         -5.843919   1.000000
     20         -5.745703   1.000000
     21         -2.622238   1.000000
     22         -2.586836   1.000000
     23         -2.012277   1.000000
     24         -1.944824   1.000000
     25         -0.120978   0.000000
     26         -0.097755   0.000000
     27          0.317347   0.000000
     28          0.395256   0.000000
     29          6.330418   0.000000
     30          7.124710   0.000000
 
 -0.2500000E+00  0.8333333E-01  0.1111111E+00  0.1234568E-01
      1        -28.268364   1.000000
      2        -27.476928   1.000000
      3        -27.467217   1.000000
      4        -26.739022   1.000000
      5        -16.036811   1.000000
      6        -15.087742   1.000000
      7        -15.061919   1.000000
      8        -14.149037   1.000000
      9        -10.114041   1.000000
     10         -9.653698   1.000000
     11         -9.124937   1.000000
     12         -9.049221   1.000000
     13         -8.914838   1.000000
     14         -8.220109   1.000000
     15         -8.194368   1.000000
     16         -7.724299   1.000000
     17         -6.352278   1.000000
     18         -6.274382   1.000000
     19         -5.794184   1.000000
     20         -5.747755   1.000000
     21         -2.598648   1.000000
     22         -2.537344   1.000000
     23         -2.015639   1.000000
     24         -1.903631   1.000000
     25         -0.170893   0.000000
     26         -0.085235   0.000000
     27          0.264600   0.000000
     28          0.375889   0.000000
     29          5.991441   0.000000
     30          7.379248   0.000000
 
 -0.8333333E-01  0.8333333E-01  0.1111111E+00  0.1234568E-01
      1        -28.274104   1.000000
      2        -27.473358   1.000000
      3        -27.465104   1.000000
      4        -26.737346   1.000000
      5        -16.034557   1.000000
      6        -15.090449   1.000000
      7        -15.054250   1.000000
      8        -14.158556   1.000000
      9        -10.128561   1.000000
     10         -9.698744   1.000000
     11         -9.085230   1.000000
     12         -9.063957   1.000000
     13         -8.988744   1.000000
     14         -8.229273   1.000000
     15         -8.162181   1.000000
     16         -7.712590   1.000000
     17         -6.268116   1.000000
     18         -6.249563   1.000000
     19         -5.764047   1.000000
     20         -5.756710   1.000000
     21         -2.600969   1.000000
     22         -2.552046   1.000000
     23         -2.031161   1.000000
     24         -1.866460   1.000000
     25         -0.146203   0.000000
     26         -0.068775   0.000000
     27          0.232738   0.000000
     28          0.374572   0.000000
     29          5.729313   0.000000
     30          7.713279   0.000000
 
  0.2500000E+00  0.2500000E+00  0.1111111E+00  0.6172840E-02
      1        -28.260333   1.000000
      2        -27.473882   1.000000
      3        -27.471403   1.000000
      4        -26.749034   1.000000
      5        -16.089178   1.000000
      6        -15.072791   1.000000
      7        -15.045480   1.000000
      8        -14.103007   1.000000
      9        -10.127542   1.000000
     10         -9.583940   1.000000
     11         -9.109147   1.000000
     12         -9.103701   1.000000
     13         -8.741577   1.000000
     14         -8.193162   1.000000
     15         -8.130085   1.000000
     16         -7.873502   1.000000
     17         -6.371644   1.000000
     18         -6.339287   1.000000
     19         -5.837804   1.000000
     20         -5.829035   1.000000
     21         -2.704517   1.000000
     22         -2.690901   1.000000
     23         -2.042657   1.000000
     24         -1.927301   1.000000
     25         -0.056054   0.000000
     26          0.000515   0.000000
     27          0.330059   0.000000
     28          0.442555   0.000000
     29          6.080760   0.000000
     30          7.798948   0.000000
 
  0.4166667E+00  0.2500000E+00  0.1111111E+00  0.1234568E-01
      1        -28.255090   1.000000
      2        -27.479248   1.000000
      3        -27.470486   1.000000
      4        -26.751499   1.000000
      5        -16.092334   1.000000
      6        -15.074507   1.000000
      7        -15.045678   1.000000
      8        -14.095681   1.000000
      9        -10.117570   1.000000
     10         -9.524416   1.000000
     11         -9.162015   1.000000
     12         -9.079777   1.000000
     13         -8.642598   1.000000
     14         -8.244000   1.000000
     15         -8.103169   1.000000
     16         -7.910447   1.000000
     17         -6.451517   1.000000
     18         -6.358629   1.000000
     19         -5.873449   1.000000
     20         -5.827668   1.000000
     21         -2.700285   1.000000
     22         -2.688442   1.000000
     23         -2.032942   1.000000
     24         -1.947491   1.000000
     25         -0.068170   0.000000
     26         -0.015646   0.000000
     27          0.347481   0.000000
     28          0.445325   0.000000
     29          6.384869   0.000000
     30          7.365594   0.000000
 
 -0.4166667E+00  0.2500000E+00  0.1111111E+00  0.1234568E-01
      1        -28.255592   1.000000
      2        -27.479280   1.000000
      3        -27.472434   1.000000
      4        -26.748455   1.000000
      5        -16.075677   1.000000
      6        -15.081139   1.000000
      7        -15.051644   1.000000
      8        -14.107395   1.000000
      9        -10.107151   1.000000
     10         -9.529894   1.000000
     11         -9.181078   1.000000
     12         -9.060298   1.000000
     13         -8.670395   1.000000
     14         -8.251852   1.000000
     15         -8.166236   1.000000
     16         -7.837260   1.000000
     17         -6.449191   1.000000
     18         -6.375373   1.000000
     19         -5.854925   1.000000
     20         -5.805131   1.000000
     21         -2.679278   1.000000
     22         -2.616283   1.000000
     23         -2.023267   1.000000
     24         -1.949865   1.000000
     25         -0.129824   0.000000
     26         -0.037483   0.000000
     27          0.338598   0.000000
     28          0.425254   0.000000
     29          6.567202   0.000000
     30          7.049304   0.000000
 
 -0.2500000E+00  0.2500000E+00  0.1111111E+00  0.1234568E-01
      1        -28.261409   1.000000
      2        -27.479593   1.000000
      3        -27.469680   1.000000
      4        -26.742933   1.000000
      5        -16.054968   1.000000
      6        -15.103906   1.000000
      7        -15.039967   1.000000
      8        -14.126741   1.000000
      9        -10.106153   1.000000
     10         -9.598094   1.000000
     11         -9.154496   1.000000
     12         -9.053133   1.000000
     13         -8.783092   1.000000
     14         -8.304986   1.000000
     15         -8.125277   1.000000
     16         -7.778438   1.000000
     17         -6.389525   1.000000
     18         -6.347027   1.000000
     19         -5.817546   1.000000
     20         -5.769672   1.000000
     21         -2.653650   1.000000
     22         -2.550570   1.000000
     23         -2.046734   1.000000
     24         -1.909369   1.000000
     25         -0.190142   0.000000
     26         -0.033466   0.000000
     27          0.302459   0.000000
     28          0.409667   0.000000
     29          6.270993   0.000000
     30          7.272982   0.000000
 
 -0.8333333E-01  0.2500000E+00  0.1111111E+00  0.1234568E-01
      1        -28.266625   1.000000
      2        -27.480947   1.000000
      3        -27.463883   1.000000
      4        -26.740545   1.000000
      5        -16.051566   1.000000
      6        -15.107918   1.000000
      7        -15.033941   1.000000
      8        -14.134419   1.000000
      9        -10.115730   1.000000
     10         -9.652831   1.000000
     11         -9.131195   1.000000
     12         -9.049679   1.000000
     13         -8.853046   1.000000
     14         -8.322819   1.000000
     15         -8.088597   1.000000
     16         -7.766572   1.000000
     17         -6.381061   1.000000
     18         -6.256099   1.000000
     19         -5.810086   1.000000
     20         -5.744120   1.000000
     21         -2.649721   1.000000
     22         -2.563255   1.000000
     23         -2.057213   1.000000
     24         -1.887795   1.000000
     25         -0.167764   0.000000
     26         -0.025907   0.000000
     27          0.285602   0.000000
     28          0.405767   0.000000
     29          5.996668   0.000000
     30          7.622804   0.000000
 
  0.4166667E+00  0.4166667E+00  0.1111111E+00  0.6172840E-02
      1        -28.250927   1.000000
      2        -27.476591   1.000000
      3        -27.474916   1.000000
      4        -26.755584   1.000000
      5        -16.097357   1.000000
      6        -15.074375   1.000000
      7        -15.042459   1.000000
      8        -14.091842   1.000000
      9        -10.116150   1.000000
     10         -9.448174   1.000000
     11         -9.185986   1.000000
     12         -9.092331   1.000000
     13         -8.589864   1.000000
     14         -8.156950   1.000000
     15         -8.114349   1.000000
     16         -7.996301   1.000000
     17         -6.469920   1.000000
     18         -6.413025   1.000000
     19         -5.895615   1.000000
     20         -5.870166   1.000000
     21         -2.704877   1.000000
     22         -2.692464   1.000000
     23         -2.025393   1.000000
     24         -1.947489   1.000000
     25         -0.085794   0.000000
     26         -0.002237   0.000000
     27          0.334777   0.000000
     28          0.452516   0.000000
     29          6.650928   0.000000
     30          7.180364   0.000000
 
 -0.4166667E+00  0.4166667E+00  0.1111111E+00  0.1234568E-01
      1        -28.251988   1.000000
      2        -27.477782   1.000000
      3        -27.474422   1.000000
      4        -26.753361   1.000000
      5        -16.081899   1.000000
      6        -15.083855   1.000000
      7        -15.042718   1.000000
      8        -14.105439   1.000000
      9        -10.109578   1.000000
     10         -9.459324   1.000000
     11         -9.192971   1.000000
     12         -9.077413   1.000000
     13         -8.625747   1.000000
     14         -8.233886   1.000000
     15         -8.106905   1.000000
     16         -7.911800   1.000000
     17         -6.464579   1.000000
     18         -6.423424   1.000000
     19         -5.875022   1.000000
     20         -5.861049   1.000000
     21         -2.682298   1.000000
     22         -2.631889   1.000000
     23         -2.020456   1.000000
     24         -1.933425   1.000000
     25         -0.134671   0.000000
     26         -0.026960   0.000000
     27          0.312864   0.000000
     28          0.434162   0.000000
     29          6.799448   0.000000
     30          7.004834   0.000000
 
 -0.2500000E+00  0.4166667E+00  0.1111111E+00  0.1234568E-01
      1        -28.257253   1.000000
      2        -27.483369   1.000000
      3        -27.467756   1.000000
      4        -26.747055   1.000000
      5        -16.060304   1.000000
      6        -15.107106   1.000000
      7        -15.033027   1.000000
      8        -14.123235   1.000000
      9        -10.103937   1.000000
     10         -9.546062   1.000000
     11         -9.171657   1.000000
     12         -9.052995   1.000000
     13         -8.699394   1.000000
     14         -8.360336   1.000000
     15         -8.052820   1.000000
     16         -7.832273   1.000000
     17         -6.468382   1.000000
     18         -6.347091   1.000000
     19         -5.853508   1.000000
     20         -5.792432   1.000000
     21         -2.654108   1.000000
     22         -2.562273   1.000000
     23         -2.043729   1.000000
     24         -1.900507   1.000000
     25         -0.192335   0.000000
     26         -0.037624   0.000000
     27          0.292567   0.000000
     28          0.414864   0.000000
     29          6.506070   0.000000
     30          7.271642   0.000000
 
 -0.8333333E-01  0.4166667E+00  0.1111111E+00  0.1234568E-01
      1        -28.261367   1.000000
      2        -27.486997   1.000000
      3        -27.462450   1.000000
      4        -26.743134   1.000000
      5        -16.054780   1.000000
      6        -15.113412   1.000000
      7        -15.030334   1.000000
      8        -14.127357   1.000000
      9        -10.104873   1.000000
     10         -9.608999   1.000000
     11         -9.163887   1.000000
     12         -9.034091   1.000000
     13         -8.738055   1.000000
     14         -8.412040   1.000000
     15         -8.033260   1.000000
     16         -7.806374   1.000000
     17         -6.475545   1.000000
     18         -6.260637   1.000000
     19         -5.849093   1.000000
     20         -5.739721   1.000000
     21         -2.644094   1.000000
     22         -2.561930   1.000000
     23         -2.057495   1.000000
     24         -1.897895   1.000000
     25         -0.177912   0.000000
     26         -0.041560   0.000000
     27          0.298385   0.000000
     28          0.410041   0.000000
     29          6.308466   0.000000
     30          7.361297   0.000000
 
 -0.4166667E+00 -0.4166667E+00  0.1111111E+00  0.6172840E-02
      1        -28.254273   1.000000
      2        -27.475856   1.000000
      3        -27.474178   1.000000
      4        -26.752630   1.000000
      5        -16.068403   1.000000
      6        -15.079926   1.000000
      7        -15.050966   1.000000
      8        -14.122312   1.000000
      9        -10.110965   1.000000
     10         -9.473659   1.000000
     11         -9.166230   1.000000
     12         -9.087574   1.000000
     13         -8.703640   1.000000
     14         -8.185412   1.000000
     15         -8.130957   1.000000
     16         -7.871904   1.000000
     17         -6.459608   1.000000
     18         -6.404521   1.000000
     19         -5.889873   1.000000
     20         -5.849064   1.000000
     21         -2.633782   1.000000
     22         -2.614056   1.000000
     23         -1.997352   1.000000
     24         -1.918437   1.000000
     25         -0.149669   0.000000
     26         -0.058088   0.000000
     27          0.263143   0.000000
     28          0.415295   0.000000
     29          6.587445   0.000000
     30          7.255766   0.000000
 
 -0.2500000E+00 -0.4166667E+00  0.1111111E+00  0.1234568E-01
      1        -28.260136   1.000000
      2        -27.479738   1.000000
      3        -27.467892   1.000000
      4        -26.747069   1.000000
      5        -16.047864   1.000000
      6        -15.094495   1.000000
      7        -15.047358   1.000000
      8        -14.141757   1.000000
      9        -10.109615   1.000000
     10         -9.553587   1.000000
     11         -9.143530   1.000000
     12         -9.068482   1.000000
     13         -8.794475   1.000000
     14         -8.270989   1.000000
     15         -8.094530   1.000000
     16         -7.794355   1.000000
     17         -6.444371   1.000000
     18         -6.336939   1.000000
     19         -5.857592   1.000000
     20         -5.803438   1.000000
     21         -2.601600   1.000000
     22         -2.558108   1.000000
     23         -2.003354   1.000000
     24         -1.891949   1.000000
     25         -0.181810   0.000000
     26         -0.084244   0.000000
     27          0.237341   0.000000
     28          0.390867   0.000000
     29          6.334406   0.000000
     30          7.515193   0.000000
 
 -0.8333333E-01 -0.4166667E+00  0.1111111E+00  0.1234568E-01
      1        -28.263680   1.000000
      2        -27.484142   1.000000
      3        -27.463158   1.000000
      4        -26.742397   1.000000
      5        -16.041153   1.000000
      6        -15.101107   1.000000
      7        -15.047397   1.000000
      8        -14.143878   1.000000
      9        -10.106957   1.000000
     10         -9.612763   1.000000
     11         -9.151722   1.000000
     12         -9.034419   1.000000
     13         -8.830224   1.000000
     14         -8.330234   1.000000
     15         -8.086634   1.000000
     16         -7.761045   1.000000
     17         -6.456154   1.000000
     18         -6.259773   1.000000
     19         -5.842048   1.000000
     20         -5.746210   1.000000
     21         -2.585939   1.000000
     22         -2.553587   1.000000
     23         -2.015463   1.000000
     24         -1.902096   1.000000
     25         -0.168480   0.000000
     26         -0.102465   0.000000
     27          0.263893   0.000000
     28          0.381561   0.000000
     29          6.237353   0.000000
     30          7.320580   0.000000
 
 -0.2500000E+00 -0.2500000E+00  0.1111111E+00  0.6172840E-02
      1        -28.267057   1.000000
      2        -27.472435   1.000000
      3        -27.470112   1.000000
      4        -26.743138   1.000000
      5        -16.029268   1.000000
      6        -15.084996   1.000000
      7        -15.062443   1.000000
      8        -14.164673   1.000000
      9        -10.117124   1.000000
     10         -9.611834   1.000000
     11         -9.096692   1.000000
     12         -9.093102   1.000000
     13         -8.905476   1.000000
     14         -8.204573   1.000000
     15         -8.162824   1.000000
     16         -7.732235   1.000000
     17         -6.350608   1.000000
     18         -6.319767   1.000000
     19         -5.825469   1.000000
     20         -5.789543   1.000000
     21         -2.559527   1.000000
     22         -2.528653   1.000000
     23         -1.988703   1.000000
     24         -1.867278   1.000000
     25         -0.179524   0.000000
     26         -0.116574   0.000000
     27          0.182834   0.000000
     28          0.366110   0.000000
     29          6.036743   0.000000
     30          7.613810   0.000000
 
 -0.8333333E-01 -0.2500000E+00  0.1111111E+00  0.1234568E-01
      1        -28.271181   1.000000
      2        -27.475515   1.000000
      3        -27.465349   1.000000
      4        -26.739149   1.000000
      5        -16.023593   1.000000
      6        -15.085970   1.000000
      7        -15.065520   1.000000
      8        -14.168405   1.000000
      9        -10.119338   1.000000
     10         -9.660676   1.000000
     11         -9.111406   1.000000
     12         -9.053101   1.000000
     13         -8.961832   1.000000
     14         -8.230362   1.000000
     15         -8.161766   1.000000
     16         -7.707030   1.000000
     17         -6.342065   1.000000
     18         -6.252927   1.000000
     19         -5.799159   1.000000
     20         -5.755175   1.000000
     21         -2.548286   1.000000
     22         -2.528349   1.000000
     23         -1.998627   1.000000
     24         -1.869393   1.000000
     25         -0.159560   0.000000
     26         -0.133856   0.000000
     27          0.199693   0.000000
     28          0.357922   0.000000
     29          5.896529   0.000000
     30          7.555475   0.000000
 
 -0.8333333E-01 -0.8333333E-01  0.1111111E+00  0.6172840E-02
      1        -28.276335   1.000000
      2        -27.471414   1.000000
      3        -27.465090   1.000000
      4        -26.736598   1.000000
      5        -16.020189   1.000000
      6        -15.084023   1.000000
      7        -15.065414   1.000000
      8        -14.175969   1.000000
      9        -10.130044   1.000000
     10         -9.703312   1.000000
     11         -9.078583   1.000000
     12         -9.060124   1.000000
     13         -9.032034   1.000000
     14         -8.211053   1.000000
     15         -8.176609   1.000000
     16         -7.690011   1.000000
     17         -6.250672   1.000000
     18         -6.245276   1.000000
     19         -5.770272   1.000000
     20         -5.751108   1.000000
     21         -2.556181   1.000000
     22         -2.527027   1.000000
     23         -2.013105   1.000000
     24         -1.845286   1.000000
     25         -0.147800   0.000000
     26         -0.114220   0.000000
     27          0.180773   0.000000
     28          0.354430   0.000000
     29          5.687444   0.000000
     30          7.735919   0.000000
 
  0.8333333E-01  0.8333333E-01  0.2222222E+00  0.6172840E-02
      1        -28.263208   1.000000
      2        -27.469468   1.000000
      3        -27.463814   1.000000
      4        -26.741308   1.000000
      5        -16.186919   1.000000
      6        -15.115744   1.000000
      7        -15.110271   1.000000
      8        -14.141232   1.000000
      9        -10.070109   1.000000
     10         -9.659860   1.000000
     11         -9.095164   1.000000
     12         -9.013827   1.000000
     13         -8.697309   1.000000
     14         -8.107738   1.000000
     15         -8.060005   1.000000
     16         -7.746956   1.000000
     17         -6.275191   1.000000
     18         -6.269109   1.000000
     19         -5.791876   1.000000
     20         -5.784002   1.000000
     21         -2.743503   1.000000
     22         -2.727708   1.000000
     23         -2.041916   1.000000
     24         -1.957174   1.000000
     25         -0.034058   0.000000
     26         -0.007519   0.000000
     27          0.315314   0.000000
     28          0.438547   0.000000
     29          5.635302   0.000000
     30          7.590019   0.000000
 
  0.2500000E+00  0.8333333E-01  0.2222222E+00  0.1234568E-01
      1        -28.257277   1.000000
      2        -27.474605   1.000000
      3        -27.463386   1.000000
      4        -26.744473   1.000000
      5        -16.197222   1.000000
      6        -15.124686   1.000000
      7        -15.099466   1.000000
      8        -14.126357   1.000000
      9        -10.058229   1.000000
     10         -9.609264   1.000000
     11         -9.099740   1.000000
     12         -9.027816   1.000000
     13         -8.594432   1.000000
     14         -8.169147   1.000000
     15         -8.014767   1.000000
     16         -7.795941   1.000000
     17         -6.371298   1.000000
     18         -6.275127   1.000000
     19         -5.833834   1.000000
     20         -5.782217   1.000000
     21         -2.752323   1.000000
     22         -2.744539   1.000000
     23         -2.042345   1.000000
     24         -1.978448   1.000000
     25         -0.035686   0.000000
     26         -0.008023   0.000000
     27          0.347078   0.000000
     28          0.452046   0.000000
     29          5.858553   0.000000
     30          7.299964   0.000000
 
  0.4166667E+00  0.8333333E-01  0.2222222E+00  0.1234568E-01
      1        -28.253203   1.000000
      2        -27.479433   1.000000
      3        -27.463369   1.000000
      4        -26.744533   1.000000
      5        -16.184178   1.000000
      6        -15.119507   1.000000
      7        -15.117337   1.000000
      8        -14.132886   1.000000
      9        -10.038688   1.000000
     10         -9.569055   1.000000
     11         -9.108226   1.000000
     12         -9.023599   1.000000
     13         -8.554192   1.000000
     14         -8.205545   1.000000
     15         -8.040014   1.000000
     16         -7.767098   1.000000
     17         -6.459190   1.000000
     18         -6.287078   1.000000
     19         -5.860470   1.000000
     20         -5.765821   1.000000
     21         -2.727892   1.000000
     22         -2.673852   1.000000
     23         -2.011268   1.000000
     24         -2.004779   1.000000
     25         -0.108881   0.000000
     26         -0.038839   0.000000
     27          0.343449   0.000000
     28          0.432964   0.000000
     29          6.212353   0.000000
     30          6.843705   0.000000
 
 -0.4166667E+00  0.8333333E-01  0.2222222E+00  0.1234568E-01
      1        -28.255188   1.000000
      2        -27.477640   1.000000
      3        -27.465486   1.000000
      4        -26.741547   1.000000
      5        -16.159736   1.000000
      6        -15.149598   1.000000
      7        -15.102785   1.000000
      8        -14.154732   1.000000
      9        -10.031006   1.000000
     10         -9.582486   1.000000
     11         -9.090443   1.000000
     12         -9.023159   1.000000
     13         -8.649843   1.000000
     14         -8.150683   1.000000
     15         -8.092686   1.000000
     16         -7.707596   1.000000
     17         -6.448371   1.000000
     18         -6.295127   1.000000
     19         -5.841817   1.000000
     20         -5.753660   1.000000
     21         -2.698084   1.000000
     22         -2.571856   1.000000
     23         -2.047229   1.000000
     24         -1.941833   1.000000
     25         -0.224151   0.000000
     26         -0.034969   0.000000
     27          0.293326   0.000000
     28          0.413639   0.000000
     29          6.324894   0.000000
     30          6.617839   0.000000
 
 -0.2500000E+00  0.8333333E-01  0.2222222E+00  0.1234568E-01
      1        -28.261187   1.000000
      2        -27.472915   1.000000
      3        -27.465474   1.000000
      4        -26.738458   1.000000
      5        -16.148480   1.000000
      6        -15.163938   1.000000
      7        -15.090619   1.000000
      8        -14.170296   1.000000
      9        -10.041547   1.000000
     10         -9.637977   1.000000
     11         -9.048420   1.000000
     12         -9.042820   1.000000
     13         -8.742893   1.000000
     14         -8.166642   1.000000
     15         -8.051314   1.000000
     16         -7.681029   1.000000
     17         -6.349036   1.000000
     18         -6.291084   1.000000
     19         -5.798336   1.000000
     20         -5.755508   1.000000
     21         -2.686694   1.000000
     22         -2.555960   1.000000
     23         -2.060166   1.000000
     24         -1.904939   1.000000
     25         -0.234363   0.000000
     26         -0.024950   0.000000
     27          0.255093   0.000000
     28          0.405414   0.000000
     29          5.896908   0.000000
     30          7.032517   0.000000
 
 -0.8333333E-01  0.8333333E-01  0.2222222E+00  0.1234568E-01
      1        -28.265176   1.000000
      2        -27.470931   1.000000
      3        -27.462452   1.000000
      4        -26.738272   1.000000
      5        -16.162758   1.000000
      6        -15.144944   1.000000
      7        -15.095861   1.000000
      8        -14.163262   1.000000
      9        -10.061117   1.000000
     10         -9.675327   1.000000
     11         -9.077399   1.000000
     12         -9.012971   1.000000
     13         -8.759257   1.000000
     14         -8.151223   1.000000
     15         -8.038575   1.000000
     16         -7.696881   1.000000
     17         -6.282778   1.000000
     18         -6.258076   1.000000
     19         -5.780583   1.000000
     20         -5.763816   1.000000
     21         -2.707187   1.000000
     22         -2.641810   1.000000
     23         -2.047507   1.000000
     24         -1.923044   1.000000
     25         -0.128546   0.000000
     26         -0.016960   0.000000
     27          0.271674   0.000000
     28          0.413278   0.000000
     29          5.642738   0.000000
     30          7.450207   0.000000
 
  0.2500000E+00  0.2500000E+00  0.2222222E+00  0.6172840E-02
      1        -28.252377   1.000000
      2        -27.470770   1.000000
      3        -27.469099   1.000000
      4        -26.749110   1.000000
      5        -16.209439   1.000000
      6        -15.112800   1.000000
      7        -15.103658   1.000000
      8        -14.115208   1.000000
      9        -10.057052   1.000000
     10         -9.548299   1.000000
     11         -9.088084   1.000000
     12         -9.057842   1.000000
     13         -8.520529   1.000000
     14         -8.094198   1.000000
     15         -8.045862   1.000000
     16         -7.870215   1.000000
     17         -6.379297   1.000000
     18         -6.346408   1.000000
     19         -5.841755   1.000000
     20         -5.841389   1.000000
     21         -2.776394   1.000000
     22         -2.762862   1.000000
     23         -2.031312   1.000000
     24         -1.990981   1.000000
     25         -0.036119   0.000000
     26          0.016034   0.000000
     27          0.350001   0.000000
     28          0.467210   0.000000
     29          6.016157   0.000000
     30          7.205946   0.000000
 
  0.4166667E+00  0.2500000E+00  0.2222222E+00  0.1234568E-01
      1        -28.248752   1.000000
      2        -27.474371   1.000000
      3        -27.469131   1.000000
      4        -26.750091   1.000000
      5        -16.197520   1.000000
      6        -15.124831   1.000000
      7        -15.101199   1.000000
      8        -14.123875   1.000000
      9        -10.042391   1.000000
     10         -9.501497   1.000000
     11         -9.099110   1.000000
     12         -9.054664   1.000000
     13         -8.492407   1.000000
     14         -8.098356   1.000000
     15         -8.085610   1.000000
     16         -7.842586   1.000000
     17         -6.447404   1.000000
     18         -6.368947   1.000000
     19         -5.872599   1.000000
     20         -5.831955   1.000000
     21         -2.757624   1.000000
     22         -2.696975   1.000000
     23         -2.025807   1.000000
     24         -1.979511   1.000000
     25         -0.110162   0.000000
     26         -0.002861   0.000000
     27          0.329466   0.000000
     28          0.452946   0.000000
     29          6.296828   0.000000
     30          6.974424   0.000000
 
 -0.4166667E+00  0.2500000E+00  0.2222222E+00  0.1234568E-01
      1        -28.250277   1.000000
      2        -27.474370   1.000000
      3        -27.470896   1.000000
      4        -26.746315   1.000000
      5        -16.172267   1.000000
      6        -15.157624   1.000000
      7        -15.086394   1.000000
      8        -14.144115   1.000000
      9        -10.028760   1.000000
     10         -9.522013   1.000000
     11         -9.096003   1.000000
     12         -9.040620   1.000000
     13         -8.553308   1.000000
     14         -8.198269   1.000000
     15         -8.035685   1.000000
     16         -7.765933   1.000000
     17         -6.440292   1.000000
     18         -6.387352   1.000000
     19         -5.849482   1.000000
     20         -5.808290   1.000000
     21         -2.725895   1.000000
     22         -2.589627   1.000000
     23         -2.062465   1.000000
     24         -1.924113   1.000000
     25         -0.229141   0.000000
     26         -0.008275   0.000000
     27          0.292120   0.000000
     28          0.433834   0.000000
     29          6.517493   0.000000
     30          6.677447   0.000000
 
 -0.2500000E+00  0.2500000E+00  0.2222222E+00  0.1234568E-01
      1        -28.255257   1.000000
      2        -27.477536   1.000000
      3        -27.465564   1.000000
      4        -26.741574   1.000000
      5        -16.158852   1.000000
      6        -15.174998   1.000000
      7        -15.077229   1.000000
      8        -14.155658   1.000000
      9        -10.028377   1.000000
     10         -9.589005   1.000000
     11         -9.080027   1.000000
     12         -9.032951   1.000000
     13         -8.623702   1.000000
     14         -8.259440   1.000000
     15         -7.988264   1.000000
     16         -7.728677   1.000000
     17         -6.399483   1.000000
     18         -6.345013   1.000000
     19         -5.821051   1.000000
     20         -5.771009   1.000000
     21         -2.706300   1.000000
     22         -2.560286   1.000000
     23         -2.086221   1.000000
     24         -1.900984   1.000000
     25         -0.251869   0.000000
     26         -0.008995   0.000000
     27          0.277464   0.000000
     28          0.426467   0.000000
     29          6.161260   0.000000
     30          7.008715   0.000000
 
 -0.8333333E-01  0.2500000E+00  0.2222222E+00  0.1234568E-01
      1        -28.258705   1.000000
      2        -27.478125   1.000000
      3        -27.461412   1.000000
      4        -26.740703   1.000000
      5        -16.171974   1.000000
      6        -15.157808   1.000000
      7        -15.084159   1.000000
      8        -14.146582   1.000000
      9        -10.043109   1.000000
     10         -9.629992   1.000000
     11         -9.092531   1.000000
     12         -9.018667   1.000000
     13         -8.639819   1.000000
     14         -8.246546   1.000000
     15         -7.982979   1.000000
     16         -7.740017   1.000000
     17         -6.388373   1.000000
     18         -6.265348   1.000000
     19         -5.821167   1.000000
     20         -5.750798   1.000000
     21         -2.720500   1.000000
     22         -2.643743   1.000000
     23         -2.070401   1.000000
     24         -1.933692   1.000000
     25         -0.148755   0.000000
     26         -0.010646   0.000000
     27          0.310750   0.000000
     28          0.431246   0.000000
     29          5.907640   0.000000
     30          7.269287   0.000000
 
  0.4166667E+00  0.4166667E+00  0.2222222E+00  0.6172840E-02
      1        -28.246275   1.000000
      2        -27.473454   1.000000
      3        -27.470884   1.000000
      4        -26.752449   1.000000
      5        -16.187746   1.000000
      6        -15.120291   1.000000
      7        -15.109379   1.000000
      8        -14.136353   1.000000
      9        -10.036222   1.000000
     10         -9.449698   1.000000
     11         -9.103561   1.000000
     12         -9.057023   1.000000
     13         -8.502973   1.000000
     14         -8.088129   1.000000
     15         -8.045662   1.000000
     16         -7.862734   1.000000
     17         -6.468549   1.000000
     18         -6.413153   1.000000
     19         -5.894728   1.000000
     20         -5.860140   1.000000
     21         -2.703298   1.000000
     22         -2.684918   1.000000
     23         -1.987232   1.000000
     24         -1.979480   1.000000
     25         -0.132033   0.000000
     26         -0.045065   0.000000
     27          0.279826   0.000000
     28          0.437565   0.000000
     29          6.452176   0.000000
     30          7.073802   0.000000
 
 -0.4166667E+00  0.4166667E+00  0.2222222E+00  0.1234568E-01
      1        -28.248395   1.000000
      2        -27.474983   1.000000
      3        -27.469897   1.000000
      4        -26.749443   1.000000
      5        -16.163692   1.000000
      6        -15.146966   1.000000
      7        -15.097776   1.000000
      8        -14.158524   1.000000
      9        -10.026319   1.000000
     10         -9.475746   1.000000
     11         -9.096795   1.000000
     12         -9.039536   1.000000
     13         -8.571711   1.000000
     14         -8.165099   1.000000
     15         -8.010358   1.000000
     16         -7.782064   1.000000
     17         -6.462982   1.000000
     18         -6.420636   1.000000
     19         -5.872710   1.000000
     20         -5.846510   1.000000
     21         -2.669509   1.000000
     22         -2.591553   1.000000
     23         -2.011280   1.000000
     24         -1.923137   1.000000
     25         -0.219184   0.000000
     26         -0.069668   0.000000
     27          0.236883   0.000000
     28          0.410561   0.000000
     29          6.592329   0.000000
     30          6.865393   0.000000
 
 -0.2500000E+00  0.4166667E+00  0.2222222E+00  0.1234568E-01
      1        -28.252798   1.000000
      2        -27.479693   1.000000
      3        -27.464349   1.000000
      4        -26.743862   1.000000
      5        -16.149048   1.000000
      6        -15.165556   1.000000
      7        -15.090532   1.000000
      8        -14.167975   1.000000
      9        -10.021182   1.000000
     10         -9.550028   1.000000
     11         -9.091599   1.000000
     12         -9.016497   1.000000
     13         -8.622729   1.000000
     14         -8.248285   1.000000
     15         -7.981220   1.000000
     16         -7.728200   1.000000
     17         -6.467185   1.000000
     18         -6.348106   1.000000
     19         -5.847445   1.000000
     20         -5.789554   1.000000
     21         -2.645505   1.000000
     22         -2.557017   1.000000
     23         -2.038305   1.000000
     24         -1.907553   1.000000
     25         -0.246057   0.000000
     26         -0.083276   0.000000
     27          0.245847   0.000000
     28          0.397066   0.000000
     29          6.443639   0.000000
     30          6.841159   0.000000
 
 -0.8333333E-01  0.4166667E+00  0.2222222E+00  0.1234568E-01
      1        -28.255187   1.000000
      2        -27.482109   1.000000
      3        -27.460983   1.000000
      4        -26.741526   1.000000
      5        -16.159829   1.000000
      6        -15.151484   1.000000
      7        -15.100478   1.000000
      8        -14.154873   1.000000
      9        -10.027331   1.000000
     10         -9.592699   1.000000
     11         -9.103679   1.000000
     12         -9.005650   1.000000
     13         -8.615266   1.000000
     14         -8.264933   1.000000
     15         -7.994220   1.000000
     16         -7.724276   1.000000
     17         -6.470689   1.000000
     18         -6.272938   1.000000
     19         -5.849021   1.000000
     20         -5.745103   1.000000
     21         -2.656052   1.000000
     22         -2.621116   1.000000
     23         -2.035273   1.000000
     24         -1.953952   1.000000
     25         -0.157775   0.000000
     26         -0.094037   0.000000
     27          0.302654   0.000000
     28          0.404178   0.000000
     29          6.264627   0.000000
     30          6.798722   0.000000
 
 -0.4166667E+00 -0.4166667E+00  0.2222222E+00  0.6172840E-02
      1        -28.251617   1.000000
      2        -27.472375   1.000000
      3        -27.469906   1.000000
      4        -26.747937   1.000000
      5        -16.141694   1.000000
      6        -15.131719   1.000000
      7        -15.121853   1.000000
      8        -14.184448   1.000000
      9        -10.025722   1.000000
     10         -9.496798   1.000000
     11         -9.071946   1.000000
     12         -9.037702   1.000000
     13         -8.669357   1.000000
     14         -8.098103   1.000000
     15         -8.061711   1.000000
     16         -7.723344   1.000000
     17         -6.456078   1.000000
     18         -6.400210   1.000000
     19         -5.886003   1.000000
     20         -5.829941   1.000000
     21         -2.594003   1.000000
     22         -2.560107   1.000000
     23         -1.944704   1.000000
     24         -1.935021   1.000000
     25         -0.225423   0.000000
     26         -0.139218   0.000000
     27          0.163539   0.000000
     28          0.378290   0.000000
     29          6.585997   0.000000
     30          6.715565   0.000000
 
 -0.2500000E+00 -0.4166667E+00  0.2222222E+00  0.1234568E-01
      1        -28.256547   1.000000
      2        -27.475219   1.000000
      3        -27.465184   1.000000
      4        -26.743218   1.000000
      5        -16.128092   1.000000
      6        -15.144540   1.000000
      7        -15.117735   1.000000
      8        -14.195809   1.000000
      9        -10.026624   1.000000
     10         -9.562905   1.000000
     11         -9.065079   1.000000
     12         -9.016745   1.000000
     13         -8.738837   1.000000
     14         -8.147674   1.000000
     15         -8.039478   1.000000
     16         -7.677000   1.000000
     17         -6.438787   1.000000
     18         -6.339066   1.000000
     19         -5.850708   1.000000
     20         -5.795091   1.000000
     21         -2.566836   1.000000
     22         -2.539623   1.000000
     23         -1.959123   1.000000
     24         -1.919951   1.000000
     25         -0.225319   0.000000
     26         -0.169208   0.000000
     27          0.164701   0.000000
     28          0.361644   0.000000
     29          6.312175   0.000000
     30          6.780735   0.000000
 
 -0.8333333E-01 -0.4166667E+00  0.2222222E+00  0.1234568E-01
      1        -28.258346   1.000000
      2        -27.478345   1.000000
      3        -27.462338   1.000000
      4        -26.740046   1.000000
      5        -16.137567   1.000000
      6        -15.131927   1.000000
      7        -15.129656   1.000000
      8        -14.180482   1.000000
      9        -10.029414   1.000000
     10         -9.602815   1.000000
     11         -9.080443   1.000000
     12         -9.003966   1.000000
     13         -8.733925   1.000000
     14         -8.164316   1.000000
     15         -8.057269   1.000000
     16         -7.672418   1.000000
     17         -6.446643   1.000000
     18         -6.273697   1.000000
     19         -5.836702   1.000000
     20         -5.750673   1.000000
     21         -2.610363   1.000000
     22         -2.557600   1.000000
     23         -1.978225   1.000000
     24         -1.958478   1.000000
     25         -0.201362   0.000000
     26         -0.137669   0.000000
     27          0.239081   0.000000
     28          0.373318   0.000000
     29          6.214056   0.000000
     30          6.705559   0.000000
 
 -0.2500000E+00 -0.2500000E+00  0.2222222E+00  0.6172840E-02
      1        -28.262574   1.000000
      2        -27.468545   1.000000
      3        -27.467101   1.000000
      4        -26.740136   1.000000
      5        -16.116935   1.000000
      6        -15.135991   1.000000
      7        -15.128417   1.000000
      8        -14.211363   1.000000
      9        -10.038160   1.000000
     10         -9.616236   1.000000
     11         -9.035656   1.000000
     12         -9.021846   1.000000
     13         -8.825250   1.000000
     14         -8.103158   1.000000
     15         -8.076245   1.000000
     16         -7.642679   1.000000
     17         -6.352608   1.000000
     18         -6.319293   1.000000
     19         -5.824442   1.000000
     20         -5.782188   1.000000
     21         -2.560444   1.000000
     22         -2.519105   1.000000
     23         -1.956426   1.000000
     24         -1.898656   1.000000
     25         -0.215552   0.000000
     26         -0.169648   0.000000
     27          0.122799   0.000000
     28          0.348151   0.000000
     29          5.965919   0.000000
     30          6.970896   0.000000
 
 -0.8333333E-01 -0.2500000E+00  0.2222222E+00  0.1234568E-01
      1        -28.264850   1.000000
      2        -27.470804   1.000000
      3        -27.463800   1.000000
      4        -26.737711   1.000000
      5        -16.127566   1.000000
      6        -15.142555   1.000000
      7        -15.117903   1.000000
      8        -14.198063   1.000000
      9        -10.045895   1.000000
     10         -9.652377   1.000000
     11         -9.046833   1.000000
     12         -9.013787   1.000000
     13         -8.829346   1.000000
     14         -8.103894   1.000000
     15         -8.089249   1.000000
     16         -7.645391   1.000000
     17         -6.339707   1.000000
     18         -6.265463   1.000000
     19         -5.798772   1.000000
     20         -5.760649   1.000000
     21         -2.608521   1.000000
     22         -2.543392   1.000000
     23         -1.994274   1.000000
     24         -1.905598   1.000000
     25         -0.205062   0.000000
     26         -0.115969   0.000000
     27          0.183412   0.000000
     28          0.363898   0.000000
     29          5.810599   0.000000
     30          7.056685   0.000000
 
 -0.8333333E-01 -0.8333333E-01  0.2222222E+00  0.6172840E-02
      1        -28.268285   1.000000
      2        -27.468280   1.000000
      3        -27.462713   1.000000
      4        -26.736680   1.000000
      5        -16.140741   1.000000
      6        -15.127306   1.000000
      7        -15.122596   1.000000
      8        -14.189133   1.000000
      9        -10.061856   1.000000
     10         -9.687671   1.000000
     11         -9.061230   1.000000
     12         -9.002435   1.000000
     13         -8.838040   1.000000
     14         -8.107588   1.000000
     15         -8.074422   1.000000
     16         -7.656074   1.000000
     17         -6.260921   1.000000
     18         -6.254763   1.000000
     19         -5.775562   1.000000
     20         -5.763001   1.000000
     21         -2.636756   1.000000
     22         -2.609455   1.000000
     23         -2.009664   1.000000
     24         -1.909328   1.000000
     25         -0.121140   0.000000
     26         -0.098423   0.000000
     27          0.205642   0.000000
     28          0.378754   0.000000
     29          5.597457   0.000000
     30          7.360876   0.000000
 
  0.8333333E-01  0.8333333E-01  0.3333333E+00  0.6172840E-02
      1        -28.253486   1.000000
      2        -27.466101   1.000000
      3        -27.461283   1.000000
      4        -26.741969   1.000000
      5        -16.320810   1.000000
      6        -15.172862   1.000000
      7        -15.162949   1.000000
      8        -14.149568   1.000000
      9         -9.995268   1.000000
     10         -9.611173   1.000000
     11         -9.094950   1.000000
     12         -8.968016   1.000000
     13         -8.413578   1.000000
     14         -8.003357   1.000000
     15         -7.959198   1.000000
     16         -7.747356   1.000000
     17         -6.284970   1.000000
     18         -6.278209   1.000000
     19         -5.809761   1.000000
     20         -5.788735   1.000000
     21         -2.831188   1.000000
     22         -2.816014   1.000000
     23         -2.036641   1.000000
     24         -2.028404   1.000000
     25          0.001470   0.000000
     26          0.019206   0.000000
     27          0.351625   0.000000
     28          0.474552   0.000000
     29          5.478115   0.000000
     30          6.813115   0.000000
 
  0.2500000E+00  0.8333333E-01  0.3333333E+00  0.1234568E-01
      1        -28.249142   1.000000
      2        -27.469634   1.000000
      3        -27.461689   1.000000
      4        -26.743612   1.000000
      5        -16.316909   1.000000
      6        -15.177191   1.000000
      7        -15.164265   1.000000
      8        -14.149559   1.000000
      9         -9.978815   1.000000
     10         -9.569076   1.000000
     11         -9.080773   1.000000
     12         -8.983183   1.000000
     13         -8.366618   1.000000
     14         -8.025883   1.000000
     15         -7.967637   1.000000
     16         -7.750094   1.000000
     17         -6.369963   1.000000
     18         -6.287386   1.000000
     19         -5.838666   1.000000
     20         -5.788749   1.000000
     21         -2.818321   1.000000
     22         -2.783693   1.000000
     23         -2.053474   1.000000
     24         -2.009395   1.000000
     25         -0.047072   0.000000
     26          0.006590   0.000000
     27          0.351681   0.000000
     28          0.468873   0.000000
     29          5.665588   0.000000
     30          6.715551   0.000000
 
  0.4166667E+00  0.8333333E-01  0.3333333E+00  0.1234568E-01
      1        -28.246443   1.000000
      2        -27.473084   1.000000
      3        -27.462689   1.000000
      4        -26.742684   1.000000
      5        -16.291642   1.000000
      6        -15.209260   1.000000
      7        -15.152280   1.000000
      8        -14.168888   1.000000
      9         -9.956233   1.000000
     10         -9.542104   1.000000
     11         -9.056743   1.000000
     12         -8.992424   1.000000
     13         -8.387718   1.000000
     14         -8.040424   1.000000
     15         -7.995245   1.000000
     16         -7.692525   1.000000
     17         -6.452157   1.000000
     18         -6.301458   1.000000
     19         -5.858170   1.000000
     20         -5.771579   1.000000
     21         -2.786075   1.000000
     22         -2.656895   1.000000
     23         -2.091692   1.000000
     24         -1.949166   1.000000
     25         -0.206372   0.000000
     26          0.004642   0.000000
     27          0.308784   0.000000
     28          0.447730   0.000000
     29          5.881206   0.000000
     30          6.604298   0.000000
 
 -0.4166667E+00  0.8333333E-01  0.3333333E+00  0.1234568E-01
      1        -28.248088   1.000000
      2        -27.471843   1.000000
      3        -27.464251   1.000000
      4        -26.739947   1.000000
      5        -16.269211   1.000000
      6        -15.238861   1.000000
      7        -15.137509   1.000000
      8        -14.188565   1.000000
      9         -9.948871   1.000000
     10         -9.561218   1.000000
     11         -9.033202   1.000000
     12         -8.997710   1.000000
     13         -8.452758   1.000000
     14         -8.085571   1.000000
     15         -7.947486   1.000000
     16         -7.651673   1.000000
     17         -6.445851   1.000000
     18         -6.308595   1.000000
     19         -5.842377   1.000000
     20         -5.759842   1.000000
     21         -2.757269   1.000000
     22         -2.564190   1.000000
     23         -2.123114   1.000000
     24         -1.897729   1.000000
     25         -0.313934   0.000000
     26          0.007324   0.000000
     27          0.258586   0.000000
     28          0.437316   0.000000
     29          5.870262   0.000000
     30          6.584549   0.000000
 
 -0.2500000E+00  0.8333333E-01  0.3333333E+00  0.1234568E-01
      1        -28.252465   1.000000
      2        -27.469344   1.000000
      3        -27.462600   1.000000
      4        -26.738164   1.000000
      5        -16.273653   1.000000
      6        -15.232407   1.000000
      7        -15.137589   1.000000
      8        -14.188291   1.000000
      9         -9.963054   1.000000
     10         -9.608600   1.000000
     11         -9.047312   1.000000
     12         -8.981655   1.000000
     13         -8.487885   1.000000
     14         -8.090861   1.000000
     15         -7.921365   1.000000
     16         -7.651443   1.000000
     17         -6.356899   1.000000
     18         -6.301522   1.000000
     19         -5.809767   1.000000
     20         -5.761826   1.000000
     21         -2.764018   1.000000
     22         -2.617393   1.000000
     23         -2.108296   1.000000
     24         -1.913982   1.000000
     25         -0.245534   0.000000
     26          0.011050   0.000000
     27          0.267400   0.000000
     28          0.436893   0.000000
     29          5.612536   0.000000
     30          6.885130   0.000000
 
 -0.8333333E-01  0.8333333E-01  0.3333333E+00  0.1234568E-01
      1        -28.255124   1.000000
      2        -27.467567   1.000000
      3        -27.460166   1.000000
      4        -26.739278   1.000000
      5        -16.300014   1.000000
      6        -15.197087   1.000000
      7        -15.152488   1.000000
      8        -14.168609   1.000000
      9         -9.987055   1.000000
     10         -9.631511   1.000000
     11         -9.081438   1.000000
     12         -8.964640   1.000000
     13         -8.468768   1.000000
     14         -8.049740   1.000000
     15         -7.934246   1.000000
     16         -7.690578   1.000000
     17         -6.291974   1.000000
     18         -6.271539   1.000000
     19         -5.799426   1.000000
     20         -5.770726   1.000000
     21         -2.798263   1.000000
     22         -2.747933   1.000000
     23         -2.063599   1.000000
     24         -1.981245   1.000000
     25         -0.082165   0.000000
     26          0.012006   0.000000
     27          0.318887   0.000000
     28          0.451872   0.000000
     29          5.445739   0.000000
     30          7.028468   0.000000
 
  0.2500000E+00  0.2500000E+00  0.3333333E+00  0.6172840E-02
      1        -28.245735   1.000000
      2        -27.466672   1.000000
      3        -27.465923   1.000000
      4        -26.746999   1.000000
      5        -16.315034   1.000000
      6        -15.174284   1.000000
      7        -15.166411   1.000000
      8        -14.154117   1.000000
      9         -9.973217   1.000000
     10         -9.522640   1.000000
     11         -9.064665   1.000000
     12         -8.996947   1.000000
     13         -8.345456   1.000000
     14         -7.998605   1.000000
     15         -7.956055   1.000000
     16         -7.788096   1.000000
     17         -6.381012   1.000000
     18         -6.349195   1.000000
     19         -5.842552   1.000000
     20         -5.838918   1.000000
     21         -2.797095   1.000000
     22         -2.779602   1.000000
     23         -2.039757   1.000000
     24         -1.997517   1.000000
     25         -0.059487   0.000000
     26         -0.011471   0.000000
     27          0.318180   0.000000
     28          0.465399   0.000000
     29          5.734521   0.000000
     30          6.771743   0.000000
 
  0.4166667E+00  0.2500000E+00  0.3333333E+00  0.1234568E-01
      1        -28.243575   1.000000
      2        -27.469123   1.000000
      3        -27.466698   1.000000
      4        -26.746693   1.000000
      5        -16.291089   1.000000
      6        -15.203505   1.000000
      7        -15.153839   1.000000
      8        -14.175622   1.000000
      9         -9.954453   1.000000
     10         -9.495687   1.000000
     11         -9.038360   1.000000
     12         -9.006950   1.000000
     13         -8.372661   1.000000
     14         -8.033917   1.000000
     15         -7.951348   1.000000
     16         -7.731243   1.000000
     17         -6.444204   1.000000
     18         -6.373674   1.000000
     19         -5.866180   1.000000
     20         -5.827943   1.000000
     21         -2.763589   1.000000
     22         -2.667079   1.000000
     23         -2.059050   1.000000
     24         -1.941289   1.000000
     25         -0.193098   0.000000
     26         -0.024623   0.000000
     27          0.265229   0.000000
     28          0.439414   0.000000
     29          5.859220   0.000000
     30          6.890435   0.000000
 
 -0.4166667E+00  0.2500000E+00  0.3333333E+00  0.1234568E-01
      1        -28.244765   1.000000
      2        -27.470354   1.000000
      3        -27.467197   1.000000
      4        -26.743115   1.000000
      5        -16.267577   1.000000
      6        -15.235043   1.000000
      7        -15.140285   1.000000
      8        -14.193086   1.000000
      9         -9.939624   1.000000
     10         -9.520104   1.000000
     11         -9.016935   1.000000
     12         -9.011284   1.000000
     13         -8.417111   1.000000
     14         -8.105844   1.000000
     15         -7.916071   1.000000
     16         -7.675319   1.000000
     17         -6.441138   1.000000
     18         -6.391092   1.000000
     19         -5.843434   1.000000
     20         -5.807697   1.000000
     21         -2.730712   1.000000
     22         -2.568714   1.000000
     23         -2.098023   1.000000
     24         -1.892905   1.000000
     25         -0.309630   0.000000
     26         -0.030550   0.000000
     27          0.237375   0.000000
     28          0.423827   0.000000
     29          5.957695   0.000000
     30          6.685457   0.000000
 
 -0.2500000E+00  0.2500000E+00  0.3333333E+00  0.1234568E-01
      1        -28.248079   1.000000
      2        -27.473259   1.000000
      3        -27.462781   1.000000
      4        -26.739842   1.000000
      5        -16.269549   1.000000
      6        -15.232686   1.000000
      7        -15.143269   1.000000
      8        -14.188310   1.000000
      9         -9.942552   1.000000
     10         -9.571439   1.000000
     11         -9.040046   1.000000
     12         -8.989568   1.000000
     13         -8.434795   1.000000
     14         -8.135213   1.000000
     15         -7.906655   1.000000
     16         -7.660811   1.000000
     17         -6.401664   1.000000
     18         -6.353472   1.000000
     19         -5.824138   1.000000
     20         -5.773823   1.000000
     21         -2.726913   1.000000
     22         -2.605945   1.000000
     23         -2.106051   1.000000
     24         -1.915987   1.000000
     25         -0.258900   0.000000
     26         -0.038541   0.000000
     27          0.274072   0.000000
     28          0.425029   0.000000
     29          5.852292   0.000000
     30          6.672997   0.000000
 
 -0.8333333E-01  0.2500000E+00  0.3333333E+00  0.1234568E-01
      1        -28.250224   1.000000
      2        -27.472922   1.000000
      3        -27.459989   1.000000
      4        -26.740172   1.000000
      5        -16.294821   1.000000
      6        -15.199704   1.000000
      7        -15.158944   1.000000
      8        -14.166419   1.000000
      9         -9.963121   1.000000
     10         -9.593545   1.000000
     11         -9.070083   1.000000
     12         -8.978751   1.000000
     13         -8.410724   1.000000
     14         -8.102784   1.000000
     15         -7.931233   1.000000
     16         -7.689474   1.000000
     17         -6.386502   1.000000
     18         -6.281253   1.000000
     19         -5.828654   1.000000
     20         -5.758359   1.000000
     21         -2.757588   1.000000
     22         -2.731184   1.000000
     23         -2.074460   1.000000
     24         -1.981847   1.000000
     25         -0.104024   0.000000
     26         -0.041506   0.000000
     27          0.337533   0.000000
     28          0.441627   0.000000
     29          5.699552   0.000000
     30          6.729519   0.000000
 
  0.4166667E+00  0.4166667E+00  0.3333333E+00  0.6172840E-02
      1        -28.242527   1.000000
      2        -27.469905   1.000000
      3        -27.466348   1.000000
      4        -26.747818   1.000000
      5        -16.269363   1.000000
      6        -15.186096   1.000000
      7        -15.181273   1.000000
      8        -14.201350   1.000000
      9         -9.944429   1.000000
     10         -9.468338   1.000000
     11         -9.011887   1.000000
     12         -9.011190   1.000000
     13         -8.425704   1.000000
     14         -7.999456   1.000000
     15         -7.955323   1.000000
     16         -7.702690   1.000000
     17         -6.468403   1.000000
     18         -6.412072   1.000000
     19         -5.892560   1.000000
     20         -5.842346   1.000000
     21         -2.668662   1.000000
     22         -2.638407   1.000000
     23         -2.004245   1.000000
     24         -1.933274   1.000000
     25         -0.201226   0.000000
     26         -0.125386   0.000000
     27          0.184311   0.000000
     28          0.403503   0.000000
     29          5.912362   0.000000
     30          7.082266   0.000000
 
 -0.4166667E+00  0.4166667E+00  0.3333333E+00  0.1234568E-01
      1        -28.244297   1.000000
      2        -27.470756   1.000000
      3        -27.465748   1.000000
      4        -26.745036   1.000000
      5        -16.247037   1.000000
      6        -15.213678   1.000000
      7        -15.168501   1.000000
      8        -14.220866   1.000000
      9         -9.934627   1.000000
     10         -9.493315   1.000000
     11         -9.009291   1.000000
     12         -8.991213   1.000000
     13         -8.482205   1.000000
     14         -8.039529   1.000000
     15         -7.933628   1.000000
     16         -7.650724   1.000000
     17         -6.463578   1.000000
     18         -6.421805   1.000000
     19         -5.870538   1.000000
     20         -5.832268   1.000000
     21         -2.630518   1.000000
     22         -2.558906   1.000000
     23         -2.015545   1.000000
     24         -1.897467   1.000000
     25         -0.283275   0.000000
     26         -0.151053   0.000000
     27          0.152080   0.000000
     28          0.377713   0.000000
     29          6.005873   0.000000
     30          6.769899   0.000000
 
 -0.2500000E+00  0.4166667E+00  0.3333333E+00  0.1234568E-01
      1        -28.247027   1.000000
      2        -27.473916   1.000000
      3        -27.462535   1.000000
      4        -26.741037   1.000000
      5        -16.247577   1.000000
      6        -15.213848   1.000000
      7        -15.172875   1.000000
      8        -14.213673   1.000000
      9         -9.933914   1.000000
     10         -9.544699   1.000000
     11         -9.026325   1.000000
     12         -8.976329   1.000000
     13         -8.495295   1.000000
     14         -8.073499   1.000000
     15         -7.935828   1.000000
     16         -7.629352   1.000000
     17         -6.462162   1.000000
     18         -6.360734   1.000000
     19         -5.841964   1.000000
     20         -5.791764   1.000000
     21         -2.618173   1.000000
     22         -2.590586   1.000000
     23         -2.038951   1.000000
     24         -1.920108   1.000000
     25         -0.248485   0.000000
     26         -0.169071   0.000000
     27          0.215510   0.000000
     28          0.377648   0.000000
     29          6.022018   0.000000
     30          6.528293   0.000000
 
 -0.8333333E-01  0.4166667E+00  0.3333333E+00  0.1234568E-01
      1        -28.248194   1.000000
      2        -27.475480   1.000000
      3        -27.460612   1.000000
      4        -26.739879   1.000000
      5        -16.270509   1.000000
      6        -15.199199   1.000000
      7        -15.176837   1.000000
      8        -14.187453   1.000000
      9         -9.945651   1.000000
     10         -9.566293   1.000000
     11         -9.050635   1.000000
     12         -8.978216   1.000000
     13         -8.453114   1.000000
     14         -8.064869   1.000000
     15         -7.973119   1.000000
     16         -7.646653   1.000000
     17         -6.462893   1.000000
     18         -6.291260   1.000000
     19         -5.848153   1.000000
     20         -5.752882   1.000000
     21         -2.708286   1.000000
     22         -2.629575   1.000000
     23         -2.068001   1.000000
     24         -1.955850   1.000000
     25         -0.207755   0.000000
     26         -0.086711   0.000000
     27          0.293584   0.000000
     28          0.408847   0.000000
     29          5.950411   0.000000
     30          6.465294   0.000000
 
 -0.4166667E+00 -0.4166667E+00  0.3333333E+00  0.6172840E-02
      1        -28.247172   1.000000
      2        -27.468951   1.000000
      3        -27.465324   1.000000
      4        -26.743827   1.000000
      5        -16.227085   1.000000
      6        -15.196331   1.000000
      7        -15.193832   1.000000
      8        -14.244987   1.000000
      9         -9.937029   1.000000
     10         -9.512984   1.000000
     11         -8.988031   1.000000
     12         -8.984077   1.000000
     13         -8.556933   1.000000
     14         -7.996243   1.000000
     15         -7.958594   1.000000
     16         -7.611860   1.000000
     17         -6.460776   1.000000
     18         -6.400499   1.000000
     19         -5.884926   1.000000
     20         -5.817783   1.000000
     21         -2.573001   1.000000
     22         -2.523563   1.000000
     23         -1.965671   1.000000
     24         -1.896639   1.000000
     25         -0.274858   0.000000
     26         -0.217008   0.000000
     27          0.073854   0.000000
     28          0.349342   0.000000
     29          5.978323   0.000000
     30          6.678876   0.000000
 
 -0.2500000E+00 -0.4166667E+00  0.3333333E+00  0.1234568E-01
      1        -28.250415   1.000000
      2        -27.469791   1.000000
      3        -27.463068   1.000000
      4        -26.740608   1.000000
      5        -16.228908   1.000000
      6        -15.200342   1.000000
      7        -15.190964   1.000000
      8        -14.240077   1.000000
      9         -9.943916   1.000000
     10         -9.559467   1.000000
     11         -9.002631   1.000000
     12         -8.970052   1.000000
     13         -8.579564   1.000000
     14         -8.004703   1.000000
     15         -7.965908   1.000000
     16         -7.597567   1.000000
     17         -6.438965   1.000000
     18         -6.350397   1.000000
     19         -5.849611   1.000000
     20         -5.795495   1.000000
     21         -2.589282   1.000000
     22         -2.539689   1.000000
     23         -1.981667   1.000000
     24         -1.912297   1.000000
     25         -0.255016   0.000000
     26         -0.210142   0.000000
     27          0.123498   0.000000
     28          0.352949   0.000000
     29          5.851645   0.000000
     30          6.679789   0.000000
 
 -0.8333333E-01 -0.4166667E+00  0.3333333E+00  0.1234568E-01
      1        -28.250892   1.000000
      2        -27.471962   1.000000
      3        -27.461753   1.000000
      4        -26.738707   1.000000
      5        -16.250399   1.000000
      6        -15.221640   1.000000
      7        -15.162623   1.000000
      8        -14.211423   1.000000
      9         -9.950827   1.000000
     10         -9.580946   1.000000
     11         -9.027175   1.000000
     12         -8.976648   1.000000
     13         -8.535490   1.000000
     14         -8.014428   1.000000
     15         -7.988589   1.000000
     16         -7.614712   1.000000
     17         -6.443245   1.000000
     18         -6.291684   1.000000
     19         -5.837611   1.000000
     20         -5.759333   1.000000
     21         -2.688965   1.000000
     22         -2.553685   1.000000
     23         -2.064401   1.000000
     24         -1.910372   1.000000
     25         -0.292060   0.000000
     26         -0.078224   0.000000
     27          0.219799   0.000000
     28          0.393424   0.000000
     29          5.798369   0.000000
     30          6.623103   0.000000
 
 -0.2500000E+00 -0.2500000E+00  0.3333333E+00  0.6172840E-02
      1        -28.254680   1.000000
      2        -27.464652   1.000000
      3        -27.464128   1.000000
      4        -26.739000   1.000000
      5        -16.233422   1.000000
      6        -15.194832   1.000000
      7        -15.190023   1.000000
      8        -14.240029   1.000000
      9         -9.961681   1.000000
     10         -9.602087   1.000000
     11         -9.010498   1.000000
     12         -8.960572   1.000000
     13         -8.609441   1.000000
     14         -7.998962   1.000000
     15         -7.960897   1.000000
     16         -7.593171   1.000000
     17         -6.363195   1.000000
     18         -6.327811   1.000000
     19         -5.828870   1.000000
     20         -5.788302   1.000000
     21         -2.614452   1.000000
     22         -2.572726   1.000000
     23         -1.957686   1.000000
     24         -1.939754   1.000000
     25         -0.205172   0.000000
     26         -0.179697   0.000000
     27          0.117716   0.000000
     28          0.359127   0.000000
     29          5.600304   0.000000
     30          6.956970   0.000000
 
 -0.8333333E-01 -0.2500000E+00  0.3333333E+00  0.1234568E-01
      1        -28.255630   1.000000
      2        -27.466509   1.000000
      3        -27.461879   1.000000
      4        -26.737779   1.000000
      5        -16.256081   1.000000
      6        -15.213043   1.000000
      7        -15.161288   1.000000
      8        -14.213643   1.000000
      9         -9.972220   1.000000
     10         -9.624403   1.000000
     11         -9.037759   1.000000
     12         -8.962674   1.000000
     13         -8.570545   1.000000
     14         -8.020010   1.000000
     15         -7.955408   1.000000
     16         -7.616840   1.000000
     17         -6.346785   1.000000
     18         -6.281108   1.000000
     19         -5.806609   1.000000
     20         -5.772701   1.000000
     21         -2.704401   1.000000
     22         -2.609947   1.000000
     23         -2.036784   1.000000
     24         -1.926083   1.000000
     25         -0.215621   0.000000
     26         -0.062290   0.000000
     27          0.204973   0.000000
     28          0.396186   0.000000
     29          5.502388   0.000000
     30          7.048221   0.000000
 
 -0.8333333E-01 -0.8333333E-01  0.3333333E+00  0.6172840E-02
      1        -28.257731   1.000000
      2        -27.465046   1.000000
      3        -27.460338   1.000000
      4        -26.738052   1.000000
      5        -16.281288   1.000000
      6        -15.183062   1.000000
      7        -15.173938   1.000000
      8        -14.191839   1.000000
      9         -9.991088   1.000000
     10         -9.647577   1.000000
     11         -9.069400   1.000000
     12         -8.953222   1.000000
     13         -8.540964   1.000000
     14         -8.004507   1.000000
     15         -7.960783   1.000000
     16         -7.650243   1.000000
     17         -6.274478   1.000000
     18         -6.268356   1.000000
     19         -5.783623   1.000000
     20         -5.782892   1.000000
     21         -2.744050   1.000000
     22         -2.721717   1.000000
     23         -2.005617   1.000000
     24         -1.994677   1.000000
     25         -0.070587   0.000000
     26         -0.058027   0.000000
     27          0.260177   0.000000
     28          0.422383   0.000000
     29          5.361023   0.000000
     30          7.374313   0.000000
 
  0.8333333E-01  0.8333333E-01  0.4444444E+00  0.6172840E-02
      1        -28.248165   1.000000
      2        -27.463611   1.000000
      3        -27.459422   1.000000
      4        -26.741422   1.000000
      5        -16.394098   1.000000
      6        -15.215493   1.000000
      7        -15.196923   1.000000
      8        -14.165966   1.000000
      9         -9.943962   1.000000
     10         -9.583457   1.000000
     11         -9.088959   1.000000
     12         -8.938950   1.000000
     13         -8.255337   1.000000
     14         -7.941005   1.000000
     15         -7.897380   1.000000
     16         -7.726166   1.000000
     17         -6.287930   1.000000
     18         -6.281426   1.000000
     19         -5.814429   1.000000
     20         -5.790109   1.000000
     21         -2.860164   1.000000
     22         -2.843328   1.000000
     23         -2.077802   1.000000
     24         -2.010175   1.000000
     25          0.005677   0.000000
     26          0.016514   0.000000
     27          0.351405   0.000000
     28          0.484850   0.000000
     29          5.304939   0.000000
     30          6.445322   0.000000
 
  0.2500000E+00  0.8333333E-01  0.4444444E+00  0.1234568E-01
      1        -28.245409   1.000000
      2        -27.465620   1.000000
      3        -27.460676   1.000000
      4        -26.741687   1.000000
      5        -16.375691   1.000000
      6        -15.234238   1.000000
      7        -15.191916   1.000000
      8        -14.181750   1.000000
      9         -9.925557   1.000000
     10         -9.558384   1.000000
     11         -9.062437   1.000000
     12         -8.948264   1.000000
     13         -8.263139   1.000000
     14         -7.956393   1.000000
     15         -7.909114   1.000000
     16         -7.686995   1.000000
     17         -6.364965   1.000000
     18         -6.293510   1.000000
     19         -5.832884   1.000000
     20         -5.789491   1.000000
     21         -2.831129   1.000000
     22         -2.759476   1.000000
     23         -2.091570   1.000000
     24         -1.971566   1.000000
     25         -0.111745   0.000000
     26          0.013845   0.000000
     27          0.314430   0.000000
     28          0.464249   0.000000
     29          5.378840   0.000000
     30          6.647937   0.000000
 
  0.4166667E+00  0.8333333E-01  0.4444444E+00  0.1234568E-01
      1        -28.243034   1.000000
      2        -27.468482   1.000000
      3        -27.461901   1.000000
      4        -26.740371   1.000000
      5        -16.346858   1.000000
      6        -15.272665   1.000000
      7        -15.175901   1.000000
      8        -14.204301   1.000000
      9         -9.902185   1.000000
     10         -9.538007   1.000000
     11         -9.030358   1.000000
     12         -8.959693   1.000000
     13         -8.284858   1.000000
     14         -8.005654   1.000000
     15         -7.892304   1.000000
     16         -7.636281   1.000000
     17         -6.448257   1.000000
     18         -6.307870   1.000000
     19         -5.851782   1.000000
     20         -5.772249   1.000000
     21         -2.793110   1.000000
     22         -2.616450   1.000000
     23         -2.136074   1.000000
     24         -1.901900   1.000000
     25         -0.293581   0.000000
     26          0.013221   0.000000
     27          0.257181   0.000000
     28          0.446776   0.000000
     29          5.512387   0.000000
     30          6.626683   0.000000
 
 -0.4166667E+00  0.8333333E-01  0.4444444E+00  0.1234568E-01
      1        -28.243372   1.000000
      2        -27.468750   1.000000
      3        -27.462532   1.000000
      4        -26.738771   1.000000
      5        -16.336998   1.000000
      6        -15.285894   1.000000
      7        -15.170848   1.000000
      8        -14.210703   1.000000
      9         -9.895166   1.000000
     10         -9.547725   1.000000
     11         -9.022266   1.000000
     12         -8.963207   1.000000
     13         -8.300374   1.000000
     14         -8.029274   1.000000
     15         -7.879426   1.000000
     16         -7.618271   1.000000
     17         -6.450319   1.000000
     18         -6.312411   1.000000
     19         -5.844648   1.000000
     20         -5.761888   1.000000
     21         -2.777303   1.000000
     22         -2.574281   1.000000
     23         -2.157042   1.000000
     24         -1.883303   1.000000
     25         -0.343831   0.000000
     26          0.010562   0.000000
     27          0.245732   0.000000
     28          0.443925   0.000000
     29          5.551052   0.000000
     30          6.527981   0.000000
 
 -0.2500000E+00  0.8333333E-01  0.4444444E+00  0.1234568E-01
      1        -28.246069   1.000000
      2        -27.466950   1.000000
      3        -27.461088   1.000000
      4        -26.738575   1.000000
      5        -16.357104   1.000000
      6        -15.259152   1.000000
      7        -15.182689   1.000000
      8        -14.194253   1.000000
      9         -9.911402   1.000000
     10         -9.578751   1.000000
     11         -9.048221   1.000000
     12         -8.953278   1.000000
     13         -8.294648   1.000000
     14         -8.010306   1.000000
     15         -7.886964   1.000000
     16         -7.639637   1.000000
     17         -6.368768   1.000000
     18         -6.302930   1.000000
     19         -5.822181   1.000000
     20         -5.764617   1.000000
     21         -2.802242   1.000000
     22         -2.687887   1.000000
     23         -2.126521   1.000000
     24         -1.938898   1.000000
     25         -0.203105   0.000000
     26          0.008341   0.000000
     27          0.301393   0.000000
     28          0.451800   0.000000
     29          5.420309   0.000000
     30          6.680052   0.000000
 
 -0.8333333E-01  0.8333333E-01  0.4444444E+00  0.1234568E-01
      1        -28.248420   1.000000
      2        -27.464828   1.000000
      3        -27.459082   1.000000
      4        -26.739887   1.000000
      5        -16.385290   1.000000
      6        -15.223441   1.000000
      7        -15.196420   1.000000
      8        -14.172046   1.000000
      9         -9.936954   1.000000
     10         -9.593990   1.000000
     11         -9.082186   1.000000
     12         -8.940986   1.000000
     13         -8.271659   1.000000
     14         -7.959391   1.000000
     15         -7.906163   1.000000
     16         -7.690300   1.000000
     17         -6.293685   1.000000
     18         -6.282284   1.000000
     19         -5.812112   1.000000
     20         -5.774281   1.000000
     21         -2.838854   1.000000
     22         -2.819943   1.000000
     23         -2.087486   1.000000
     24         -2.001017   1.000000
     25         -0.031582   0.000000
     26          0.008165   0.000000
     27          0.351392   0.000000
     28          0.473973   0.000000
     29          5.313154   0.000000
     30          6.538197   0.000000
 
  0.2500000E+00  0.2500000E+00  0.4444444E+00  0.6172840E-02
      1        -28.243948   1.000000
      2        -27.463578   1.000000
      3        -27.463562   1.000000
      4        -26.743501   1.000000
      5        -16.359749   1.000000
      6        -15.224345   1.000000
      7        -15.209018   1.000000
      8        -14.202111   1.000000
      9         -9.917712   1.000000
     10         -9.532441   1.000000
     11         -9.038483   1.000000
     12         -8.948112   1.000000
     13         -8.290145   1.000000
     14         -7.947578   1.000000
     15         -7.891139   1.000000
     16         -7.674904   1.000000
     17         -6.379350   1.000000
     18         -6.347482   1.000000
     19         -5.840480   1.000000
     20         -5.823994   1.000000
     21         -2.762552   1.000000
     22         -2.738045   1.000000
     23         -2.050309   1.000000
     24         -1.961402   1.000000
     25         -0.108799   0.000000
     26         -0.072891   0.000000
     27          0.248106   0.000000
     28          0.436843   0.000000
     29          5.372450   0.000000
     30          6.852766   0.000000
 
  0.4166667E+00  0.2500000E+00  0.4444444E+00  0.1234568E-01
      1        -28.241943   1.000000
      2        -27.465966   1.000000
      3        -27.463945   1.000000
      4        -26.742893   1.000000
      5        -16.332021   1.000000
      6        -15.255419   1.000000
      7        -15.196792   1.000000
      8        -14.226922   1.000000
      9         -9.897839   1.000000
     10         -9.513301   1.000000
     11         -9.006294   1.000000
     12         -8.955733   1.000000
     13         -8.320489   1.000000
     14         -7.970034   1.000000
     15         -7.884581   1.000000
     16         -7.629192   1.000000
     17         -6.443705   1.000000
     18         -6.372096   1.000000
     19         -5.859227   1.000000
     20         -5.816792   1.000000
     21         -2.720700   1.000000
     22         -2.613482   1.000000
     23         -2.067121   1.000000
     24         -1.902885   1.000000
     25         -0.265664   0.000000
     26         -0.081614   0.000000
     27          0.186927   0.000000
     28          0.407040   0.000000
     29          5.482086   0.000000
     30          6.891653   0.000000
 
 -0.4166667E+00  0.2500000E+00  0.4444444E+00  0.1234568E-01
      1        -28.241792   1.000000
      2        -27.466988   1.000000
      3        -27.465253   1.000000
      4        -26.740551   1.000000
      5        -16.320771   1.000000
      6        -15.270984   1.000000
      7        -15.193333   1.000000
      8        -14.230776   1.000000
      9         -9.883432   1.000000
     10         -9.525108   1.000000
     11         -8.996277   1.000000
     12         -8.964193   1.000000
     13         -8.329723   1.000000
     14         -7.995693   1.000000
     15         -7.888170   1.000000
     16         -7.603787   1.000000
     17         -6.448483   1.000000
     18         -6.387309   1.000000
     19         -5.839814   1.000000
     20         -5.803538   1.000000
     21         -2.697207   1.000000
     22         -2.565554   1.000000
     23         -2.101330   1.000000
     24         -1.884947   1.000000
     25         -0.330049   0.000000
     26         -0.095302   0.000000
     27          0.204563   0.000000
     28          0.399077   0.000000
     29          5.604046   0.000000
     30          6.630675   0.000000
 
 -0.2500000E+00  0.2500000E+00  0.4444444E+00  0.1234568E-01
      1        -28.243373   1.000000
      2        -27.468735   1.000000
      3        -27.462630   1.000000
      4        -26.738726   1.000000
      5        -16.338351   1.000000
      6        -15.250186   1.000000
      7        -15.206235   1.000000
      8        -14.209474   1.000000
      9         -9.888722   1.000000
     10         -9.556694   1.000000
     11         -9.020707   1.000000
     12         -8.963182   1.000000
     13         -8.308748   1.000000
     14         -7.994874   1.000000
     15         -7.912777   1.000000
     16         -7.612850   1.000000
     17         -6.399197   1.000000
     18         -6.363826   1.000000
     19         -5.826079   1.000000
     20         -5.775987   1.000000
     21         -2.712977   1.000000
     22         -2.658694   1.000000
     23         -2.109882   1.000000
     24         -1.934208   1.000000
     25         -0.220269   0.000000
     26         -0.099197   0.000000
     27          0.286206   0.000000
     28          0.412696   0.000000
     29          5.588551   0.000000
     30          6.544729   0.000000
 
 -0.8333333E-01  0.2500000E+00  0.4444444E+00  0.1234568E-01
      1        -28.245203   1.000000
      2        -27.468192   1.000000
      3        -27.460234   1.000000
      4        -26.739333   1.000000
      5        -16.365606   1.000000
      6        -15.235149   1.000000
      7        -15.202275   1.000000
      8        -14.185343   1.000000
      9         -9.911179   1.000000
     10         -9.570700   1.000000
     11         -9.053841   1.000000
     12         -8.955554   1.000000
     13         -8.272826   1.000000
     14         -7.963275   1.000000
     15         -7.942523   1.000000
     16         -7.649490   1.000000
     17         -6.379138   1.000000
     18         -6.295501   1.000000
     19         -5.829417   1.000000
     20         -5.763335   1.000000
     21         -2.793751   1.000000
     22         -2.738234   1.000000
     23         -2.107863   1.000000
     24         -1.970975   1.000000
     25         -0.132317   0.000000
     26         -0.027762   0.000000
     27          0.334928   0.000000
     28          0.448511   0.000000
     29          5.475851   0.000000
     30          6.597518   0.000000
 
  0.4166667E+00  0.4166667E+00  0.4444444E+00  0.6172840E-02
      1        -28.241281   1.000000
      2        -27.467317   1.000000
      3        -27.462974   1.000000
      4        -26.743862   1.000000
      5        -16.306890   1.000000
      6        -15.237087   1.000000
      7        -15.227103   1.000000
      8        -14.256469   1.000000
      9         -9.888014   1.000000
     10         -9.493762   1.000000
     11         -8.975655   1.000000
     12         -8.953993   1.000000
     13         -8.365967   1.000000
     14         -7.951319   1.000000
     15         -7.883801   1.000000
     16         -7.598056   1.000000
     17         -6.470171   1.000000
     18         -6.409330   1.000000
     19         -5.889775   1.000000
     20         -5.825802   1.000000
     21         -2.619673   1.000000
     22         -2.574171   1.000000
     23         -2.010520   1.000000
     24         -1.889037   1.000000
     25         -0.255235   0.000000
     26         -0.208140   0.000000
     27          0.088800   0.000000
     28          0.365883   0.000000
     29          5.541239   0.000000
     30          6.884031   0.000000
 
 -0.4166667E+00  0.4166667E+00  0.4444444E+00  0.1234568E-01
      1        -28.241585   1.000000
      2        -27.467362   1.000000
      3        -27.463866   1.000000
      4        -26.742234   1.000000
      5        -16.296879   1.000000
      6        -15.247419   1.000000
      7        -15.225422   1.000000
      8        -14.262597   1.000000
      9         -9.880331   1.000000
     10         -9.504331   1.000000
     11         -8.968402   1.000000
     12         -8.955034   1.000000
     13         -8.383560   1.000000
     14         -7.954955   1.000000
     15         -7.892101   1.000000
     16         -7.578355   1.000000
     17         -6.466407   1.000000
     18         -6.423947   1.000000
     19         -5.869570   1.000000
     20         -5.824072   1.000000
     21         -2.590089   1.000000
     22         -2.547117   1.000000
     23         -2.022715   1.000000
     24         -1.876945   1.000000
     25         -0.290373   0.000000
     26         -0.237412   0.000000
     27          0.097573   0.000000
     28          0.353769   0.000000
     29          5.614537   0.000000
     30          6.757690   0.000000
 
 -0.2500000E+00  0.4166667E+00  0.4444444E+00  0.1234568E-01
      1        -28.242675   1.000000
      2        -27.468606   1.000000
      3        -27.463090   1.000000
      4        -26.739681   1.000000
      5        -16.313047   1.000000
      6        -15.249737   1.000000
      7        -15.219207   1.000000
      8        -14.238731   1.000000
      9         -9.882307   1.000000
     10         -9.534620   1.000000
     11         -8.993633   1.000000
     12         -8.956906   1.000000
     13         -8.360049   1.000000
     14         -7.948482   1.000000
     15         -7.929508   1.000000
     16         -7.585119   1.000000
     17         -6.456092   1.000000
     18         -6.376371   1.000000
     19         -5.839332   1.000000
     20         -5.797374   1.000000
     21         -2.644746   1.000000
     22         -2.584431   1.000000
     23         -2.072613   1.000000
     24         -1.902149   1.000000
     25         -0.284423   0.000000
     26         -0.170889   0.000000
     27          0.200971   0.000000
     28          0.377472   0.000000
     29          5.620281   0.000000
     30          6.605167   0.000000
 
 -0.8333333E-01  0.4166667E+00  0.4444444E+00  0.1234568E-01
      1        -28.243442   1.000000
      2        -27.470064   1.000000
      3        -27.461318   1.000000
      4        -26.738822   1.000000
      5        -16.337820   1.000000
      6        -15.269150   1.000000
      7        -15.187602   1.000000
      8        -14.210000   1.000000
      9         -9.894442   1.000000
     10         -9.548665   1.000000
     11         -9.024181   1.000000
     12         -8.960438   1.000000
     13         -8.309143   1.000000
     14         -7.987182   1.000000
     15         -7.919987   1.000000
     16         -7.611816   1.000000
     17         -6.456304   1.000000
     18         -6.306169   1.000000
     19         -5.846826   1.000000
     20         -5.759262   1.000000
     21         -2.759533   1.000000
     22         -2.600655   1.000000
     23         -2.134822   1.000000
     24         -1.907423   1.000000
     25         -0.300694   0.000000
     26         -0.027273   0.000000
     27          0.264005   0.000000
     28          0.430250   0.000000
     29          5.580635   0.000000
     30          6.515392   0.000000
 
 -0.4166667E+00 -0.4166667E+00  0.4444444E+00  0.6172840E-02
      1        -28.242943   1.000000
      2        -27.466897   1.000000
      3        -27.462554   1.000000
      4        -26.742274   1.000000
      5        -16.289626   1.000000
      6        -15.240944   1.000000
      7        -15.232624   1.000000
      8        -14.274027   1.000000
      9         -9.886551   1.000000
     10         -9.511778   1.000000
     11         -8.963472   1.000000
     12         -8.946614   1.000000
     13         -8.410517   1.000000
     14         -7.950603   1.000000
     15         -7.882153   1.000000
     16         -7.567592   1.000000
     17         -6.468054   1.000000
     18         -6.404626   1.000000
     19         -5.886769   1.000000
     20         -5.816602   1.000000
     21         -2.582228   1.000000
     22         -2.527383   1.000000
     23         -1.995561   1.000000
     24         -1.874823   1.000000
     25         -0.280856   0.000000
     26         -0.246596   0.000000
     27          0.042410   0.000000
     28          0.344020   0.000000
     29          5.556487   0.000000
     30          6.782635   0.000000
 
 -0.2500000E+00 -0.4166667E+00  0.4444444E+00  0.1234568E-01
      1        -28.244628   1.000000
      2        -27.466163   1.000000
      3        -27.462542   1.000000
      4        -26.740495   1.000000
      5        -16.307201   1.000000
      6        -15.254199   1.000000
      7        -15.211923   1.000000
      8        -14.252639   1.000000
      9         -9.895976   1.000000
     10         -9.540131   1.000000
     11         -8.989808   1.000000
     12         -8.944243   1.000000
     13         -8.392448   1.000000
     14         -7.953701   1.000000
     15         -7.893444   1.000000
     16         -7.580303   1.000000
     17         -6.442264   1.000000
     18         -6.363586   1.000000
     19         -5.853353   1.000000
     20         -5.803995   1.000000
     21         -2.653063   1.000000
     22         -2.563596   1.000000
     23         -2.037455   1.000000
     24         -1.891775   1.000000
     25         -0.291034   0.000000
     26         -0.153294   0.000000
     27          0.131639   0.000000
     28          0.371629   0.000000
     29          5.472196   0.000000
     30          6.857002   0.000000
 
 -0.8333333E-01 -0.4166667E+00  0.4444444E+00  0.1234568E-01
      1        -28.244844   1.000000
      2        -27.468137   1.000000
      3        -27.461532   1.000000
      4        -26.738834   1.000000
      5        -16.330547   1.000000
      6        -15.277949   1.000000
      7        -15.179854   1.000000
      8        -14.221314   1.000000
      9         -9.901505   1.000000
     10         -9.555359   1.000000
     11         -9.019452   1.000000
     12         -8.952911   1.000000
     13         -8.339838   1.000000
     14         -7.993441   1.000000
     15         -7.889592   1.000000
     16         -7.605185   1.000000
     17         -6.445254   1.000000
     18         -6.304542   1.000000
     19         -5.843782   1.000000
     20         -5.767674   1.000000
     21         -2.756192   1.000000
     22         -2.575779   1.000000
     23         -2.125949   1.000000
     24         -1.886795   1.000000
     25         -0.328333   0.000000
     26         -0.018426   0.000000
     27          0.222518   0.000000
     28          0.424968   0.000000
     29          5.473188   0.000000
     30          6.658515   0.000000
 
 -0.2500000E+00 -0.2500000E+00  0.4444444E+00  0.6172840E-02
      1        -28.247286   1.000000
      2        -27.462775   1.000000
      3        -27.462735   1.000000
      4        -26.740367   1.000000
      5        -16.327336   1.000000
      6        -15.232167   1.000000
      7        -15.218896   1.000000
      8        -14.236424   1.000000
      9         -9.915910   1.000000
     10         -9.567889   1.000000
     11         -9.017481   1.000000
     12         -8.933668   1.000000
     13         -8.382866   1.000000
     14         -7.948952   1.000000
     15         -7.887042   1.000000
     16         -7.602869   1.000000
     17         -6.373787   1.000000
     18         -6.339582   1.000000
     19         -5.835462   1.000000
     20         -5.804402   1.000000
     21         -2.692552   1.000000
     22         -2.658881   1.000000
     23         -2.017577   1.000000
     24         -1.940670   1.000000
     25         -0.162601   0.000000
     26         -0.140252   0.000000
     27          0.169039   0.000000
     28          0.394541   0.000000
     29          5.311944   0.000000
     30          7.075033   0.000000
 
 -0.8333333E-01 -0.2500000E+00  0.4444444E+00  0.1234568E-01
      1        -28.248067   1.000000
      2        -27.464473   1.000000
      3        -27.460658   1.000000
      4        -26.739325   1.000000
      5        -16.351950   1.000000
      6        -15.248944   1.000000
      7        -15.190357   1.000000
      8        -14.207225   1.000000
      9         -9.924831   1.000000
     10         -9.584500   1.000000
     11         -9.047368   1.000000
     12         -8.937872   1.000000
     13         -8.338093   1.000000
     14         -7.970265   1.000000
     15         -7.884773   1.000000
     16         -7.634172   1.000000
     17         -6.357028   1.000000
     18         -6.291652   1.000000
     19         -5.819771   1.000000
     20         -5.784034   1.000000
     21         -2.787964   1.000000
     22         -2.693561   1.000000
     23         -2.082060   1.000000
     24         -1.942963   1.000000
     25         -0.177745   0.000000
     26         -0.011832   0.000000
     27          0.256159   0.000000
     28          0.436363   0.000000
     29          5.288368   0.000000
     30          6.951683   0.000000
 
 -0.8333333E-01 -0.8333333E-01  0.4444444E+00  0.6172840E-02
      1        -28.249889   1.000000
      2        -27.463188   1.000000
      3        -27.459052   1.000000
      4        -26.739805   1.000000
      5        -16.378861   1.000000
      6        -15.219402   1.000000
      7        -15.201473   1.000000
      8        -14.182700   1.000000
      9         -9.943578   1.000000
     10         -9.601103   1.000000
     11         -9.079529   1.000000
     12         -8.931658   1.000000
     13         -8.306287   1.000000
     14         -7.944962   1.000000
     15         -7.894943   1.000000
     16         -7.680569   1.000000
     17         -6.284334   1.000000
     18         -6.278331   1.000000
     19         -5.803870   1.000000
     20         -5.788193   1.000000
     21         -2.827445   1.000000
     22         -2.808541   1.000000
     23         -2.061295   1.000000
     24         -2.002384   1.000000
     25         -0.021660   0.000000
     26         -0.013402   0.000000
     27          0.316449   0.000000
     28          0.464341   0.000000
     29          5.222003   0.000000
     30          6.693096   0.000000
