Generated by VASPKIT code               
   1.00000000000000     
     4.5355651790795735   -3.4957394225733731    0.0000000000000000
     4.5355651790795735    3.4957394225733731    0.0000000000000000
    -1.9084277709685333    0.0000000000000000    3.7236786701613385
   O 
     8
Direct
  0.7539950191299118  0.1878170335510088  0.8354638875025092
  0.8121829664489911  0.2460049808700884  0.1645361124974912
  0.2460049808700884  0.8121829664489911  0.1645361124974912
  0.1878170335510088  0.7539950191299118  0.8354638875025092
  0.7976944889491380  0.7976944889491380  0.7993654379140609
  0.2023055110508618  0.2023055110508618  0.2006345620859391
  0.8554493548859583  0.8554493548859583  0.1282521264026126
  0.1445506451140414  0.1445506451140414  0.8717478735973875
 
  0.00000000E+00  0.00000000E+00  0.00000000E+00
  0.00000000E+00  0.00000000E+00  0.00000000E+00
  0.00000000E+00  0.00000000E+00  0.00000000E+00
  0.00000000E+00  0.00000000E+00  0.00000000E+00
  0.00000000E+00  0.00000000E+00  0.00000000E+00
  0.00000000E+00  0.00000000E+00  0.00000000E+00
  0.00000000E+00  0.00000000E+00  0.00000000E+00
  0.00000000E+00  0.00000000E+00  0.00000000E+00
