ni3al                                   
           1
     4.535565   -3.495739    0.000000
     4.535565    3.495739    0.000000
    -1.908428    0.000000    3.723679
   O 
     8
Direct configuration=     1
   0.75399502  0.18781703  0.83546389
   0.81218297  0.24600498  0.16453611
   0.24600498  0.81218297  0.16453611
   0.18781703  0.75399502  0.83546389
   0.79769449  0.79769449  0.79936544
   0.20230551  0.20230551  0.20063456
   0.85544935  0.85544935  0.12825213
   0.14455065  0.14455065  0.87174787
ni3al                                   
           1
     4.544282   -3.499407    0.000000
     4.544282    3.499407    0.000000
    -1.912096    0.000000    3.723679
   O 
     8
Direct configuration=     2
   0.75385705  0.18829819  0.83449412
   0.81170181  0.24614295  0.16550588
   0.24614295  0.81170181  0.16550588
   0.18829819  0.75385705  0.83449412
   0.79747375  0.79747375  0.79806324
   0.20252625  0.20252625  0.20193676
   0.85521740  0.85521740  0.12966634
   0.14478260  0.14478260  0.87033366
ni3al                                   
           1
     4.544596   -3.499363    0.000000
     4.544596    3.499363    0.000000
    -1.912228    0.000000    3.723679
   O 
     8
Direct configuration=     3
   0.75404375  0.18851844  0.83559375
   0.81148156  0.24595625  0.16440625
   0.24595625  0.81148156  0.16440625
   0.18851844  0.75404375  0.83559375
   0.79769259  0.79769259  0.79936076
   0.20230741  0.20230741  0.20063924
   0.85495216  0.85495216  0.12823332
   0.14504784  0.14504784  0.87176668
ni3al                                   
           1
     4.546445   -3.498630    0.000000
     4.546445    3.498630    0.000000
    -1.913006    0.000000    3.723679
   O 
     8
Direct configuration=     4
   0.75396482  0.18861142  0.83520643
   0.81138858  0.24603518  0.16479357
   0.24603518  0.81138858  0.16479357
   0.18861142  0.75396482  0.83520643
   0.79759827  0.79759827  0.79895097
   0.20240173  0.20240173  0.20104903
   0.85480621  0.85480621  0.12782937
   0.14519379  0.14519379  0.87217063
ni3al                                   
           1
     4.546670   -3.498359    0.000000
     4.546670    3.498359    0.000000
    -1.913100    0.000000    3.723679
   O 
     8
Direct configuration=     5
   0.75400508  0.18867625  0.83541569
   0.81132375  0.24599492  0.16458431
   0.24599492  0.81132375  0.16458431
   0.18867625  0.75400508  0.83541569
   0.79755836  0.79755836  0.79869475
   0.20244164  0.20244164  0.20130525
   0.85480602  0.85480602  0.12791215
   0.14519398  0.14519398  0.87208785
ni3al                                   
           1
     4.547337   -3.497083    0.000000
     4.547337    3.497083    0.000000
    -1.913381    0.000000    3.723679
   O 
     8
Direct configuration=     6
   0.75402918  0.18878537  0.83542837
   0.81121463  0.24597082  0.16457163
   0.24597082  0.81121463  0.16457163
   0.18878537  0.75402918  0.83542837
   0.79753429  0.79753429  0.79838027
   0.20246571  0.20246571  0.20161973
   0.85468540  0.85468540  0.12754544
   0.14531460  0.14531460  0.87245456
ni3al                                   
           1
     4.554561   -3.485571    0.000000
     4.554561    3.485571    0.000000
    -1.916421    0.000000    3.723679
   O 
     8
Direct configuration=     7
   0.75420254  0.18984884  0.83555735
   0.81015116  0.24579746  0.16444265
   0.24579746  0.81015116  0.16444265
   0.18984884  0.75420254  0.83555735
   0.79734720  0.79734720  0.79519575
   0.20265280  0.20265280  0.20480425
   0.85350741  0.85350741  0.12411629
   0.14649259  0.14649259  0.87588371
ni3al                                   
           1
     4.550946   -3.490036    0.000000
     4.550946    3.490036    0.000000
    -1.914899    0.000000    3.723679
   O 
     8
Direct configuration=     8
   0.75412055  0.18938688  0.83545965
   0.81061312  0.24587945  0.16454035
   0.24587945  0.81061312  0.16454035
   0.18938688  0.75412055  0.83545965
   0.79744639  0.79744639  0.79641972
   0.20255361  0.20255361  0.20358028
   0.85401229  0.85401229  0.12557533
   0.14598771  0.14598771  0.87442467
ni3al                                   
           1
     4.552943   -3.485529    0.000000
     4.552943    3.485529    0.000000
    -1.915740    0.000000    3.723679
   O 
     8
Direct configuration=     9
   0.75420308  0.18978740  0.83564393
   0.81021260  0.24579692  0.16435607
   0.24579692  0.81021260  0.16435607
   0.18978740  0.75420308  0.83564393
   0.79742597  0.79742597  0.79529482
   0.20257403  0.20257403  0.20470518
   0.85357197  0.85357197  0.12421373
   0.14642803  0.14642803  0.87578627
ni3al                                   
           1
     4.552441   -3.486328    0.000000
     4.552441    3.486328    0.000000
    -1.915529    0.000000    3.723679
   O 
     8
Direct configuration=    10
   0.75416189  0.18970344  0.83549878
   0.81029656  0.24583811  0.16450122
   0.24583811  0.81029656  0.16450122
   0.18970344  0.75416189  0.83549878
   0.79745502  0.79745502  0.79551178
   0.20254498  0.20254498  0.20448822
   0.85363764  0.85363764  0.12439039
   0.14636236  0.14636236  0.87560961
ni3al                                   
           1
     4.552142   -3.486588    0.000000
     4.552142    3.486588    0.000000
    -1.915403    0.000000    3.723679
   O 
     8
Direct configuration=    11
   0.75415719  0.18969957  0.83553500
   0.81030043  0.24584281  0.16446500
   0.24584281  0.81030043  0.16446500
   0.18969957  0.75415719  0.83553500
   0.79746774  0.79746774  0.79549745
   0.20253226  0.20253226  0.20450255
   0.85366441  0.85366441  0.12449192
   0.14633559  0.14633559  0.87550808
ni3al                                   
           1
     4.553206   -3.482446    0.000000
     4.553206    3.482446    0.000000
    -1.915850    0.000000    3.723679
   O 
     8
Direct configuration=    12
   0.75417269  0.19019804  0.83560585
   0.80980196  0.24582731  0.16439415
   0.24582731  0.80980196  0.16439415
   0.19019804  0.75417269  0.83560585
   0.79751222  0.79751222  0.79399413
   0.20248778  0.20248778  0.20600587
   0.85313902  0.85313902  0.12285642
   0.14686098  0.14686098  0.87714358
ni3al                                   
           1
     4.553222   -3.482882    0.000000
     4.553222    3.482882    0.000000
    -1.915857    0.000000    3.723679
   O 
     8
Direct configuration=    13
   0.75417456  0.19014674  0.83559236
   0.80985326  0.24582544  0.16440764
   0.24582544  0.80985326  0.16440764
   0.19014674  0.75417456  0.83559236
   0.79751662  0.79751662  0.79419085
   0.20248338  0.20248338  0.20580915
   0.85320150  0.85320150  0.12301681
   0.14679850  0.14679850  0.87698319
ni3al                                   
           1
     4.553510   -3.481742    0.000000
     4.553510    3.481742    0.000000
    -1.915979    0.000000    3.723679
   O 
     8
Direct configuration=    14
   0.75417765  0.19028737  0.83560343
   0.80971263  0.24582235  0.16439657
   0.24582235  0.80971263  0.16439657
   0.19028737  0.75417765  0.83560343
   0.79753732  0.79753732  0.79378289
   0.20246268  0.20246268  0.20621711
   0.85305915  0.85305915  0.12255260
   0.14694085  0.14694085  0.87744740
ni3al                                   
           1
     4.553809   -3.481394    0.000000
     4.553809    3.481394    0.000000
    -1.916104    0.000000    3.723679
   O 
     8
Direct configuration=    15
   0.75418105  0.19034750  0.83562212
   0.80965250  0.24581895  0.16437788
   0.24581895  0.80965250  0.16437788
   0.19034750  0.75418105  0.83562212
   0.79754089  0.79754089  0.79359499
   0.20245911  0.20245911  0.20640501
   0.85300116  0.85300116  0.12236485
   0.14699884  0.14699884  0.87763515
ni3al                                   
           1
     4.554294   -3.480259    0.000000
     4.554294    3.480259    0.000000
    -1.916308    0.000000    3.723679
   O 
     8
Direct configuration=    16
   0.75417632  0.19047492  0.83558153
   0.80952508  0.24582368  0.16441847
   0.24582368  0.80952508  0.16441847
   0.19047492  0.75417632  0.83558153
   0.79754823  0.79754823  0.79306077
   0.20245177  0.20245177  0.20693923
   0.85289145  0.85289145  0.12200244
   0.14710855  0.14710855  0.87799756
ni3al                                   
           1
     4.554438   -3.479965    0.000000
     4.554438    3.479965    0.000000
    -1.916369    0.000000    3.723679
   O 
     8
Direct configuration=    17
   0.75418526  0.19052158  0.83562874
   0.80947842  0.24581474  0.16437126
   0.24581474  0.80947842  0.16437126
   0.19052158  0.75418526  0.83562874
   0.79757063  0.79757063  0.79303554
   0.20242937  0.20242937  0.20696446
   0.85283833  0.85283833  0.12177630
   0.14716167  0.14716167  0.87822370
ni3al                                   
           1
     4.554840   -3.479275    0.000000
     4.554840    3.479275    0.000000
    -1.916538    0.000000    3.723679
   O 
     8
Direct configuration=    18
   0.75420779  0.19063397  0.83571766
   0.80936603  0.24579221  0.16428234
   0.24579221  0.80936603  0.16428234
   0.19063397  0.75420779  0.83571766
   0.79758104  0.79758104  0.79271833
   0.20241896  0.20241896  0.20728167
   0.85276345  0.85276345  0.12152735
   0.14723655  0.14723655  0.87847265
ni3al                                   
           1
     4.554948   -3.479165    0.000000
     4.554948    3.479165    0.000000
    -1.916584    0.000000    3.723679
   O 
     8
Direct configuration=    19
   0.75419762  0.19064143  0.83565203
   0.80935857  0.24580238  0.16434797
   0.24580238  0.80935857  0.16434797
   0.19064143  0.75419762  0.83565203
   0.79758992  0.79758992  0.79269998
   0.20241008  0.20241008  0.20730002
   0.85274185  0.85274185  0.12143371
   0.14725815  0.14725815  0.87856629
ni3al                                   
           1
     4.555418   -3.478526    0.000000
     4.555418    3.478526    0.000000
    -1.916781    0.000000    3.723679
   O 
     8
Direct configuration=    20
   0.75420809  0.19073762  0.83568122
   0.80926238  0.24579191  0.16431878
   0.24579191  0.80926238  0.16431878
   0.19073762  0.75420809  0.83568122
   0.79761006  0.79761006  0.79246286
   0.20238994  0.20238994  0.20753714
   0.85265935  0.85265935  0.12112016
   0.14734065  0.14734065  0.87887984
ni3al                                   
           1
     4.555520   -3.478416    0.000000
     4.555520    3.478416    0.000000
    -1.916824    0.000000    3.723679
   O 
     8
Direct configuration=    21
   0.75420773  0.19075338  0.83566992
   0.80924662  0.24579227  0.16433008
   0.24579227  0.80924662  0.16433008
   0.19075338  0.75420773  0.83566992
   0.79760815  0.79760815  0.79238064
   0.20239185  0.20239185  0.20761936
   0.85264958  0.85264958  0.12109591
   0.14735042  0.14735042  0.87890409
ni3al                                   
           1
     4.555437   -3.478611    0.000000
     4.555437    3.478611    0.000000
    -1.916789    0.000000    3.723679
   O 
     8
Direct configuration=    22
   0.75420561  0.19073062  0.83566766
   0.80926938  0.24579439  0.16433234
   0.24579439  0.80926938  0.16433234
   0.19073062  0.75420561  0.83566766
   0.79760385  0.79760385  0.79244452
   0.20239615  0.20239615  0.20755548
   0.85266857  0.85266857  0.12116447
   0.14733143  0.14733143  0.87883553
ni3al                                   
           1
     4.556034   -3.478255    0.000000
     4.556034    3.478255    0.000000
    -1.917040    0.000000    3.723679
   O 
     8
Direct configuration=    23
   0.75421656  0.19081610  0.83566830
   0.80918390  0.24578344  0.16433170
   0.24578344  0.80918390  0.16433170
   0.19081610  0.75421656  0.83566830
   0.79762651  0.79762651  0.79222436
   0.20237349  0.20237349  0.20777564
   0.85259515  0.85259515  0.12088030
   0.14740485  0.14740485  0.87911970
ni3al                                   
           1
     4.556434   -3.478233    0.000000
     4.556434    3.478233    0.000000
    -1.917209    0.000000    3.723679
   O 
     8
Direct configuration=    24
   0.75423177  0.19086174  0.83572435
   0.80913826  0.24576823  0.16427565
   0.24576823  0.80913826  0.16427565
   0.19086174  0.75423177  0.83572435
   0.79763287  0.79763287  0.79205694
   0.20236713  0.20236713  0.20794306
   0.85256857  0.85256857  0.12076368
   0.14743143  0.14743143  0.87923632
ni3al                                   
           1
     4.556242   -3.477733    0.000000
     4.556242    3.477733    0.000000
    -1.917128    0.000000    3.723679
   O 
     8
Direct configuration=    25
   0.75422636  0.19087529  0.83569758
   0.80912471  0.24577364  0.16430242
   0.24577364  0.80912471  0.16430242
   0.19087529  0.75422636  0.83569758
   0.79763758  0.79763758  0.79202485
   0.20236242  0.20236242  0.20797515
   0.85254901  0.85254901  0.12069769
   0.14745099  0.14745099  0.87930231
ni3al                                   
           1
     4.556295   -3.477646    0.000000
     4.556295    3.477646    0.000000
    -1.917150    0.000000    3.723679
   O 
     8
Direct configuration=    26
   0.75422823  0.19088586  0.83568814
   0.80911414  0.24577177  0.16431186
   0.24577177  0.80911414  0.16431186
   0.19088586  0.75422823  0.83568814
   0.79763711  0.79763711  0.79193205
   0.20236289  0.20236289  0.20806795
   0.85254216  0.85254216  0.12066647
   0.14745784  0.14745784  0.87933353
ni3al                                   
           1
     4.556263   -3.477637    0.000000
     4.556263    3.477637    0.000000
    -1.917137    0.000000    3.723679
   O 
     8
Direct configuration=    27
   0.75423069  0.19088693  0.83569977
   0.80911307  0.24576931  0.16430023
   0.24576931  0.80911307  0.16430023
   0.19088693  0.75423069  0.83569977
   0.79764108  0.79764108  0.79195535
   0.20235892  0.20235892  0.20804465
   0.85253877  0.85253877  0.12064557
   0.14746123  0.14746123  0.87935443
ni3al                                   
           1
     4.556804   -3.477078    0.000000
     4.556804    3.477078    0.000000
    -1.917365    0.000000    3.723679
   O 
     8
Direct configuration=    28
   0.75423010  0.19096220  0.83566838
   0.80903780  0.24576990  0.16433162
   0.24576990  0.80903780  0.16433162
   0.19096220  0.75423010  0.83566838
   0.79766379  0.79766379  0.79177002
   0.20233621  0.20233621  0.20822998
   0.85246732  0.85246732  0.12037709
   0.14753268  0.14753268  0.87962291
ni3al                                   
           1
     4.557103   -3.476977    0.000000
     4.557103    3.476977    0.000000
    -1.917490    0.000000    3.723679
   O 
     8
Direct configuration=    29
   0.75424403  0.19100355  0.83573345
   0.80899645  0.24575597  0.16426655
   0.24575597  0.80899645  0.16426655
   0.19100355  0.75424403  0.83573345
   0.79766909  0.79766909  0.79165028
   0.20233091  0.20233091  0.20834972
   0.85244214  0.85244214  0.12028325
   0.14755786  0.14755786  0.87971675
ni3al                                   
           1
     4.557395   -3.476385    0.000000
     4.557395    3.476385    0.000000
    -1.917613    0.000000    3.723679
   O 
     8
Direct configuration=    30
   0.75424774  0.19106374  0.83572726
   0.80893626  0.24575226  0.16427274
   0.24575226  0.80893626  0.16427274
   0.19106374  0.75424774  0.83572726
   0.79768004  0.79768004  0.79143487
   0.20231996  0.20231996  0.20856513
   0.85239234  0.85239234  0.12009469
   0.14760766  0.14760766  0.87990531
ni3al                                   
           1
     4.557616   -3.476279    0.000000
     4.557616    3.476279    0.000000
    -1.917706    0.000000    3.723679
   O 
     8
Direct configuration=    31
   0.75425044  0.19108782  0.83572883
   0.80891218  0.24574956  0.16427117
   0.24574956  0.80891218  0.16427117
   0.19108782  0.75425044  0.83572883
   0.79768641  0.79768641  0.79137333
   0.20231359  0.20231359  0.20862667
   0.85237240  0.85237240  0.12001275
   0.14762760  0.14762760  0.87998725
ni3al                                   
           1
     4.555158   -3.478221    0.000000
     4.555158    3.478221    0.000000
    -1.916672    0.000000    3.723679
   O 
     8
Direct configuration=    32
   0.75421340  0.19083265  0.83568876
   0.80916735  0.24578660  0.16431124
   0.24578660  0.80916735  0.16431124
   0.19083265  0.75421340  0.83568876
   0.79762639  0.79762639  0.79212497
   0.20237361  0.20237361  0.20787503
   0.85256322  0.85256322  0.12078191
   0.14743678  0.14743678  0.87921809
ni3al                                   
           1
     4.555139   -3.477975    0.000000
     4.555139    3.477975    0.000000
    -1.916664    0.000000    3.723679
   O 
     8
Direct configuration=    33
   0.75421167  0.19087131  0.83562923
   0.80912869  0.24578833  0.16437077
   0.24578833  0.80912869  0.16437077
   0.19087131  0.75421167  0.83562923
   0.79763551  0.79763551  0.79203275
   0.20236449  0.20236449  0.20796725
   0.85251954  0.85251954  0.12065543
   0.14748046  0.14748046  0.87934457
ni3al                                   
           1
     4.553226   -3.479310    0.000000
     4.553226    3.479310    0.000000
    -1.915859    0.000000    3.723679
   O 
     8
Direct configuration=    34
   0.75419768  0.19071797  0.83566350
   0.80928203  0.24580232  0.16433650
   0.24580232  0.80928203  0.16433650
   0.19071797  0.75419768  0.83566350
   0.79759065  0.79759065  0.79252499
   0.20240935  0.20240935  0.20747501
   0.85263928  0.85263928  0.12117782
   0.14736072  0.14736072  0.87882218
ni3al                                   
           1
     4.554111   -3.478491    0.000000
     4.554111    3.478491    0.000000
    -1.916231    0.000000    3.723679
   O 
     8
Direct configuration=    35
   0.75421777  0.19084268  0.83571721
   0.80915732  0.24578223  0.16428279
   0.24578223  0.80915732  0.16428279
   0.19084268  0.75421777  0.83571721
   0.79758226  0.79758226  0.79203814
   0.20241774  0.20241774  0.20796186
   0.85256933  0.85256933  0.12098314
   0.14743067  0.14743067  0.87901686
ni3al                                   
           1
     4.554160   -3.478441    0.000000
     4.554160    3.478441    0.000000
    -1.916252    0.000000    3.723679
   O 
     8
Direct configuration=    36
   0.75421395  0.19084804  0.83569053
   0.80915196  0.24578605  0.16430947
   0.24578605  0.80915196  0.16430947
   0.19084804  0.75421395  0.83569053
   0.79760495  0.79760495  0.79214268
   0.20239505  0.20239505  0.20785732
   0.85253756  0.85253756  0.12081569
   0.14746244  0.14746244  0.87918431
ni3al                                   
           1
     4.554809   -3.477801    0.000000
     4.554809    3.477801    0.000000
    -1.916525    0.000000    3.723679
   O 
     8
Direct configuration=    37
   0.75421798  0.19093216  0.83566637
   0.80906784  0.24578202  0.16433363
   0.24578202  0.80906784  0.16433363
   0.19093216  0.75421798  0.83566637
   0.79761877  0.79761877  0.79187772
   0.20238123  0.20238123  0.20812228
   0.85246460  0.85246460  0.12053852
   0.14753540  0.14753540  0.87946148
ni3al                                   
           1
     4.554996   -3.477656    0.000000
     4.554996    3.477656    0.000000
    -1.916604    0.000000    3.723679
   O 
     8
Direct configuration=    38
   0.75422874  0.19096316  0.83572325
   0.80903684  0.24577126  0.16427675
   0.24577126  0.80903684  0.16427675
   0.19096316  0.75422874  0.83572325
   0.79762409  0.79762409  0.79181372
   0.20237591  0.20237591  0.20818628
   0.85244460  0.85244460  0.12045698
   0.14755540  0.14755540  0.87954302
ni3al                                   
           1
     4.555684   -3.477164    0.000000
     4.555684    3.477164    0.000000
    -1.916893    0.000000    3.723679
   O 
     8
Direct configuration=    39
   0.75423851  0.19103469  0.83573186
   0.80896531  0.24576149  0.16426814
   0.24576149  0.80896531  0.16426814
   0.19103469  0.75423851  0.83573186
   0.79764099  0.79764099  0.79160416
   0.20235901  0.20235901  0.20839584
   0.85238222  0.85238222  0.12021160
   0.14761778  0.14761778  0.87978840
ni3al                                   
           1
     4.555973   -3.476559    0.000000
     4.555973    3.476559    0.000000
    -1.917015    0.000000    3.723679
   O 
     8
Direct configuration=    40
   0.75424822  0.19110527  0.83574373
   0.80889473  0.24575178  0.16425627
   0.24575178  0.80889473  0.16425627
   0.19110527  0.75424822  0.83574373
   0.79764915  0.79764915  0.79132830
   0.20235085  0.20235085  0.20867170
   0.85233268  0.85233268  0.12001605
   0.14766732  0.14766732  0.87998395
ni3al                                   
           1
     4.556623   -3.475691    0.000000
     4.556623    3.475691    0.000000
    -1.917288    0.000000    3.723679
   O 
     8
Direct configuration=    41
   0.75426240  0.19121561  0.83574190
   0.80878439  0.24573760  0.16425810
   0.24573760  0.80878439  0.16425810
   0.19121561  0.75426240  0.83574190
   0.79768523  0.79768523  0.79103261
   0.20231477  0.20231477  0.20896739
   0.85222964  0.85222964  0.11957593
   0.14777036  0.14777036  0.88042407
ni3al                                   
           1
     4.557381   -3.475152    0.000000
     4.557381    3.475152    0.000000
    -1.917607    0.000000    3.723679
   O 
     8
Direct configuration=    42
   0.75427535  0.19130214  0.83572310
   0.80869786  0.24572465  0.16427690
   0.24572465  0.80869786  0.16427690
   0.19130214  0.75427535  0.83572310
   0.79770368  0.79770368  0.79074824
   0.20229632  0.20229632  0.20925176
   0.85215618  0.85215618  0.11930653
   0.14784382  0.14784382  0.88069347
ni3al                                   
           1
     4.556971   -3.475630    0.000000
     4.556971    3.475630    0.000000
    -1.917435    0.000000    3.723679
   O 
     8
Direct configuration=    43
   0.75426946  0.19123419  0.83573383
   0.80876581  0.24573054  0.16426617
   0.24573054  0.80876581  0.16426617
   0.19123419  0.75426946  0.83573383
   0.79768962  0.79768962  0.79096875
   0.20231038  0.20231038  0.20903125
   0.85221265  0.85221265  0.11953029
   0.14778735  0.14778735  0.88046971
ni3al                                   
           1
     4.556966   -3.475262    0.000000
     4.556966    3.475262    0.000000
    -1.917432    0.000000    3.723679
   O 
     8
Direct configuration=    44
   0.75428117  0.19126039  0.83573587
   0.80873961  0.24571883  0.16426413
   0.24571883  0.80873961  0.16426413
   0.19126039  0.75428117  0.83573587
   0.79770070  0.79770070  0.79090965
   0.20229930  0.20229930  0.20909035
   0.85219897  0.85219897  0.11947209
   0.14780103  0.14780103  0.88052791
ni3al                                   
           1
     4.557178   -3.475409    0.000000
     4.557178    3.475409    0.000000
    -1.917522    0.000000    3.723679
   O 
     8
Direct configuration=    45
   0.75430177  0.19128926  0.83579750
   0.80871074  0.24569823  0.16420250
   0.24569823  0.80871074  0.16420250
   0.19128926  0.75430177  0.83579750
   0.79769428  0.79769428  0.79076775
   0.20230572  0.20230572  0.20923225
   0.85219628  0.85219628  0.11948322
   0.14780372  0.14780372  0.88051678
ni3al                                   
           1
     4.557388   -3.475697    0.000000
     4.557388    3.475697    0.000000
    -1.917610    0.000000    3.723679
   O 
     8
Direct configuration=    46
   0.75429066  0.19128330  0.83573824
   0.80871670  0.24570934  0.16426176
   0.24570934  0.80871670  0.16426176
   0.19128330  0.75429066  0.83573824
   0.79770098  0.79770098  0.79079137
   0.20229902  0.20229902  0.20920863
   0.85217958  0.85217958  0.11939438
   0.14782042  0.14782042  0.88060562
ni3al                                   
           1
     4.557365   -3.474329    0.000000
     4.557365    3.474329    0.000000
    -1.917600    0.000000    3.723679
   O 
     8
Direct configuration=    47
   0.75429737  0.19135126  0.83578532
   0.80864874  0.24570263  0.16421468
   0.24570263  0.80864874  0.16421468
   0.19135126  0.75429737  0.83578532
   0.79772889  0.79772889  0.79068852
   0.20227111  0.20227111  0.20931148
   0.85211842  0.85211842  0.11912880
   0.14788158  0.14788158  0.88087120
ni3al                                   
           1
     4.557937   -3.474624    0.000000
     4.557937    3.474624    0.000000
    -1.917841    0.000000    3.723679
   O 
     8
Direct configuration=    48
   0.75430635  0.19138260  0.83576612
   0.80861740  0.24569365  0.16423388
   0.24569365  0.80861740  0.16423388
   0.19138260  0.75430635  0.83576612
   0.79773065  0.79773065  0.79051331
   0.20226935  0.20226935  0.20948669
   0.85209069  0.85209069  0.11902464
   0.14790931  0.14790931  0.88097536
ni3al                                   
           1
     4.558447   -3.473903    0.000000
     4.558447    3.473903    0.000000
    -1.918056    0.000000    3.723679
   O 
     8
Direct configuration=    49
   0.75432093  0.19146656  0.83579508
   0.80853344  0.24567907  0.16420492
   0.24567907  0.80853344  0.16420492
   0.19146656  0.75432093  0.83579508
   0.79775084  0.79775084  0.79019602
   0.20224916  0.20224916  0.20980398
   0.85201542  0.85201542  0.11874648
   0.14798458  0.14798458  0.88125352
ni3al                                   
           1
     4.558624   -3.473789    0.000000
     4.558624    3.473789    0.000000
    -1.918130    0.000000    3.723679
   O 
     8
Direct configuration=    50
   0.75431908  0.19148105  0.83577299
   0.80851895  0.24568092  0.16422701
   0.24568092  0.80851895  0.16422701
   0.19148105  0.75431908  0.83577299
   0.79775881  0.79775881  0.79016211
   0.20224119  0.20224119  0.20983789
   0.85199481  0.85199481  0.11865985
   0.14800519  0.14800519  0.88134015
ni3al                                   
           1
     4.558205   -3.474172    0.000000
     4.558205    3.474172    0.000000
    -1.917954    0.000000    3.723679
   O 
     8
Direct configuration=    51
   0.75431118  0.19143231  0.83575305
   0.80856769  0.24568882  0.16424695
   0.24568882  0.80856769  0.16424695
   0.19143231  0.75431118  0.83575305
   0.79774678  0.79774678  0.79030295
   0.20225322  0.20225322  0.20969705
   0.85203491  0.85203491  0.11880980
   0.14796509  0.14796509  0.88119020
ni3al                                   
           1
     4.557396   -3.475164    0.000000
     4.557396    3.475164    0.000000
    -1.917614    0.000000    3.723679
   O 
     8
Direct configuration=    52
   0.75431458  0.19139711  0.83578896
   0.80860289  0.24568542  0.16421104
   0.24568542  0.80860289  0.16421104
   0.19139711  0.75431458  0.83578896
   0.79772392  0.79772392  0.79041262
   0.20227608  0.20227608  0.20958738
   0.85206949  0.85206949  0.11897407
   0.14793051  0.14793051  0.88102593
ni3al                                   
           1
     4.556001   -3.476231    0.000000
     4.556001    3.476231    0.000000
    -1.917027    0.000000    3.723679
   O 
     8
Direct configuration=    53
   0.75433475  0.19136412  0.83580733
   0.80863588  0.24566525  0.16419267
   0.24566525  0.80863588  0.16419267
   0.19136412  0.75433475  0.83580733
   0.79772267  0.79772267  0.79055433
   0.20227733  0.20227733  0.20944567
   0.85207515  0.85207515  0.11904081
   0.14792485  0.14792485  0.88095919
ni3al                                   
           1
     4.555872   -3.476444    0.000000
     4.555872    3.476444    0.000000
    -1.916972    0.000000    3.723679
   O 
     8
Direct configuration=    54
   0.75433343  0.19135622  0.83578014
   0.80864378  0.24566657  0.16421986
   0.24566657  0.80864378  0.16421986
   0.19135622  0.75433343  0.83578014
   0.79771246  0.79771246  0.79051122
   0.20228754  0.20228754  0.20948878
   0.85208044  0.85208044  0.11908029
   0.14791956  0.14791956  0.88091971
ni3al                                   
           1
     4.556495   -3.475751    0.000000
     4.556495    3.475751    0.000000
    -1.917234    0.000000    3.723679
   O 
     8
Direct configuration=    55
   0.75434268  0.19141419  0.83569880
   0.80858581  0.24565732  0.16430120
   0.24565732  0.80858581  0.16430120
   0.19141419  0.75434268  0.83569880
   0.79774911  0.79774911  0.79033566
   0.20225089  0.20225089  0.20966434
   0.85198978  0.85198978  0.11871007
   0.14801022  0.14801022  0.88128993
ni3al                                   
           1
     4.556630   -3.475642    0.000000
     4.556630    3.475642    0.000000
    -1.917291    0.000000    3.723679
   O 
     8
Direct configuration=    56
   0.75435921  0.19144007  0.83577950
   0.80855993  0.24564079  0.16422050
   0.24564079  0.80855993  0.16422050
   0.19144007  0.75435921  0.83577950
   0.79774240  0.79774240  0.79023000
   0.20225760  0.20225760  0.20977000
   0.85198485  0.85198485  0.11871500
   0.14801515  0.14801515  0.88128500
ni3al                                   
           1
     4.557347   -3.474923    0.000000
     4.557347    3.474923    0.000000
    -1.917593    0.000000    3.723679
   O 
     8
Direct configuration=    57
   0.75437822  0.19150918  0.83577220
   0.80849082  0.24562178  0.16422780
   0.24562178  0.80849082  0.16422780
   0.19150918  0.75437822  0.83577220
   0.79775577  0.79775577  0.78991890
   0.20224423  0.20224423  0.21008110
   0.85190976  0.85190976  0.11845949
   0.14809024  0.14809024  0.88154051
ni3al                                   
           1
     4.557455   -3.474850    0.000000
     4.557455    3.474850    0.000000
    -1.917638    0.000000    3.723679
   O 
     8
Direct configuration=    58
   0.75438357  0.19152187  0.83579271
   0.80847813  0.24561643  0.16420729
   0.24561643  0.80847813  0.16420729
   0.19152187  0.75438357  0.83579271
   0.79776256  0.79776256  0.78991261
   0.20223744  0.20223744  0.21008739
   0.85189530  0.85189530  0.11839249
   0.14810470  0.14810470  0.88160751
ni3al                                   
           1
     4.555810   -3.475835    0.000000
     4.555810    3.475835    0.000000
    -1.916946    0.000000    3.723679
   O 
     8
Direct configuration=    59
   0.75435456  0.19139115  0.83577639
   0.80860885  0.24564544  0.16422361
   0.24564544  0.80860885  0.16422361
   0.19139115  0.75435456  0.83577639
   0.79773103  0.79773103  0.79036218
   0.20226897  0.20226897  0.20963782
   0.85202212  0.85202212  0.11887385
   0.14797788  0.14797788  0.88112615
ni3al                                   
           1
     4.555863   -3.475772    0.000000
     4.555863    3.475772    0.000000
    -1.916968    0.000000    3.723679
   O 
     8
Direct configuration=    60
   0.75434812  0.19139700  0.83573039
   0.80860300  0.24565188  0.16426961
   0.24565188  0.80860300  0.16426961
   0.19139700  0.75434812  0.83573039
   0.79772645  0.79772645  0.79032298
   0.20227355  0.20227355  0.20967702
   0.85200511  0.85200511  0.11886420
   0.14799489  0.14799489  0.88113580
ni3al                                   
           1
     4.556712   -3.475212    0.000000
     4.556712    3.475212    0.000000
    -1.917326    0.000000    3.723679
   O 
     8
Direct configuration=    61
   0.75437229  0.19147483  0.83579419
   0.80852517  0.24562771  0.16420581
   0.24562771  0.80852517  0.16420581
   0.19147483  0.75437229  0.83579419
   0.79774884  0.79774884  0.79010921
   0.20225116  0.20225116  0.20989079
   0.85193470  0.85193470  0.11857074
   0.14806530  0.14806530  0.88142926
ni3al                                   
           1
     4.557131   -3.474601    0.000000
     4.557131    3.474601    0.000000
    -1.917502    0.000000    3.723679
   O 
     8
Direct configuration=    62
   0.75438303  0.19153297  0.83580590
   0.80846703  0.24561697  0.16419410
   0.24561697  0.80846703  0.16419410
   0.19153297  0.75438303  0.83580590
   0.79775263  0.79775263  0.78985715
   0.20224737  0.20224737  0.21014285
   0.85187903  0.85187903  0.11838041
   0.14812097  0.14812097  0.88161959
ni3al                                   
           1
     4.557295   -3.474513    0.000000
     4.557295    3.474513    0.000000
    -1.917571    0.000000    3.723679
   O 
     8
Direct configuration=    63
   0.75438361  0.19154435  0.83579737
   0.80845565  0.24561639  0.16420263
   0.24561639  0.80845565  0.16420263
   0.19154435  0.75438361  0.83579737
   0.79775844  0.79775844  0.78983030
   0.20224156  0.20224156  0.21016970
   0.85186291  0.85186291  0.11831294
   0.14813709  0.14813709  0.88168706
ni3al                                   
           1
     4.555056   -3.476224    0.000000
     4.555056    3.476224    0.000000
    -1.916629    0.000000    3.723679
   O 
     8
Direct configuration=    64
   0.75433877  0.19133901  0.83574914
   0.80866099  0.24566123  0.16425086
   0.24566123  0.80866099  0.16425086
   0.19133901  0.75433877  0.83574914
   0.79770828  0.79770828  0.79046228
   0.20229172  0.20229172  0.20953772
   0.85203472  0.85203472  0.11895991
   0.14796528  0.14796528  0.88104009
ni3al                                   
           1
     4.550437   -3.480413    0.000000
     4.550437    3.480413    0.000000
    -1.914685    0.000000    3.723679
   O 
     8
Direct configuration=    65
   0.75427312  0.19093078  0.83567064
   0.80906922  0.24572688  0.16432936
   0.24572688  0.80906922  0.16432936
   0.19093078  0.75427312  0.83567064
   0.79757200  0.79757200  0.79168616
   0.20242800  0.20242800  0.20831384
   0.85236898  0.85236898  0.12039021
   0.14763102  0.14763102  0.87960979
ni3al                                   
           1
     4.555912   -3.475689    0.000000
     4.555912    3.475689    0.000000
    -1.916989    0.000000    3.723679
   O 
     8
Direct configuration=    66
   0.75437902  0.19144145  0.83584598
   0.80855855  0.24562098  0.16415402
   0.24562098  0.80855855  0.16415402
   0.19144145  0.75437902  0.83584598
   0.79771516  0.79771516  0.79017266
   0.20228484  0.20228484  0.20982734
   0.85196292  0.85196292  0.11876091
   0.14803708  0.14803708  0.88123909
ni3al                                   
           1
     4.556194   -3.475449    0.000000
     4.556194    3.475449    0.000000
    -1.917108    0.000000    3.723679
   O 
     8
Direct configuration=    67
   0.75437223  0.19145517  0.83577521
   0.80854483  0.24562777  0.16422479
   0.24562777  0.80854483  0.16422479
   0.19145517  0.75437223  0.83577521
   0.79772855  0.79772855  0.79012105
   0.20227145  0.20227145  0.20987895
   0.85193251  0.85193251  0.11862876
   0.14806749  0.14806749  0.88137124
ni3al                                   
           1
     4.559642   -3.472536    0.000000
     4.559642    3.472536    0.000000
    -1.918559    0.000000    3.723679
   O 
     8
Direct configuration=    68
   0.75442768  0.19177347  0.83582886
   0.80822653  0.24557232  0.16417114
   0.24557232  0.80822653  0.16417114
   0.19177347  0.75442768  0.83582886
   0.79781948  0.79781948  0.78907825
   0.20218052  0.20218052  0.21092175
   0.85165174  0.85165174  0.11749612
   0.14834826  0.14834826  0.88250388
ni3al                                   
           1
     4.568834   -3.465283    0.000000
     4.568834    3.465283    0.000000
    -1.922426    0.000000    3.723679
   O 
     8
Direct configuration=    69
   0.75456677  0.19265844  0.83600519
   0.80734156  0.24543323  0.16399481
   0.24543323  0.80734156  0.16399481
   0.19265844  0.75456677  0.83600519
   0.79810579  0.79810579  0.78643244
   0.20189421  0.20189421  0.21356756
   0.85088200  0.85088200  0.11430063
   0.14911800  0.14911800  0.88569937
ni3al                                   
           1
     4.561391   -3.471248    0.000000
     4.561391    3.471248    0.000000
    -1.919295    0.000000    3.723679
   O 
     8
Direct configuration=    70
   0.75445576  0.19195293  0.83586995
   0.80804707  0.24554424  0.16413005
   0.24554424  0.80804707  0.16413005
   0.19195293  0.75445576  0.83586995
   0.79787502  0.79787502  0.78851852
   0.20212498  0.20212498  0.21148148
   0.85149761  0.85149761  0.11686769
   0.14850239  0.14850239  0.88313231
ni3al                                   
           1
     4.562398   -3.470496    0.000000
     4.562398    3.470496    0.000000
    -1.919718    0.000000    3.723679
   O 
     8
Direct configuration=    71
   0.75446457  0.19204694  0.83583439
   0.80795306  0.24553543  0.16416561
   0.24553543  0.80795306  0.16416561
   0.19204694  0.75446457  0.83583439
   0.79790783  0.79790783  0.78816966
   0.20209217  0.20209217  0.21183034
   0.85139662  0.85139662  0.11645766
   0.14860338  0.14860338  0.88354234
ni3al                                   
           1
     4.562586   -3.470357    0.000000
     4.562586    3.470357    0.000000
    -1.919797    0.000000    3.723679
   O 
     8
Direct configuration=    72
   0.75447373  0.19207182  0.83587259
   0.80792818  0.24552627  0.16412741
   0.24552627  0.80792818  0.16412741
   0.19207182  0.75447373  0.83587259
   0.79791227  0.79791227  0.78809393
   0.20208773  0.20208773  0.21190607
   0.85138074  0.85138074  0.11639499
   0.14861926  0.14861926  0.88360501
ni3al                                   
           1
     4.559341   -3.472418    0.000000
     4.559341    3.472418    0.000000
    -1.918432    0.000000    3.723679
   O 
     8
Direct configuration=    73
   0.75441766  0.19180484  0.83583768
   0.80819516  0.24558234  0.16416232
   0.24558234  0.80819516  0.16416232
   0.19180484  0.75441766  0.83583768
   0.79782684  0.79782684  0.78906467
   0.20217316  0.20217316  0.21093533
   0.85162075  0.85162075  0.11733095
   0.14837925  0.14837925  0.88266905
ni3al                                   
           1
     4.558388   -3.473005    0.000000
     4.558388    3.473005    0.000000
    -1.918031    0.000000    3.723679
   O 
     8
Direct configuration=    74
   0.75439890  0.19172727  0.83581257
   0.80827273  0.24560110  0.16418743
   0.24560110  0.80827273  0.16418743
   0.19172727  0.75439890  0.83581257
   0.79778972  0.79778972  0.78926921
   0.20221028  0.20221028  0.21073079
   0.85170165  0.85170165  0.11768128
   0.14829835  0.14829835  0.88231872
ni3al                                   
           1
     4.559391   -3.472472    0.000000
     4.559391    3.472472    0.000000
    -1.918453    0.000000    3.723679
   O 
     8
Direct configuration=    75
   0.75442964  0.19182874  0.83589143
   0.80817126  0.24557036  0.16410857
   0.24557036  0.80817126  0.16410857
   0.19182874  0.75442964  0.83589143
   0.79781320  0.79781320  0.78898299
   0.20218680  0.20218680  0.21101701
   0.85162191  0.85162191  0.11741087
   0.14837809  0.14837809  0.88258913
ni3al                                   
           1
     4.559529   -3.472340    0.000000
     4.559529    3.472340    0.000000
    -1.918511    0.000000    3.723679
   O 
     8
Direct configuration=    76
   0.75442185  0.19183225  0.83582626
   0.80816775  0.24557815  0.16417374
   0.24557815  0.80816775  0.16417374
   0.19183225  0.75442185  0.83582626
   0.79782125  0.79782125  0.78894967
   0.20217875  0.20217875  0.21105033
   0.85160270  0.85160270  0.11732748
   0.14839730  0.14839730  0.88267252
ni3al                                   
           1
     4.560189   -3.471545    0.000000
     4.560189    3.471545    0.000000
    -1.918789    0.000000    3.723679
   O 
     8
Direct configuration=    77
   0.75443738  0.19190838  0.83584583
   0.80809162  0.24556262  0.16415417
   0.24556262  0.80809162  0.16415417
   0.19190838  0.75443738  0.83584583
   0.79784464  0.79784464  0.78868885
   0.20215536  0.20215536  0.21131115
   0.85152858  0.85152858  0.11703990
   0.14847142  0.14847142  0.88296010
ni3al                                   
           1
     4.560769   -3.471290    0.000000
     4.560769    3.471290    0.000000
    -1.919033    0.000000    3.723679
   O 
     8
Direct configuration=    78
   0.75444585  0.19196115  0.83586415
   0.80803885  0.24555415  0.16413585
   0.24555415  0.80803885  0.16413585
   0.19196115  0.75444585  0.83586415
   0.79786140  0.79786140  0.78853556
   0.20213860  0.20213860  0.21146444
   0.85147596  0.85147596  0.11683496
   0.14852404  0.14852404  0.88316504
ni3al                                   
           1
     4.560987   -3.471107    0.000000
     4.560987    3.471107    0.000000
    -1.919125    0.000000    3.723679
   O 
     8
Direct configuration=    79
   0.75444917  0.19198241  0.83586150
   0.80801759  0.24555083  0.16413850
   0.24555083  0.80801759  0.16413850
   0.19198241  0.75444917  0.83586150
   0.79786429  0.79786429  0.78843155
   0.20213571  0.20213571  0.21156845
   0.85145732  0.85145732  0.11677324
   0.14854268  0.14854268  0.88322676
ni3al                                   
           1
     4.561173   -3.470969    0.000000
     4.561173    3.470969    0.000000
    -1.919203    0.000000    3.723679
   O 
     8
Direct configuration=    80
   0.75445490  0.19200346  0.83588136
   0.80799654  0.24554510  0.16411864
   0.24554510  0.80799654  0.16411864
   0.19200346  0.75445490  0.83588136
   0.79786713  0.79786713  0.78835378
   0.20213287  0.20213287  0.21164622
   0.85144198  0.85144198  0.11672115
   0.14855802  0.14855802  0.88327885
ni3al                                   
           1
     4.561193   -3.470952    0.000000
     4.561193    3.470952    0.000000
    -1.919211    0.000000    3.723679
   O 
     8
Direct configuration=    81
   0.75445560  0.19200591  0.83588294
   0.80799409  0.24554440  0.16411706
   0.24554440  0.80799409  0.16411706
   0.19200591  0.75445560  0.83588294
   0.79786795  0.79786795  0.78834478
   0.20213205  0.20213205  0.21165522
   0.85143967  0.85143967  0.11671220
   0.14856033  0.14856033  0.88328780
ni3al                                   
           1
     4.561075   -3.470743    0.000000
     4.561075    3.470743    0.000000
    -1.919161    0.000000    3.723679
   O 
     8
Direct configuration=    82
   0.75446269  0.19205479  0.83587419
   0.80794521  0.24553731  0.16412581
   0.24553731  0.80794521  0.16412581
   0.19205479  0.75446269  0.83587419
   0.79788342  0.79788342  0.78815659
   0.20211658  0.20211658  0.21184341
   0.85139072  0.85139072  0.11648033
   0.14860928  0.14860928  0.88351967
ni3al                                   
           1
     4.561134   -3.470713    0.000000
     4.561134    3.470713    0.000000
    -1.919187    0.000000    3.723679
   O 
     8
Direct configuration=    83
   0.75446691  0.19208192  0.83587585
   0.80791808  0.24553309  0.16412415
   0.24553309  0.80791808  0.16412415
   0.19208192  0.75446691  0.83587585
   0.79789045  0.79789045  0.78805642
   0.20210955  0.20210955  0.21194358
   0.85136428  0.85136428  0.11637417
   0.14863572  0.14863572  0.88362583
ni3al                                   
           1
     4.561390   -3.470603    0.000000
     4.561390    3.470603    0.000000
    -1.919294    0.000000    3.723679
   O 
     8
Direct configuration=    84
   0.75447928  0.19216441  0.83588082
   0.80783559  0.24552072  0.16411918
   0.24552072  0.80783559  0.16411918
   0.19216441  0.75447928  0.83588082
   0.79791932  0.79791932  0.78779044
   0.20208068  0.20208068  0.21220956
   0.85127712  0.85127712  0.11600916
   0.14872288  0.14872288  0.88399084
ni3al                                   
           1
     4.561505   -3.470548    0.000000
     4.561505    3.470548    0.000000
    -1.919343    0.000000    3.723679
   O 
     8
Direct configuration=    85
   0.75447648  0.19216760  0.83585238
   0.80783240  0.24552352  0.16414762
   0.24552352  0.80783240  0.16414762
   0.19216760  0.75447648  0.83585238
   0.79791966  0.79791966  0.78773157
   0.20208034  0.20208034  0.21226843
   0.85127231  0.85127231  0.11600249
   0.14872769  0.14872769  0.88399751
ni3al                                   
           1
     4.562036   -3.470373    0.000000
     4.562036    3.470373    0.000000
    -1.919566    0.000000    3.723679
   O 
     8
Direct configuration=    86
   0.75449097  0.19215428  0.83591339
   0.80784572  0.24550903  0.16408661
   0.24550903  0.80784572  0.16408661
   0.19215428  0.75449097  0.83591339
   0.79791589  0.79791589  0.78783763
   0.20208411  0.20208411  0.21216237
   0.85129396  0.85129396  0.11614238
   0.14870604  0.14870604  0.88385762
ni3al                                   
           1
     4.562563   -3.469768    0.000000
     4.562563    3.469768    0.000000
    -1.919788    0.000000    3.723679
   O 
     8
Direct configuration=    87
   0.75451269  0.19224462  0.83589560
   0.80775538  0.24548731  0.16410440
   0.24548731  0.80775538  0.16410440
   0.19224462  0.75451269  0.83589560
   0.79795654  0.79795654  0.78751206
   0.20204346  0.20204346  0.21248794
   0.85119511  0.85119511  0.11574202
   0.14880489  0.14880489  0.88425798
ni3al                                   
           1
     4.563526   -3.469345    0.000000
     4.563526    3.469345    0.000000
    -1.920193    0.000000    3.723679
   O 
     8
Direct configuration=    88
   0.75452945  0.19230688  0.83591560
   0.80769312  0.24547055  0.16408440
   0.24547055  0.80769312  0.16408440
   0.19230688  0.75452945  0.83591560
   0.79797624  0.79797624  0.78727344
   0.20202376  0.20202376  0.21272656
   0.85112829  0.85112829  0.11546201
   0.14887171  0.14887171  0.88453799
ni3al                                   
           1
     4.563954   -3.468932    0.000000
     4.563954    3.468932    0.000000
    -1.920373    0.000000    3.723679
   O 
     8
Direct configuration=    89
   0.75454333  0.19235325  0.83591824
   0.80764675  0.24545667  0.16408176
   0.24545667  0.80764675  0.16408176
   0.19235325  0.75454333  0.83591824
   0.79798935  0.79798935  0.78705755
   0.20201065  0.20201065  0.21294245
   0.85108962  0.85108962  0.11531903
   0.14891038  0.14891038  0.88468097
ni3al                                   
           1
     4.567136   -3.466684    0.000000
     4.567136    3.466684    0.000000
    -1.921712    0.000000    3.723679
   O 
     8
Direct configuration=    90
   0.75463313  0.19265919  0.83601182
   0.80734081  0.24536687  0.16398818
   0.24536687  0.80734081  0.16398818
   0.19265919  0.75463313  0.83601182
   0.79811841  0.79811841  0.78600820
   0.20188159  0.20188159  0.21399180
   0.85078937  0.85078937  0.11407763
   0.14921063  0.14921063  0.88592237
ni3al                                   
           1
     4.565809   -3.467628    0.000000
     4.565809    3.467628    0.000000
    -1.921153    0.000000    3.723679
   O 
     8
Direct configuration=    91
   0.75458957  0.19252522  0.83593763
   0.80747478  0.24541043  0.16406237
   0.24541043  0.80747478  0.16406237
   0.19252522  0.75458957  0.83593763
   0.79806937  0.79806937  0.78648645
   0.20193063  0.20193063  0.21351355
   0.85091598  0.85091598  0.11459240
   0.14908402  0.14908402  0.88540760
ni3al                                   
           1
     4.565219   -3.468087    0.000000
     4.565219    3.468087    0.000000
    -1.920905    0.000000    3.723679
   O 
     8
Direct configuration=    92
   0.75457568  0.19248012  0.83593705
   0.80751988  0.24542432  0.16406295
   0.24542432  0.80751988  0.16406295
   0.19248012  0.75457568  0.83593705
   0.79804649  0.79804649  0.78665498
   0.20195351  0.20195351  0.21334502
   0.85096500  0.85096500  0.11479760
   0.14903500  0.14903500  0.88520240
ni3al                                   
           1
     4.568041   -3.466358    0.000000
     4.568041    3.466358    0.000000
    -1.922093    0.000000    3.723679
   O 
     8
Direct configuration=    93
   0.75463734  0.19271296  0.83597731
   0.80728704  0.24536266  0.16402269
   0.24536266  0.80728704  0.16402269
   0.19271296  0.75463734  0.83597731
   0.79814191  0.79814191  0.78581604
   0.20185809  0.20185809  0.21418396
   0.85073953  0.85073953  0.11386112
   0.14926047  0.14926047  0.88613888
ni3al                                   
           1
     4.579339   -3.459028    0.000000
     4.579339    3.459028    0.000000
    -1.926846    0.000000    3.723679
   O 
     8
Direct configuration=    94
   0.75492701  0.19375102  0.83628756
   0.80624898  0.24507299  0.16371244
   0.24507299  0.80624898  0.16371244
   0.19375102  0.75492701  0.83628756
   0.79855698  0.79855698  0.78217184
   0.20144302  0.20144302  0.21782816
   0.84981865  0.84981865  0.10990615
   0.15018135  0.15018135  0.89009385
ni3al                                   
           1
     4.570442   -3.464751    0.000000
     4.570442    3.464751    0.000000
    -1.923103    0.000000    3.723679
   O 
     8
Direct configuration=    95
   0.75470103  0.19295804  0.83603473
   0.80704196  0.24529897  0.16396527
   0.24529897  0.80704196  0.16396527
   0.19295804  0.75470103  0.83603473
   0.79824218  0.79824218  0.78502632
   0.20175782  0.20175782  0.21497368
   0.85053896  0.85053896  0.11294631
   0.14946104  0.14946104  0.88705369
ni3al                                   
           1
     4.572153   -3.463625    0.000000
     4.572153    3.463625    0.000000
    -1.923823    0.000000    3.723679
   O 
     8
Direct configuration=    96
   0.75472985  0.19312144  0.83601186
   0.80687856  0.24527015  0.16398814
   0.24527015  0.80687856  0.16398814
   0.19312144  0.75472985  0.83601186
   0.79829473  0.79829473  0.78435476
   0.20170527  0.20170527  0.21564524
   0.85041444  0.85041444  0.11241006
   0.14958556  0.14958556  0.88758994
ni3al                                   
           1
     4.572403   -3.463459    0.000000
     4.572403    3.463459    0.000000
    -1.923928    0.000000    3.723679
   O 
     8
Direct configuration=    97
   0.75474309  0.19315528  0.83606461
   0.80684472  0.24525691  0.16393539
   0.24525691  0.80684472  0.16393539
   0.19315528  0.75474309  0.83606461
   0.79831725  0.79831725  0.78434128
   0.20168275  0.20168275  0.21565872
   0.85038058  0.85038058  0.11223105
   0.14961942  0.14961942  0.88776895
ni3al                                   
           1
     4.573028   -3.463018    0.000000
     4.573028    3.463018    0.000000
    -1.924191    0.000000    3.723679
   O 
     8
Direct configuration=    98
   0.75476228  0.19323618  0.83612089
   0.80676382  0.24523772  0.16387911
   0.24523772  0.80676382  0.16387911
   0.19323618  0.75476228  0.83612089
   0.79834270  0.79834270  0.78406254
   0.20165730  0.20165730  0.21593746
   0.85032874  0.85032874  0.11196646
   0.14967126  0.14967126  0.88803354
ni3al                                   
           1
     4.573166   -3.462871    0.000000
     4.573166    3.462871    0.000000
    -1.924249    0.000000    3.723679
   O 
     8
Direct configuration=    99
   0.75475755  0.19324996  0.83607311
   0.80675004  0.24524245  0.16392689
   0.24524245  0.80675004  0.16392689
   0.19324996  0.75475755  0.83607311
   0.79835670  0.79835670  0.78402431
   0.20164330  0.20164330  0.21597569
   0.85030683  0.85030683  0.11185314
   0.14969317  0.14969317  0.88814686
ni3al                                   
           1
     4.573634   -3.462317    0.000000
     4.573634    3.462317    0.000000
    -1.924446    0.000000    3.723679
   O 
     8
Direct configuration=   100
   0.75476934  0.19332318  0.83608720
   0.80667682  0.24523066  0.16391280
   0.24523066  0.80667682  0.16391280
   0.19332318  0.75476934  0.83608720
   0.79838427  0.79838427  0.78380605
   0.20161573  0.20161573  0.21619395
   0.85025778  0.85025778  0.11161530
   0.14974222  0.14974222  0.88838470
ni3al                                   
           1
     4.573740   -3.462298    0.000000
     4.573740    3.462298    0.000000
    -1.924491    0.000000    3.723679
   O 
     8
Direct configuration=   101
   0.75476816  0.19333081  0.83607698
   0.80666919  0.24523184  0.16392302
   0.24523184  0.80666919  0.16392302
   0.19333081  0.75476816  0.83607698
   0.79838331  0.79838331  0.78375266
   0.20161669  0.20161669  0.21624734
   0.85025478  0.85025478  0.11160458
   0.14974522  0.14974522  0.88839542
ni3al                                   
           1
     4.573731   -3.462267    0.000000
     4.573731    3.462267    0.000000
    -1.924487    0.000000    3.723679
   O 
     8
Direct configuration=   102
   0.75477116  0.19333512  0.83609176
   0.80666488  0.24522884  0.16390824
   0.24522884  0.80666488  0.16390824
   0.19333512  0.75477116  0.83609176
   0.79838828  0.79838828  0.78377201
   0.20161172  0.20161172  0.21622799
   0.85024962  0.85024962  0.11157570
   0.14975038  0.14975038  0.88842430
ni3al                                   
           1
     4.574555   -3.461872    0.000000
     4.574555    3.461872    0.000000
    -1.924833    0.000000    3.723679
   O 
     8
Direct configuration=   103
   0.75479500  0.19343218  0.83619239
   0.80656782  0.24520500  0.16380761
   0.24520500  0.80656782  0.16380761
   0.19343218  0.75479500  0.83619239
   0.79840981  0.79840981  0.78348241
   0.20159019  0.20159019  0.21651759
   0.85020079  0.85020079  0.11135163
   0.14979921  0.14979921  0.88864837
ni3al                                   
           1
     4.574612   -3.461703    0.000000
     4.574612    3.461703    0.000000
    -1.924857    0.000000    3.723679
   O 
     8
Direct configuration=   104
   0.75478670  0.19344010  0.83612356
   0.80655990  0.24521330  0.16387644
   0.24521330  0.80655990  0.16387644
   0.19344010  0.75478670  0.83612356
   0.79842727  0.79842727  0.78348704
   0.20157273  0.20157273  0.21651296
   0.85017934  0.85017934  0.11122635
   0.14982066  0.14982066  0.88877365
ni3al                                   
           1
     4.575223   -3.461230    0.000000
     4.575223    3.461230    0.000000
    -1.925115    0.000000    3.723679
   O 
     8
Direct configuration=   105
   0.75478112  0.19350192  0.83604155
   0.80649808  0.24521888  0.16395845
   0.24521888  0.80649808  0.16395845
   0.19350192  0.75478112  0.83604155
   0.79843453  0.79843453  0.78312144
   0.20156547  0.20156547  0.21687856
   0.85015086  0.85015086  0.11110977
   0.14984914  0.14984914  0.88889023
ni3al                                   
           1
     4.575322   -3.461170    0.000000
     4.575322    3.461170    0.000000
    -1.925156    0.000000    3.723679
   O 
     8
Direct configuration=   106
   0.75479636  0.19352689  0.83613446
   0.80647311  0.24520364  0.16386554
   0.24520364  0.80647311  0.16386554
   0.19352689  0.75479636  0.83613446
   0.79845507  0.79845507  0.78319529
   0.20154493  0.20154493  0.21680471
   0.85012566  0.85012566  0.11096361
   0.14987434  0.14987434  0.88903639
ni3al                                   
           1
     4.574869   -3.461151    0.000000
     4.574869    3.461151    0.000000
    -1.924966    0.000000    3.723679
   O 
     8
Direct configuration=   107
   0.75479499  0.19350697  0.83613713
   0.80649303  0.24520501  0.16386287
   0.24520501  0.80649303  0.16386287
   0.19350697  0.75479499  0.83613713
   0.79844561  0.79844561  0.78324758
   0.20155439  0.20155439  0.21675242
   0.85013870  0.85013870  0.11103435
   0.14986130  0.14986130  0.88896565
ni3al                                   
           1
     4.574953   -3.460583    0.000000
     4.574953    3.460583    0.000000
    -1.925001    0.000000    3.723679
   O 
     8
Direct configuration=   108
   0.75480281  0.19358633  0.83615526
   0.80641367  0.24519719  0.16384474
   0.24519719  0.80641367  0.16384474
   0.19358633  0.75480281  0.83615526
   0.79846448  0.79846448  0.78302304
   0.20153552  0.20153552  0.21697696
   0.85008397  0.85008397  0.11080311
   0.14991603  0.14991603  0.88919689
ni3al                                   
           1
     4.575363   -3.461108    0.000000
     4.575363    3.461108    0.000000
    -1.925174    0.000000    3.723679
   O 
     8
Direct configuration=   109
   0.75480119  0.19353413  0.83613685
   0.80646587  0.24519881  0.16386315
   0.24519881  0.80646587  0.16386315
   0.19353413  0.75480119  0.83613685
   0.79845859  0.79845859  0.78315510
   0.20154141  0.20154141  0.21684490
   0.85012412  0.85012412  0.11095789
   0.14987588  0.14987588  0.88904211
ni3al                                   
           1
     4.575459   -3.461091    0.000000
     4.575459    3.461091    0.000000
    -1.925214    0.000000    3.723679
   O 
     8
Direct configuration=   110
   0.75480558  0.19353755  0.83615321
   0.80646245  0.24519442  0.16384679
   0.24519442  0.80646245  0.16384679
   0.19353755  0.75480558  0.83615321
   0.79846590  0.79846590  0.78316604
   0.20153410  0.20153410  0.21683396
   0.85012122  0.85012122  0.11092312
   0.14987878  0.14987878  0.88907688
ni3al                                   
           1
     4.576077   -3.460677    0.000000
     4.576077    3.460677    0.000000
    -1.925474    0.000000    3.723679
   O 
     8
Direct configuration=   111
   0.75480956  0.19361377  0.83615381
   0.80638623  0.24519044  0.16384619
   0.24519044  0.80638623  0.16384619
   0.19361377  0.75480956  0.83615381
   0.79849869  0.79849869  0.78299547
   0.20150131  0.20150131  0.21700453
   0.85005931  0.85005931  0.11060675
   0.14994069  0.14994069  0.88939325
ni3al                                   
           1
     4.575974   -3.460421    0.000000
     4.575974    3.460421    0.000000
    -1.925431    0.000000    3.723679
   O 
     8
Direct configuration=   112
   0.75481503  0.19364033  0.83618950
   0.80635967  0.24518497  0.16381050
   0.24518497  0.80635967  0.16381050
   0.19364033  0.75481503  0.83618950
   0.79849219  0.79849219  0.78284625
   0.20150781  0.20150781  0.21715375
   0.85005797  0.85005797  0.11062124
   0.14994203  0.14994203  0.88937876
ni3al                                   
           1
     4.576663   -3.459968    0.000000
     4.576663    3.459968    0.000000
    -1.925720    0.000000    3.723679
   O 
     8
Direct configuration=   113
   0.75479681  0.19369341  0.83603749
   0.80630659  0.24520319  0.16396251
   0.24520319  0.80630659  0.16396251
   0.19369341  0.75479681  0.83603749
   0.79851424  0.79851424  0.78258866
   0.20148576  0.20148576  0.21741134
   0.85001178  0.85001178  0.11040555
   0.14998822  0.14998822  0.88959445
ni3al                                   
           1
     4.576954   -3.458937    0.000000
     4.576954    3.458937    0.000000
    -1.925843    0.000000    3.723679
   O 
     8
Direct configuration=   114
   0.75482601  0.19384040  0.83620037
   0.80615960  0.24517399  0.16379963
   0.24517399  0.80615960  0.16379963
   0.19384040  0.75482601  0.83620037
   0.79856001  0.79856001  0.78227270
   0.20143999  0.20143999  0.21772730
   0.84992183  0.84992183  0.10997374
   0.15007817  0.15007817  0.89002626
ni3al                                   
           1
     4.577986   -3.458743    0.000000
     4.577986    3.458743    0.000000
    -1.926277    0.000000    3.723679
   O 
     8
Direct configuration=   115
   0.75482767  0.19391769  0.83618701
   0.80608231  0.24517233  0.16381299
   0.24517233  0.80608231  0.16381299
   0.19391769  0.75482767  0.83618701
   0.79859513  0.79859513  0.78214815
   0.20140487  0.20140487  0.21785185
   0.84985774  0.84985774  0.10967723
   0.15014226  0.15014226  0.89032277
ni3al                                   
           1
     4.578124   -3.458619    0.000000
     4.578124    3.458619    0.000000
    -1.926335    0.000000    3.723679
   O 
     8
Direct configuration=   116
   0.75483494  0.19393730  0.83622071
   0.80606270  0.24516506  0.16377929
   0.24516506  0.80606270  0.16377929
   0.19393730  0.75483494  0.83622071
   0.79858782  0.79858782  0.78201822
   0.20141218  0.20141218  0.21798178
   0.84986185  0.84986185  0.10971351
   0.15013815  0.15013815  0.89028649
ni3al                                   
           1
     4.579118   -3.457807    0.000000
     4.579118    3.457807    0.000000
    -1.926754    0.000000    3.723679
   O 
     8
Direct configuration=   117
   0.75484841  0.19404051  0.83622485
   0.80595949  0.24515159  0.16377515
   0.24515159  0.80595949  0.16377515
   0.19404051  0.75484841  0.83622485
   0.79863370  0.79863370  0.78172690
   0.20136630  0.20136630  0.21827310
   0.84978952  0.84978952  0.10934158
   0.15021048  0.15021048  0.89065842
ni3al                                   
           1
     4.580024   -3.457132    0.000000
     4.580024    3.457132    0.000000
    -1.927135    0.000000    3.723679
   O 
     8
Direct configuration=   118
   0.75485877  0.19413913  0.83624856
   0.80586087  0.24514123  0.16375144
   0.24514123  0.80586087  0.16375144
   0.19413913  0.75485877  0.83624856
   0.79867051  0.79867051  0.78143201
   0.20132949  0.20132949  0.21856799
   0.84971910  0.84971910  0.10900465
   0.15028090  0.15028090  0.89099535
ni3al                                   
           1
     4.577739   -3.458933    0.000000
     4.577739    3.458933    0.000000
    -1.926173    0.000000    3.723679
   O 
     8
Direct configuration=   119
   0.75483189  0.19388843  0.83620070
   0.80611157  0.24516811  0.16379930
   0.24516811  0.80611157  0.16379930
   0.19388843  0.75483189  0.83620070
   0.79857109  0.79857109  0.78219840
   0.20142891  0.20142891  0.21780160
   0.84989981  0.84989981  0.10986924
   0.15010019  0.15010019  0.89013076
ni3al                                   
           1
     4.579851   -3.457252    0.000000
     4.579851    3.457252    0.000000
    -1.927062    0.000000    3.723679
   O 
     8
Direct configuration=   120
   0.75485009  0.19411935  0.83621905
   0.80588065  0.24514991  0.16378095
   0.24514991  0.80588065  0.16378095
   0.19411935  0.75485009  0.83621905
   0.79866417  0.79866417  0.78146642
   0.20133583  0.20133583  0.21853358
   0.84972748  0.84972748  0.10905671
   0.15027252  0.15027252  0.89094329
ni3al                                   
           1
     4.578768   -3.458142    0.000000
     4.578768    3.458142    0.000000
    -1.926606    0.000000    3.723679
   O 
     8
Direct configuration=   121
   0.75484326  0.19399864  0.83622973
   0.80600136  0.24515674  0.16377027
   0.24515674  0.80600136  0.16377027
   0.19399864  0.75484326  0.83622973
   0.79861727  0.79861727  0.78187926
   0.20138273  0.20138273  0.21812074
   0.84981967  0.84981967  0.10947804
   0.15018033  0.15018033  0.89052196
ni3al                                   
           1
     4.579871   -3.457219    0.000000
     4.579871    3.457219    0.000000
    -1.927070    0.000000    3.723679
   O 
     8
Direct configuration=   122
   0.75485664  0.19413023  0.83625961
   0.80586977  0.24514336  0.16374039
   0.24514336  0.80586977  0.16374039
   0.19413023  0.75485664  0.83625961
   0.79866556  0.79866556  0.78144142
   0.20133444  0.20133444  0.21855858
   0.84972571  0.84972571  0.10906607
   0.15027429  0.15027429  0.89093393
ni3al                                   
           1
     4.580000   -3.457117    0.000000
     4.580000    3.457117    0.000000
    -1.927125    0.000000    3.723679
   O 
     8
Direct configuration=   123
   0.75485544  0.19414276  0.83624532
   0.80585724  0.24514456  0.16375468
   0.24514456  0.80585724  0.16375468
   0.19414276  0.75485544  0.83624532
   0.79867628  0.79867628  0.78142181
   0.20132372  0.20132372  0.21857819
   0.84970955  0.84970955  0.10898502
   0.15029045  0.15029045  0.89101498
ni3al                                   
           1
     4.580649   -3.456602    0.000000
     4.580649    3.456602    0.000000
    -1.927398    0.000000    3.723679
   O 
     8
Direct configuration=   124
   0.75485622  0.19420648  0.83622671
   0.80579352  0.24514378  0.16377329
   0.24514378  0.80579352  0.16377329
   0.19420648  0.75485622  0.83622671
   0.79870597  0.79870597  0.78122903
   0.20129403  0.20129403  0.21877097
   0.84965872  0.84965872  0.10875317
   0.15034128  0.15034128  0.89124683
ni3al                                   
           1
     4.580881   -3.456494    0.000000
     4.580881    3.456494    0.000000
    -1.927495    0.000000    3.723679
   O 
     8
Direct configuration=   125
   0.75486573  0.19424278  0.83629265
   0.80575722  0.24513427  0.16370735
   0.24513427  0.80575722  0.16370735
   0.19424278  0.75486573  0.83629265
   0.79871921  0.79871921  0.78116541
   0.20128079  0.20128079  0.21883459
   0.84963299  0.84963299  0.10862200
   0.15036701  0.15036701  0.89137800
ni3al                                   
           1
     4.582476   -3.455559    0.000000
     4.582476    3.455559    0.000000
    -1.928166    0.000000    3.723679
   O 
     8
Direct configuration=   126
   0.75486805  0.19443240  0.83629559
   0.80556760  0.24513195  0.16370441
   0.24513195  0.80556760  0.16370441
   0.19443240  0.75486805  0.83629559
   0.79877993  0.79877993  0.78046859
   0.20122007  0.20122007  0.21953141
   0.84948506  0.84948506  0.10793379
   0.15051494  0.15051494  0.89206621
ni3al                                   
           1
     4.582550   -3.455289    0.000000
     4.582550    3.455289    0.000000
    -1.928198    0.000000    3.723679
   O 
     8
Direct configuration=   127
   0.75488909  0.19445582  0.83631894
   0.80554418  0.24511091  0.16368106
   0.24511091  0.80554418  0.16368106
   0.19445582  0.75488909  0.83631894
   0.79879811  0.79879811  0.78045526
   0.20120189  0.20120189  0.21954474
   0.84948008  0.84948008  0.10794335
   0.15051992  0.15051992  0.89205665
ni3al                                   
           1
     4.583046   -3.454921    0.000000
     4.583046    3.454921    0.000000
    -1.928406    0.000000    3.723679
   O 
     8
Direct configuration=   128
   0.75489444  0.19452000  0.83630377
   0.80548000  0.24510556  0.16369623
   0.24510556  0.80548000  0.16369623
   0.19452000  0.75489444  0.83630377
   0.79882962  0.79882962  0.78026320
   0.20117038  0.20117038  0.21973680
   0.84942498  0.84942498  0.10768985
   0.15057502  0.15057502  0.89231015
ni3al                                   
           1
     4.583570   -3.454403    0.000000
     4.583570    3.454403    0.000000
    -1.928627    0.000000    3.723679
   O 
     8
Direct configuration=   129
   0.75490658  0.19458199  0.83634675
   0.80541801  0.24509342  0.16365325
   0.24509342  0.80541801  0.16365325
   0.19458199  0.75490658  0.83634675
   0.79885641  0.79885641  0.78009635
   0.20114359  0.20114359  0.21990365
   0.84938077  0.84938077  0.10747234
   0.15061923  0.15061923  0.89252766
ni3al                                   
           1
     4.583712   -3.454311    0.000000
     4.583712    3.454311    0.000000
    -1.928687    0.000000    3.723679
   O 
     8
Direct configuration=   130
   0.75490702  0.19459565  0.83633935
   0.80540435  0.24509298  0.16366065
   0.24509298  0.80540435  0.16366065
   0.19459565  0.75490702  0.83633935
   0.79885996  0.79885996  0.78002708
   0.20114004  0.20114004  0.21997292
   0.84937230  0.84937230  0.10743864
   0.15062770  0.15062770  0.89256136
ni3al                                   
           1
     4.583434   -3.454677    0.000000
     4.583434    3.454677    0.000000
    -1.928570    0.000000    3.723679
   O 
     8
Direct configuration=   131
   0.75490236  0.19455850  0.83633879
   0.80544150  0.24509764  0.16366121
   0.24509764  0.80544150  0.16366121
   0.19455850  0.75490236  0.83633879
   0.79884068  0.79884068  0.78011923
   0.20115932  0.20115932  0.21988077
   0.84940054  0.84940054  0.10756902
   0.15059946  0.15059946  0.89243098
ni3al                                   
           1
     4.582682   -3.455685    0.000000
     4.582682    3.455685    0.000000
    -1.928253    0.000000    3.723679
   O 
     8
Direct configuration=   132
   0.75488775  0.19445542  0.83629689
   0.80554458  0.24511225  0.16370311
   0.24511225  0.80554458  0.16370311
   0.19445542  0.75488775  0.83629689
   0.79880308  0.79880308  0.78043119
   0.20119692  0.20119692  0.21956881
   0.84946405  0.84946405  0.10783958
   0.15053595  0.15053595  0.89216042
ni3al                                   
           1
     4.580984   -3.457670    0.000000
     4.580984    3.457670    0.000000
    -1.927539    0.000000    3.723679
   O 
     8
Direct configuration=   133
   0.75487548  0.19425338  0.83625135
   0.80574662  0.24512452  0.16374865
   0.24512452  0.80574662  0.16374865
   0.19425338  0.75487548  0.83625135
   0.79872491  0.79872491  0.78100540
   0.20127509  0.20127509  0.21899460
   0.84960232  0.84960232  0.10846056
   0.15039768  0.15039768  0.89153944
ni3al                                   
           1
     4.584898   -3.452841    0.000000
     4.584898    3.452841    0.000000
    -1.929186    0.000000    3.723679
   O 
     8
Direct configuration=   134
   0.75490004  0.19474602  0.83629279
   0.80525398  0.24509996  0.16370721
   0.24509996  0.80525398  0.16370721
   0.19474602  0.75490004  0.83629279
   0.79891391  0.79891391  0.77954629
   0.20108609  0.20108609  0.22045371
   0.84926906  0.84926906  0.10700086
   0.15073094  0.15073094  0.89299914
ni3al                                   
           1
     4.584933   -3.452844    0.000000
     4.584933    3.452844    0.000000
    -1.929200    0.000000    3.723679
   O 
     8
Direct configuration=   135
   0.75491071  0.19476096  0.83636238
   0.80523904  0.24508929  0.16363762
   0.24508929  0.80523904  0.16363762
   0.19476096  0.75491071  0.83636238
   0.79892511  0.79892511  0.77959526
   0.20107489  0.20107489  0.22040474
   0.84925697  0.84925697  0.10692582
   0.15074303  0.15074303  0.89307418
ni3al                                   
           1
     4.585555   -3.452529    0.000000
     4.585555    3.452529    0.000000
    -1.929462    0.000000    3.723679
   O 
     8
Direct configuration=   136
   0.75491210  0.19481828  0.83637422
   0.80518172  0.24508790  0.16362578
   0.24508790  0.80518172  0.16362578
   0.19481828  0.75491210  0.83637422
   0.79894510  0.79894510  0.77942565
   0.20105490  0.20105490  0.22057435
   0.84921871  0.84921871  0.10675462
   0.15078129  0.15078129  0.89324538
ni3al                                   
           1
     4.585995   -3.452090    0.000000
     4.585995    3.452090    0.000000
    -1.929647    0.000000    3.723679
   O 
     8
Direct configuration=   137
   0.75491339  0.19487249  0.83637449
   0.80512751  0.24508661  0.16362551
   0.24508661  0.80512751  0.16362551
   0.19487249  0.75491339  0.83637449
   0.79897020  0.79897020  0.77924064
   0.20102980  0.20102980  0.22075936
   0.84917618  0.84917618  0.10654208
   0.15082382  0.15082382  0.89345792
ni3al                                   
           1
     4.586140   -3.451978    0.000000
     4.586140    3.451978    0.000000
    -1.929708    0.000000    3.723679
   O 
     8
Direct configuration=   138
   0.75490987  0.19488271  0.83634838
   0.80511729  0.24509013  0.16365162
   0.24509013  0.80511729  0.16365162
   0.19488271  0.75490987  0.83634838
   0.79897398  0.79897398  0.77917211
   0.20102602  0.20102602  0.22082789
   0.84916812  0.84916812  0.10650943
   0.15083188  0.15083188  0.89349057
ni3al                                   
           1
     4.585981   -3.451992    0.000000
     4.585981    3.451992    0.000000
    -1.929641    0.000000    3.723679
   O 
     8
Direct configuration=   139
   0.75491286  0.19487642  0.83637042
   0.80512358  0.24508714  0.16362958
   0.24508714  0.80512358  0.16362958
   0.19487642  0.75491286  0.83637042
   0.79896978  0.79896978  0.77921534
   0.20103022  0.20103022  0.22078466
   0.84917482  0.84917482  0.10653831
   0.15082518  0.15082518  0.89346169
ni3al                                   
           1
     4.586559   -3.451696    0.000000
     4.586559    3.451696    0.000000
    -1.929884    0.000000    3.723679
   O 
     8
Direct configuration=   140
   0.75491515  0.19494019  0.83636563
   0.80505981  0.24508485  0.16363437
   0.24508485  0.80505981  0.16363437
   0.19494019  0.75491515  0.83636563
   0.79900815  0.79900815  0.77908407
   0.20099185  0.20099185  0.22091593
   0.84912181  0.84912181  0.10628018
   0.15087819  0.15087819  0.89371982
ni3al                                   
           1
     4.586666   -3.451575    0.000000
     4.586666    3.451575    0.000000
    -1.929929    0.000000    3.723679
   O 
     8
Direct configuration=   141
   0.75491804  0.19495506  0.83638391
   0.80504494  0.24508196  0.16361609
   0.24508196  0.80504494  0.16361609
   0.19495506  0.75491804  0.83638391
   0.79900586  0.79900586  0.77898997
   0.20099414  0.20099414  0.22101003
   0.84912042  0.84912042  0.10628527
   0.15087958  0.15087958  0.89371473
ni3al                                   
           1
     4.586805   -3.451344    0.000000
     4.586805    3.451344    0.000000
    -1.929988    0.000000    3.723679
   O 
     8
Direct configuration=   142
   0.75492534  0.19497923  0.83642653
   0.80502077  0.24507466  0.16357347
   0.24507466  0.80502077  0.16357347
   0.19497923  0.75492534  0.83642653
   0.79901561  0.79901561  0.77894497
   0.20098439  0.20098439  0.22105503
   0.84910578  0.84910578  0.10621087
   0.15089422  0.15089422  0.89378913
ni3al                                   
           1
     4.586852   -3.451308    0.000000
     4.586852    3.451308    0.000000
    -1.930008    0.000000    3.723679
   O 
     8
Direct configuration=   143
   0.75492410  0.19498164  0.83641738
   0.80501836  0.24507590  0.16358262
   0.24507590  0.80501836  0.16358262
   0.19498164  0.75492410  0.83641738
   0.79901696  0.79901696  0.77893092
   0.20098304  0.20098304  0.22106908
   0.84910309  0.84910309  0.10619942
   0.15089691  0.15089691  0.89380058
ni3al                                   
           1
     4.587228   -3.450719    0.000000
     4.587228    3.450719    0.000000
    -1.930166    0.000000    3.723679
   O 
     8
Direct configuration=   144
   0.75492890  0.19510500  0.83644248
   0.80489500  0.24507110  0.16355752
   0.24507110  0.80489500  0.16355752
   0.19510500  0.75492890  0.83644248
   0.79904787  0.79904787  0.77856522
   0.20095213  0.20095213  0.22143478
   0.84902561  0.84902561  0.10585198
   0.15097439  0.15097439  0.89414802
ni3al                                   
           1
     4.587395   -3.450639    0.000000
     4.587395    3.450639    0.000000
    -1.930236    0.000000    3.723679
   O 
     8
Direct configuration=   145
   0.75493048  0.19513667  0.83645054
   0.80486333  0.24506952  0.16354946
   0.24506952  0.80486333  0.16354946
   0.19513667  0.75493048  0.83645054
   0.79905891  0.79905891  0.77847200
   0.20094109  0.20094109  0.22152800
   0.84900080  0.84900080  0.10574188
   0.15099920  0.15099920  0.89425812
ni3al                                   
           1
     4.588498   -3.449637    0.000000
     4.588498    3.449637    0.000000
    -1.930700    0.000000    3.723679
   O 
     8
Direct configuration=   146
   0.75493468  0.19527083  0.83636399
   0.80472917  0.24506532  0.16363601
   0.24506532  0.80472917  0.16363601
   0.19527083  0.75493468  0.83636399
   0.79913783  0.79913783  0.77802275
   0.20086217  0.20086217  0.22197725
   0.84887230  0.84887230  0.10522302
   0.15112770  0.15112770  0.89477698
ni3al                                   
           1
     4.588682   -3.449460    0.000000
     4.588682    3.449460    0.000000
    -1.930778    0.000000    3.723679
   O 
     8
Direct configuration=   147
   0.75495396  0.19531422  0.83647739
   0.80468578  0.24504604  0.16352261
   0.24504604  0.80468578  0.16352261
   0.19531422  0.75495396  0.83647739
   0.79915277  0.79915277  0.77796104
   0.20084723  0.20084723  0.22203896
   0.84884552  0.84884552  0.10509919
   0.15115448  0.15115448  0.89490081
ni3al                                   
           1
     4.589797   -3.449231    0.000000
     4.589797    3.449231    0.000000
    -1.931247    0.000000    3.723679
   O 
     8
Direct configuration=   148
   0.75495645  0.19535571  0.83646569
   0.80464429  0.24504355  0.16353431
   0.24504355  0.80464429  0.16353431
   0.19535571  0.75495645  0.83646569
   0.79917967  0.79917967  0.77786054
   0.20082033  0.20082033  0.22213946
   0.84879177  0.84879177  0.10482747
   0.15120823  0.15120823  0.89517253
ni3al                                   
           1
     4.589884   -3.449053    0.000000
     4.589884    3.449053    0.000000
    -1.931283    0.000000    3.723679
   O 
     8
Direct configuration=   149
   0.75496373  0.19537011  0.83649249
   0.80462989  0.24503627  0.16350751
   0.24503627  0.80462989  0.16350751
   0.19537011  0.75496373  0.83649249
   0.79916995  0.79916995  0.77771403
   0.20083005  0.20083005  0.22228597
   0.84879700  0.84879700  0.10487518
   0.15120300  0.15120300  0.89512482
ni3al                                   
           1
     4.590344   -3.448410    0.000000
     4.590344    3.448410    0.000000
    -1.931477    0.000000    3.723679
   O 
     8
Direct configuration=   150
   0.75497447  0.19541241  0.83647432
   0.80458759  0.24502553  0.16352568
   0.24502553  0.80458759  0.16352568
   0.19541241  0.75497447  0.83647432
   0.79919786  0.79919786  0.77755864
   0.20080214  0.20080214  0.22244136
   0.84874905  0.84874905  0.10463216
   0.15125095  0.15125095  0.89536784
ni3al                                   
           1
     4.590979   -3.448291    0.000000
     4.590979    3.448291    0.000000
    -1.931744    0.000000    3.723679
   O 
     8
Direct configuration=   151
   0.75497483  0.19543927  0.83644096
   0.80456073  0.24502517  0.16355904
   0.24502517  0.80456073  0.16355904
   0.19543927  0.75497483  0.83644096
   0.79920840  0.79920840  0.77743672
   0.20079160  0.20079160  0.22256328
   0.84871971  0.84871971  0.10450988
   0.15128029  0.15128029  0.89549012
ni3al                                   
           1
     4.590802   -3.448241    0.000000
     4.590802    3.448241    0.000000
    -1.931670    0.000000    3.723679
   O 
     8
Direct configuration=   152
   0.75498246  0.19544078  0.83648366
   0.80455922  0.24501754  0.16351634
   0.24501754  0.80455922  0.16351634
   0.19544078  0.75498246  0.83648366
   0.79920806  0.79920806  0.77746107
   0.20079194  0.20079194  0.22253893
   0.84872389  0.84872389  0.10452281
   0.15127611  0.15127611  0.89547719
ni3al                                   
           1
     4.591420   -3.447593    0.000000
     4.591420    3.447593    0.000000
    -1.931930    0.000000    3.723679
   O 
     8
Direct configuration=   153
   0.75500340  0.19550654  0.83649638
   0.80449346  0.24499660  0.16350362
   0.24499660  0.80449346  0.16350362
   0.19550654  0.75500340  0.83649638
   0.79923038  0.79923038  0.77722788
   0.20076962  0.20076962  0.22277212
   0.84866919  0.84866919  0.10429212
   0.15133081  0.15133081  0.89570788
ni3al                                   
           1
     4.591182   -3.447897    0.000000
     4.591182    3.447897    0.000000
    -1.931830    0.000000    3.723679
   O 
     8
Direct configuration=   154
   0.75499563  0.19547833  0.83649736
   0.80452167  0.24500437  0.16350264
   0.24500437  0.80452167  0.16350264
   0.19547833  0.75499563  0.83649736
   0.79921765  0.79921765  0.77730487
   0.20078235  0.20078235  0.22269513
   0.84869721  0.84869721  0.10442768
   0.15130279  0.15130279  0.89557232
ni3al                                   
           1
     4.590431   -3.448335    0.000000
     4.590431    3.448335    0.000000
    -1.931514    0.000000    3.723679
   O 
     8
Direct configuration=   155
   0.75498222  0.19541648  0.83647594
   0.80458352  0.24501778  0.16352406
   0.24501778  0.80458352  0.16352406
   0.19541648  0.75498222  0.83647594
   0.79920710  0.79920710  0.77756027
   0.20079290  0.20079290  0.22243973
   0.84874765  0.84874765  0.10465990
   0.15125235  0.15125235  0.89534010
ni3al                                   
           1
     4.582250   -3.454395    0.000000
     4.582250    3.454395    0.000000
    -1.928071    0.000000    3.723679
   O 
     8
Direct configuration=   156
   0.75477517  0.19465338  0.83634568
   0.80534662  0.24522483  0.16365432
   0.24522483  0.80534662  0.16365432
   0.19465338  0.75477517  0.83634568
   0.79899954  0.79899954  0.78048331
   0.20100046  0.20100046  0.21951669
   0.84942369  0.84942369  0.10781453
   0.15057631  0.15057631  0.89218547
ni3al                                   
           1
     4.580916   -3.455326    0.000000
     4.580916    3.455326    0.000000
    -1.927510    0.000000    3.723679
   O 
     8
Direct configuration=   157
   0.75473665  0.19452625  0.83629599
   0.80547375  0.24526335  0.16370401
   0.24526335  0.80547375  0.16370401
   0.19452625  0.75473665  0.83629599
   0.79895892  0.79895892  0.78091965
   0.20104108  0.20104108  0.21908035
   0.84953620  0.84953620  0.10831861
   0.15046380  0.15046380  0.89168139
ni3al                                   
           1
     4.580830   -3.455251    0.000000
     4.580830    3.455251    0.000000
    -1.927474    0.000000    3.723679
   O 
     8
Direct configuration=   158
   0.75469968  0.19448607  0.83628449
   0.80551393  0.24530032  0.16371551
   0.24530032  0.80551393  0.16371551
   0.19448607  0.75469968  0.83628449
   0.79886681  0.79886681  0.78079454
   0.20113319  0.20113319  0.21920546
   0.84960725  0.84960725  0.10836715
   0.15039275  0.15039275  0.89163285
ni3al                                   
           1
     4.581272   -3.454756    0.000000
     4.581272    3.454756    0.000000
    -1.927660    0.000000    3.723679
   O 
     8
Direct configuration=   159
   0.75470721  0.19453259  0.83625691
   0.80546741  0.24529279  0.16374309
   0.24529279  0.80546741  0.16374309
   0.19453259  0.75470721  0.83625691
   0.79889180  0.79889180  0.78071259
   0.20110820  0.20110820  0.21928741
   0.84955185  0.84955185  0.10808369
   0.15044815  0.15044815  0.89191631
ni3al                                   
           1
     4.581740   -3.454395    0.000000
     4.581740    3.454395    0.000000
    -1.927857    0.000000    3.723679
   O 
     8
Direct configuration=   160
   0.75472443  0.19458122  0.83631652
   0.80541878  0.24527557  0.16368348
   0.24527557  0.80541878  0.16368348
   0.19458122  0.75472443  0.83631652
   0.79888860  0.79888860  0.78055477
   0.20111140  0.20111140  0.21944523
   0.84952988  0.84952988  0.10798221
   0.15047012  0.15047012  0.89201779
ni3al                                   
           1
     4.581952   -3.454236    0.000000
     4.581952    3.454236    0.000000
    -1.927946    0.000000    3.723679
   O 
     8
Direct configuration=   161
   0.75472515  0.19459544  0.83629978
   0.80540456  0.24527485  0.16370022
   0.24527485  0.80540456  0.16370022
   0.19459544  0.75472515  0.83629978
   0.79888862  0.79888862  0.78049844
   0.20111138  0.20111138  0.21950156
   0.84951966  0.84951966  0.10793244
   0.15048034  0.15048034  0.89206756
ni3al                                   
           1
     4.582766   -3.453606    0.000000
     4.582766    3.453606    0.000000
    -1.928288    0.000000    3.723679
   O 
     8
Direct configuration=   162
   0.75473427  0.19465363  0.83627960
   0.80534637  0.24526573  0.16372040
   0.24526573  0.80534637  0.16372040
   0.19465363  0.75473427  0.83627960
   0.79889416  0.79889416  0.78024731
   0.20110584  0.20110584  0.21975269
   0.84948093  0.84948093  0.10777336
   0.15051907  0.15051907  0.89222664
ni3al                                   
           1
     4.582482   -3.454610    0.000000
     4.582482    3.454610    0.000000
    -1.928169    0.000000    3.723679
   O 
     8
Direct configuration=   163
   0.75473299  0.19462159  0.83629835
   0.80537841  0.24526701  0.16370165
   0.24526701  0.80537841  0.16370165
   0.19462159  0.75473299  0.83629835
   0.79889691  0.79889691  0.78036592
   0.20110309  0.20110309  0.21963408
   0.84948591  0.84948591  0.10778682
   0.15051409  0.15051409  0.89221318
ni3al                                   
           1
     4.582932   -3.455598    0.000000
     4.582932    3.455598    0.000000
    -1.928358    0.000000    3.723679
   O 
     8
Direct configuration=   164
   0.75478394  0.19466100  0.83631454
   0.80533900  0.24521606  0.16368546
   0.24521606  0.80533900  0.16368546
   0.19466100  0.75478394  0.83631454
   0.79893414  0.79893414  0.78007845
   0.20106586  0.20106586  0.21992155
   0.84942097  0.84942097  0.10747046
   0.15057903  0.15057903  0.89252954
ni3al                                   
           1
     4.583116   -3.453771    0.000000
     4.583116    3.453771    0.000000
    -1.928436    0.000000    3.723679
   O 
     8
Direct configuration=   165
   0.75474604  0.19468730  0.83635841
   0.80531270  0.24525396  0.16364159
   0.24525396  0.80531270  0.16364159
   0.19468730  0.75474604  0.83635841
   0.79890479  0.79890479  0.78017707
   0.20109521  0.20109521  0.21982293
   0.84944990  0.84944990  0.10761397
   0.15055010  0.15055010  0.89238603
ni3al                                   
           1
     4.583148   -3.453870    0.000000
     4.583148    3.453870    0.000000
    -1.928449    0.000000    3.723679
   O 
     8
Direct configuration=   166
   0.75476600  0.19469164  0.83631711
   0.80530836  0.24523400  0.16368289
   0.24523400  0.80530836  0.16368289
   0.19469164  0.75476600  0.83631711
   0.79892247  0.79892247  0.78011252
   0.20107753  0.20107753  0.21988748
   0.84943349  0.84943349  0.10753445
   0.15056651  0.15056651  0.89246555
ni3al                                   
           1
     4.583715   -3.453795    0.000000
     4.583715    3.453795    0.000000
    -1.928688    0.000000    3.723679
   O 
     8
Direct configuration=   167
   0.75480363  0.19475140  0.83634506
   0.80524860  0.24519637  0.16365494
   0.24519637  0.80524860  0.16365494
   0.19475140  0.75480363  0.83634506
   0.79896247  0.79896247  0.77993811
   0.20103753  0.20103753  0.22006189
   0.84937390  0.84937390  0.10724345
   0.15062610  0.15062610  0.89275655
ni3al                                   
           1
     4.584256   -3.452659    0.000000
     4.584256    3.452659    0.000000
    -1.928915    0.000000    3.723679
   O 
     8
Direct configuration=   168
   0.75478766  0.19480494  0.83635292
   0.80519506  0.24521234  0.16364708
   0.24521234  0.80519506  0.16364708
   0.19480494  0.75478766  0.83635292
   0.79895698  0.79895698  0.77979413
   0.20104302  0.20104302  0.22020587
   0.84936018  0.84936018  0.10720194
   0.15063982  0.15063982  0.89279806
ni3al                                   
           1
     4.584801   -3.452522    0.000000
     4.584801    3.452522    0.000000
    -1.929145    0.000000    3.723679
   O 
     8
Direct configuration=   169
   0.75479169  0.19483629  0.83628307
   0.80516371  0.24520831  0.16371693
   0.24520831  0.80516371  0.16371693
   0.19483629  0.75479169  0.83628307
   0.79897810  0.79897810  0.77964191
   0.20102190  0.20102190  0.22035809
   0.84931637  0.84931637  0.10698736
   0.15068363  0.15068363  0.89301264
ni3al                                   
           1
     4.584871   -3.452464    0.000000
     4.584871    3.452464    0.000000
    -1.929174    0.000000    3.723679
   O 
     8
Direct configuration=   170
   0.75480577  0.19485606  0.83636110
   0.80514394  0.24519423  0.16363890
   0.24519423  0.80514394  0.16363890
   0.19485606  0.75480577  0.83636110
   0.79898075  0.79898075  0.77960267
   0.20101925  0.20101925  0.22039733
   0.84930970  0.84930970  0.10695598
   0.15069030  0.15069030  0.89304402
ni3al                                   
           1
     4.585793   -3.452094    0.000000
     4.585793    3.452094    0.000000
    -1.929562    0.000000    3.723679
   O 
     8
Direct configuration=   171
   0.75481832  0.19492034  0.83638671
   0.80507966  0.24518168  0.16361329
   0.24518168  0.80507966  0.16361329
   0.19492034  0.75481832  0.83638671
   0.79900700  0.79900700  0.77944196
   0.20099300  0.20099300  0.22055804
   0.84925724  0.84925724  0.10670840
   0.15074276  0.15074276  0.89329160
ni3al                                   
           1
     4.585932   -3.451828    0.000000
     4.585932    3.451828    0.000000
    -1.929621    0.000000    3.723679
   O 
     8
Direct configuration=   172
   0.75482078  0.19493872  0.83638433
   0.80506128  0.24517922  0.16361567
   0.24517922  0.80506128  0.16361567
   0.19493872  0.75482078  0.83638433
   0.79900578  0.79900578  0.77931144
   0.20099422  0.20099422  0.22068856
   0.84925120  0.84925120  0.10669204
   0.15074880  0.15074880  0.89330796
ni3al                                   
           1
     4.586304   -3.451361    0.000000
     4.586304    3.451361    0.000000
    -1.929777    0.000000    3.723679
   O 
     8
Direct configuration=   173
   0.75482615  0.19497746  0.83638275
   0.80502254  0.24517385  0.16361725
   0.24517385  0.80502254  0.16361725
   0.19497746  0.75482615  0.83638275
   0.79902716  0.79902716  0.77919731
   0.20097284  0.20097284  0.22080269
   0.84921437  0.84921437  0.10650844
   0.15078563  0.15078563  0.89349156
ni3al                                   
           1
     4.587349   -3.450793    0.000000
     4.587349    3.450793    0.000000
    -1.930217    0.000000    3.723679
   O 
     8
Direct configuration=   174
   0.75483076  0.19505279  0.83637241
   0.80494721  0.24516924  0.16362759
   0.24516924  0.80494721  0.16362759
   0.19505279  0.75483076  0.83637241
   0.79906017  0.79906017  0.77894051
   0.20093983  0.20093983  0.22105949
   0.84914879  0.84914879  0.10621949
   0.15085121  0.15085121  0.89378051
ni3al                                   
           1
     4.587485   -3.450517    0.000000
     4.587485    3.450517    0.000000
    -1.930274    0.000000    3.723679
   O 
     8
Direct configuration=   175
   0.75484115  0.19507809  0.83642102
   0.80492191  0.24515885  0.16357898
   0.24515885  0.80492191  0.16357898
   0.19507809  0.75484115  0.83642102
   0.79906833  0.79906833  0.77886325
   0.20093167  0.20093167  0.22113675
   0.84913377  0.84913377  0.10613934
   0.15086623  0.15086623  0.89386066
ni3al                                   
           1
     4.591364   -3.447263    0.000000
     4.591364    3.447263    0.000000
    -1.931906    0.000000    3.723679
   O 
     8
Direct configuration=   176
   0.75488505  0.19542461  0.83646254
   0.80457539  0.24511495  0.16353746
   0.24511495  0.80457539  0.16353746
   0.19542461  0.75488505  0.83646254
   0.79921311  0.79921311  0.77766658
   0.20078689  0.20078689  0.22233342
   0.84884646  0.84884646  0.10482766
   0.15115354  0.15115354  0.89517234
ni3al                                   
           1
     4.586950   -3.450938    0.000000
     4.586950    3.450938    0.000000
    -1.930049    0.000000    3.723679
   O 
     8
Direct configuration=   177
   0.75483050  0.19502313  0.83639078
   0.80497687  0.24516950  0.16360922
   0.24516950  0.80497687  0.16360922
   0.19502313  0.75483050  0.83639078
   0.79905400  0.79905400  0.77906834
   0.20094600  0.20094600  0.22093166
   0.84916820  0.84916820  0.10627575
   0.15083180  0.15083180  0.89372425
ni3al                                   
           1
     4.588909   -3.449467    0.000000
     4.588909    3.449467    0.000000
    -1.930873    0.000000    3.723679
   O 
     8
Direct configuration=   178
   0.75485814  0.19520326  0.83643433
   0.80479674  0.24514186  0.16356567
   0.24514186  0.80479674  0.16356567
   0.19520326  0.75485814  0.83643433
   0.79912500  0.79912500  0.77848131
   0.20087500  0.20087500  0.22151869
   0.84902770  0.84902770  0.10566275
   0.15097230  0.15097230  0.89433725
ni3al                                   
           1
     4.590199   -3.448498    0.000000
     4.590199    3.448498    0.000000
    -1.931416    0.000000    3.723679
   O 
     8
Direct configuration=   179
   0.75487288  0.19531899  0.83644016
   0.80468101  0.24512712  0.16355984
   0.24512712  0.80468101  0.16355984
   0.19531899  0.75487288  0.83644016
   0.79917407  0.79917407  0.77811224
   0.20082593  0.20082593  0.22188776
   0.84893238  0.84893238  0.10524312
   0.15106762  0.15106762  0.89475688
ni3al                                   
           1
     4.591611   -3.447477    0.000000
     4.591611    3.447477    0.000000
    -1.932010    0.000000    3.723679
   O 
     8
Direct configuration=   180
   0.75489218  0.19544608  0.83648104
   0.80455392  0.24510782  0.16351896
   0.24510782  0.80455392  0.16351896
   0.19544608  0.75489218  0.83648104
   0.79922203  0.79922203  0.77767633
   0.20077797  0.20077797  0.22232367
   0.84882183  0.84882183  0.10474424
   0.15117817  0.15117817  0.89525576
ni3al                                   
           1
     4.619836   -3.426392    0.000000
     4.619836    3.426392    0.000000
    -1.943886    0.000000    3.723679
   O 
     8
Direct configuration=   181
   0.75531538  0.19805289  0.83699428
   0.80194711  0.24468462  0.16300572
   0.24468462  0.80194711  0.16300572
   0.19805289  0.75531538  0.83699428
   0.80027280  0.80027280  0.76916065
   0.19972720  0.19972720  0.23083935
   0.84662170  0.84662170  0.09510295
   0.15337830  0.15337830  0.90489705
ni3al                                   
           1
     4.601777   -3.439787    0.000000
     4.601777    3.439787    0.000000
    -1.936288    0.000000    3.723679
   O 
     8
Direct configuration=   182
   0.75504829  0.19641720  0.83669936
   0.80358280  0.24495171  0.16330064
   0.24495171  0.80358280  0.16330064
   0.19641720  0.75504829  0.83669936
   0.79961030  0.79961030  0.77453192
   0.20038970  0.20038970  0.22546808
   0.84802464  0.84802464  0.10114085
   0.15197536  0.15197536  0.89885915
ni3al                                   
           1
     4.610693   -3.433083    0.000000
     4.610693    3.433083    0.000000
    -1.940039    0.000000    3.723679
   O 
     8
Direct configuration=   183
   0.75517460  0.19726891  0.83685949
   0.80273109  0.24482540  0.16314051
   0.24482540  0.80273109  0.16314051
   0.19726891  0.75517460  0.83685949
   0.79993205  0.79993205  0.77171641
   0.20006795  0.20006795  0.22828359
   0.84733160  0.84733160  0.09800344
   0.15266840  0.15266840  0.90199656
ni3al                                   
           1
     4.613692   -3.430779    0.000000
     4.613692    3.430779    0.000000
    -1.941301    0.000000    3.723679
   O 
     8
Direct configuration=   184
   0.75521262  0.19758744  0.83688785
   0.80241256  0.24478738  0.16311215
   0.24478738  0.80241256  0.16311215
   0.19758744  0.75521262  0.83688785
   0.80005860  0.80005860  0.77075751
   0.19994140  0.19994140  0.22924249
   0.84708609  0.84708609  0.09683487
   0.15291391  0.15291391  0.90316513
ni3al                                   
           1
     4.614282   -3.430331    0.000000
     4.614282    3.430331    0.000000
    -1.941549    0.000000    3.723679
   O 
     8
Direct configuration=   185
   0.75522653  0.19765842  0.83694095
   0.80234158  0.24477347  0.16305905
   0.24477347  0.80234158  0.16305905
   0.19765842  0.75522653  0.83694095
   0.80008093  0.80008093  0.77052822
   0.19991907  0.19991907  0.22947178
   0.84704207  0.84704207  0.09663403
   0.15295793  0.15295793  0.90336597
ni3al                                   
           1
     4.614614   -3.430060    0.000000
     4.614614    3.430060    0.000000
    -1.941689    0.000000    3.723679
   O 
     8
Direct configuration=   186
   0.75522288  0.19771535  0.83690167
   0.80228465  0.24477712  0.16309833
   0.24477712  0.80228465  0.16309833
   0.19771535  0.75522288  0.83690167
   0.80010385  0.80010385  0.77026152
   0.19989615  0.19989615  0.22973848
   0.84701392  0.84701392  0.09647872
   0.15298608  0.15298608  0.90352128
ni3al                                   
           1
     4.618932   -3.426738    0.000000
     4.618932    3.426738    0.000000
    -1.943506    0.000000    3.723679
   O 
     8
Direct configuration=   187
   0.75529057  0.19819901  0.83704940
   0.80180099  0.24470943  0.16295060
   0.24470943  0.80180099  0.16295060
   0.19819901  0.75529057  0.83704940
   0.80031338  0.80031338  0.76881443
   0.19968662  0.19968662  0.23118557
   0.84664708  0.84664708  0.09470241
   0.15335292  0.15335292  0.90529759
ni3al                                   
           1
     4.619608   -3.426168    0.000000
     4.619608    3.426168    0.000000
    -1.943790    0.000000    3.723679
   O 
     8
Direct configuration=   188
   0.75530398  0.19832122  0.83706820
   0.80167878  0.24469602  0.16293180
   0.24469602  0.80167878  0.16293180
   0.19832122  0.75530398  0.83706820
   0.80037545  0.80037545  0.76852407
   0.19962455  0.19962455  0.23147593
   0.84658454  0.84658454  0.09434538
   0.15341546  0.15341546  0.90565462
ni3al                                   
           1
     4.619842   -3.426025    0.000000
     4.619842    3.426025    0.000000
    -1.943889    0.000000    3.723679
   O 
     8
Direct configuration=   189
   0.75530713  0.19835859  0.83708899
   0.80164141  0.24469287  0.16291101
   0.24469287  0.80164141  0.16291101
   0.19835859  0.75530713  0.83708899
   0.80038948  0.80038948  0.76841404
   0.19961052  0.19961052  0.23158596
   0.84656705  0.84656705  0.09424596
   0.15343295  0.15343295  0.90575404
ni3al                                   
           1
     4.621452   -3.424868    0.000000
     4.621452    3.424868    0.000000
    -1.944566    0.000000    3.723679
   O 
     8
Direct configuration=   190
   0.75531227  0.19861150  0.83712322
   0.80138850  0.24468773  0.16287678
   0.24468773  0.80138850  0.16287678
   0.19861150  0.75531227  0.83712322
   0.80050738  0.80050738  0.76771593
   0.19949262  0.19949262  0.23228407
   0.84642956  0.84642956  0.09342268
   0.15357044  0.15357044  0.90657732
ni3al                                   
           1
     4.620466   -3.425614    0.000000
     4.620466    3.425614    0.000000
    -1.944151    0.000000    3.723679
   O 
     8
Direct configuration=   191
   0.75530908  0.19847564  0.83713252
   0.80152436  0.24469092  0.16286748
   0.24469092  0.80152436  0.16286748
   0.19847564  0.75530908  0.83713252
   0.80044994  0.80044994  0.76815940
   0.19955006  0.19955006  0.23184060
   0.84650999  0.84650999  0.09386218
   0.15349001  0.15349001  0.90613782
ni3al                                   
           1
     4.620568   -3.425558    0.000000
     4.620568    3.425558    0.000000
    -1.944194    0.000000    3.723679
   O 
     8
Direct configuration=   192
   0.75530671  0.19848797  0.83711827
   0.80151203  0.24469329  0.16288173
   0.24469329  0.80151203  0.16288173
   0.19848797  0.75530671  0.83711827
   0.80045266  0.80045266  0.76809337
   0.19954734  0.19954734  0.23190663
   0.84650769  0.84650769  0.09384974
   0.15349231  0.15349231  0.90615026
ni3al                                   
           1
     4.621153   -3.425036    0.000000
     4.621153    3.425036    0.000000
    -1.944441    0.000000    3.723679
   O 
     8
Direct configuration=   193
   0.75531368  0.19859898  0.83717403
   0.80140102  0.24468632  0.16282597
   0.24468632  0.80140102  0.16282597
   0.19859898  0.75531368  0.83717403
   0.80049743  0.80049743  0.76778590
   0.19950257  0.19950257  0.23221410
   0.84646353  0.84646353  0.09358542
   0.15353647  0.15353647  0.90641458
ni3al                                   
           1
     4.621490   -3.424933    0.000000
     4.621490    3.424933    0.000000
    -1.944582    0.000000    3.723679
   O 
     8
Direct configuration=   194
   0.75531129  0.19863024  0.83714983
   0.80136976  0.24468871  0.16285017
   0.24468871  0.80136976  0.16285017
   0.19863024  0.75531129  0.83714983
   0.80051971  0.80051971  0.76772215
   0.19948029  0.19948029  0.23227785
   0.84643742  0.84643742  0.09342800
   0.15356258  0.15356258  0.90657200
ni3al                                   
           1
     4.621893   -3.424694    0.000000
     4.621893    3.424694    0.000000
    -1.944752    0.000000    3.723679
   O 
     8
Direct configuration=   195
   0.75530457  0.19867491  0.83712466
   0.80132509  0.24469543  0.16287534
   0.24469543  0.80132509  0.16287534
   0.19867491  0.75530457  0.83712466
   0.80054466  0.80054466  0.76756337
   0.19945534  0.19945534  0.23243663
   0.84642076  0.84642076  0.09330127
   0.15357924  0.15357924  0.90669873
ni3al                                   
           1
     4.621954   -3.424673    0.000000
     4.621954    3.424673    0.000000
    -1.944778    0.000000    3.723679
   O 
     8
Direct configuration=   196
   0.75530786  0.19868465  0.83715051
   0.80131535  0.24469214  0.16284949
   0.24469214  0.80131535  0.16284949
   0.19868465  0.75530786  0.83715051
   0.80055095  0.80055095  0.76756539
   0.19944905  0.19944905  0.23243461
   0.84641533  0.84641533  0.09326221
   0.15358467  0.15358467  0.90673779
ni3al                                   
           1
     4.621603   -3.424631    0.000000
     4.621603    3.424631    0.000000
    -1.944630    0.000000    3.723679
   O 
     8
Direct configuration=   197
   0.75530660  0.19866247  0.83714308
   0.80133753  0.24469340  0.16285692
   0.24469340  0.80133753  0.16285692
   0.19866247  0.75530660  0.83714308
   0.80053914  0.80053914  0.76762620
   0.19946086  0.19946086  0.23237380
   0.84642227  0.84642227  0.09331800
   0.15357773  0.15357773  0.90668200
ni3al                                   
           1
     4.621267   -3.424239    0.000000
     4.621267    3.424239    0.000000
    -1.944488    0.000000    3.723679
   O 
     8
Direct configuration=   198
   0.75530392  0.19869778  0.83716955
   0.80130222  0.24469608  0.16283045
   0.24469608  0.80130222  0.16283045
   0.19869778  0.75530392  0.83716955
   0.80054088  0.80054088  0.76758519
   0.19945912  0.19945912  0.23241481
   0.84641382  0.84641382  0.09330331
   0.15358618  0.15358618  0.90669669
ni3al                                   
           1
     4.621120   -3.424129    0.000000
     4.621120    3.424129    0.000000
    -1.944426    0.000000    3.723679
   O 
     8
Direct configuration=   199
   0.75529687  0.19869879  0.83714714
   0.80130121  0.24470313  0.16285286
   0.24470313  0.80130121  0.16285286
   0.19869879  0.75529687  0.83714714
   0.80054028  0.80054028  0.76760525
   0.19945972  0.19945972  0.23239475
   0.84640903  0.84640903  0.09328754
   0.15359097  0.15359097  0.90671246
ni3al                                   
           1
     4.621748   -3.424058    0.000000
     4.621748    3.424058    0.000000
    -1.944691    0.000000    3.723679
   O 
     8
Direct configuration=   200
   0.75528987  0.19875785  0.83717695
   0.80124215  0.24471013  0.16282305
   0.24471013  0.80124215  0.16282305
   0.19875785  0.75528987  0.83717695
   0.80056150  0.80056150  0.76746534
   0.19943850  0.19943850  0.23253466
   0.84638448  0.84638448  0.09314323
   0.15361552  0.15361552  0.90685677
ni3al                                   
           1
     4.622041   -3.423773    0.000000
     4.622041    3.423773    0.000000
    -1.944814    0.000000    3.723679
   O 
     8
Direct configuration=   201
   0.75527843  0.19879871  0.83715383
   0.80120129  0.24472157  0.16284617
   0.24472157  0.80120129  0.16284617
   0.19879871  0.75527843  0.83715383
   0.80058149  0.80058149  0.76731111
   0.19941851  0.19941851  0.23268889
   0.84636605  0.84636605  0.09302970
   0.15363395  0.15363395  0.90697030
ni3al                                   
           1
     4.622303   -3.423555    0.000000
     4.622303    3.423555    0.000000
    -1.944924    0.000000    3.723679
   O 
     8
Direct configuration=   202
   0.75527700  0.19883521  0.83717684
   0.80116479  0.24472300  0.16282316
   0.24472300  0.80116479  0.16282316
   0.19883521  0.75527700  0.83717684
   0.80060319  0.80060319  0.76723688
   0.19939681  0.19939681  0.23276312
   0.84634490  0.84634490  0.09289890
   0.15365510  0.15365510  0.90710110
ni3al                                   
           1
     4.621541   -3.424095    0.000000
     4.621541    3.424095    0.000000
    -1.944604    0.000000    3.723679
   O 
     8
Direct configuration=   203
   0.75528541  0.19873208  0.83714949
   0.80126792  0.24471459  0.16285051
   0.24471459  0.80126792  0.16285051
   0.19873208  0.75528541  0.83714949
   0.80055406  0.80055406  0.76751170
   0.19944594  0.19944594  0.23248830
   0.84639409  0.84639409  0.09318540
   0.15360591  0.15360591  0.90681460
ni3al                                   
           1
     4.621470   -3.424199    0.000000
     4.621470    3.424199    0.000000
    -1.944574    0.000000    3.723679
   O 
     8
Direct configuration=   204
   0.75528787  0.19872145  0.83715780
   0.80127855  0.24471213  0.16284220
   0.24471213  0.80127855  0.16284220
   0.19872145  0.75528787  0.83715780
   0.80054560  0.80054560  0.76753333
   0.19945440  0.19945440  0.23246667
   0.84640364  0.84640364  0.09324523
   0.15359636  0.15359636  0.90675477
ni3al                                   
           1
     4.622406   -3.423893    0.000000
     4.622406    3.423893    0.000000
    -1.944968    0.000000    3.723679
   O 
     8
Direct configuration=   205
   0.75528394  0.19881575  0.83717901
   0.80118425  0.24471606  0.16282099
   0.24471606  0.80118425  0.16282099
   0.19881575  0.75528394  0.83717901
   0.80059845  0.80059845  0.76732433
   0.19940155  0.19940155  0.23267567
   0.84635464  0.84635464  0.09294510
   0.15364536  0.15364536  0.90705490
ni3al                                   
           1
     4.622560   -3.423873    0.000000
     4.622560    3.423873    0.000000
    -1.945032    0.000000    3.723679
   O 
     8
Direct configuration=   206
   0.75528280  0.19882115  0.83715230
   0.80117885  0.24471720  0.16284770
   0.24471720  0.80117885  0.16284770
   0.19882115  0.75528280  0.83715230
   0.80060489  0.80060489  0.76726136
   0.19939511  0.19939511  0.23273864
   0.84635242  0.84635242  0.09291046
   0.15364758  0.15364758  0.90708954
ni3al                                   
           1
     4.623112   -3.423621    0.000000
     4.623112    3.423621    0.000000
    -1.945265    0.000000    3.723679
   O 
     8
Direct configuration=   207
   0.75528700  0.19887421  0.83717515
   0.80112579  0.24471300  0.16282485
   0.24471300  0.80112579  0.16282485
   0.19887421  0.75528700  0.83717515
   0.80063841  0.80063841  0.76710853
   0.19936159  0.19936159  0.23289147
   0.84632539  0.84632539  0.09271671
   0.15367461  0.15367461  0.90728329
ni3al                                   
           1
     4.623827   -3.423197    0.000000
     4.623827    3.423197    0.000000
    -1.945566    0.000000    3.723679
   O 
     8
Direct configuration=   208
   0.75530206  0.19896387  0.83723134
   0.80103613  0.24469794  0.16276866
   0.24469794  0.80103613  0.16276866
   0.19896387  0.75530206  0.83723134
   0.80067963  0.80067963  0.76683781
   0.19932037  0.19932037  0.23316219
   0.84629400  0.84629400  0.09251049
   0.15370600  0.15370600  0.90748951
ni3al                                   
           1
     4.624010   -3.423087    0.000000
     4.624010    3.423087    0.000000
    -1.945643    0.000000    3.723679
   O 
     8
Direct configuration=   209
   0.75529791  0.19897788  0.83719704
   0.80102212  0.24470209  0.16280296
   0.24470209  0.80102212  0.16280296
   0.19897788  0.75529791  0.83719704
   0.80069781  0.80069781  0.76683187
   0.19930219  0.19930219  0.23316813
   0.84627639  0.84627639  0.09239151
   0.15372361  0.15372361  0.90760849
ni3al                                   
           1
     4.623106   -3.423504    0.000000
     4.623106    3.423504    0.000000
    -1.945262    0.000000    3.723679
   O 
     8
Direct configuration=   210
   0.75529690  0.19889649  0.83722177
   0.80110351  0.24470310  0.16277823
   0.24470310  0.80110351  0.16277823
   0.19889649  0.75529690  0.83722177
   0.80065411  0.80065411  0.76709313
   0.19934589  0.19934589  0.23290687
   0.84631336  0.84631336  0.09263220
   0.15368664  0.15368664  0.90736780
ni3al                                   
           1
     4.623062   -3.423532    0.000000
     4.623062    3.423532    0.000000
    -1.945244    0.000000    3.723679
   O 
     8
Direct configuration=   211
   0.75529180  0.19888729  0.83718501
   0.80111271  0.24470820  0.16281499
   0.24470820  0.80111271  0.16281499
   0.19888729  0.75529180  0.83718501
   0.80064876  0.80064876  0.76707962
   0.19935124  0.19935124  0.23292038
   0.84631864  0.84631864  0.09267014
   0.15368136  0.15368136  0.90732986
ni3al                                   
           1
     4.623517   -3.423045    0.000000
     4.623517    3.423045    0.000000
    -1.945435    0.000000    3.723679
   O 
     8
Direct configuration=   212
   0.75529643  0.19895251  0.83719404
   0.80104749  0.24470357  0.16280596
   0.24470357  0.80104749  0.16280596
   0.19895251  0.75529643  0.83719404
   0.80068382  0.80068382  0.76691801
   0.19931618  0.19931618  0.23308199
   0.84628656  0.84628656  0.09247499
   0.15371344  0.15371344  0.90752501
ni3al                                   
           1
     4.623356   -3.423050    0.000000
     4.623356    3.423050    0.000000
    -1.945368    0.000000    3.723679
   O 
     8
Direct configuration=   213
   0.75529994  0.19894883  0.83722170
   0.80105117  0.24470006  0.16277830
   0.24470006  0.80105117  0.16277830
   0.19894883  0.75529994  0.83722170
   0.80067399  0.80067399  0.76690948
   0.19932601  0.19932601  0.23309052
   0.84629530  0.84629530  0.09253883
   0.15370470  0.15370470  0.90746117
ni3al                                   
           1
     4.623510   -3.422996    0.000000
     4.623510    3.422996    0.000000
    -1.945432    0.000000    3.723679
   O 
     8
Direct configuration=   214
   0.75529712  0.19896198  0.83720482
   0.80103802  0.24470288  0.16279518
   0.24470288  0.80103802  0.16279518
   0.19896198  0.75529712  0.83720482
   0.80068428  0.80068428  0.76689802
   0.19931572  0.19931572  0.23310198
   0.84628230  0.84628230  0.09246201
   0.15371770  0.15371770  0.90753799
ni3al                                   
           1
     4.624100   -3.422876    0.000000
     4.624100    3.422876    0.000000
    -1.945680    0.000000    3.723679
   O 
     8
Direct configuration=   215
   0.75529358  0.19900260  0.83718547
   0.80099740  0.24470642  0.16281453
   0.24470642  0.80099740  0.16281453
   0.19900260  0.75529358  0.83718547
   0.80070517  0.80070517  0.76680842
   0.19929483  0.19929483  0.23319158
   0.84625619  0.84625619  0.09231817
   0.15374381  0.15374381  0.90768183
ni3al                                   
           1
     4.624004   -3.422690    0.000000
     4.624004    3.422690    0.000000
    -1.945640    0.000000    3.723679
   O 
     8
Direct configuration=   216
   0.75530099  0.19902686  0.83724665
   0.80097314  0.24469901  0.16275335
   0.24469901  0.80097314  0.16275335
   0.19902686  0.75530099  0.83724665
   0.80071116  0.80071116  0.76674285
   0.19928884  0.19928884  0.23325715
   0.84624628  0.84624628  0.09224654
   0.15375372  0.15375372  0.90775346
ni3al                                   
           1
     4.624042   -3.422561    0.000000
     4.624042    3.422561    0.000000
    -1.945656    0.000000    3.723679
   O 
     8
Direct configuration=   217
   0.75529830  0.19903727  0.83722630
   0.80096273  0.24470170  0.16277370
   0.24470170  0.80096273  0.16277370
   0.19903727  0.75529830  0.83722630
   0.80071356  0.80071356  0.76667733
   0.19928644  0.19928644  0.23332267
   0.84624198  0.84624198  0.09222347
   0.15375802  0.15375802  0.90777653
ni3al                                   
           1
     4.623691   -3.423192    0.000000
     4.623691    3.423192    0.000000
    -1.945509    0.000000    3.723679
   O 
     8
Direct configuration=   218
   0.75529695  0.19897554  0.83721417
   0.80102446  0.24470305  0.16278583
   0.24470305  0.80102446  0.16278583
   0.19897554  0.75529695  0.83721417
   0.80068642  0.80068642  0.76682477
   0.19931358  0.19931358  0.23317523
   0.84627764  0.84627764  0.09241132
   0.15372236  0.15372236  0.90758868
ni3al                                   
           1
     4.624130   -3.423181    0.000000
     4.624130    3.423181    0.000000
    -1.945693    0.000000    3.723679
   O 
     8
Direct configuration=   219
   0.75530841  0.19901141  0.83722809
   0.80098859  0.24469159  0.16277191
   0.24469159  0.80098859  0.16277191
   0.19901141  0.75530841  0.83722809
   0.80071019  0.80071019  0.76677173
   0.19928981  0.19928981  0.23322827
   0.84626178  0.84626178  0.09232836
   0.15373822  0.15373822  0.90767164
ni3al                                   
           1
     4.622948   -3.424041    0.000000
     4.622948    3.424041    0.000000
    -1.945196    0.000000    3.723679
   O 
     8
Direct configuration=   220
   0.75531314  0.19891156  0.83720383
   0.80108844  0.24468686  0.16279617
   0.24468686  0.80108844  0.16279617
   0.19891156  0.75531314  0.83720383
   0.80066552  0.80066552  0.76707267
   0.19933448  0.19933448  0.23292733
   0.84632451  0.84632451  0.09268811
   0.15367549  0.15367549  0.90731189
ni3al                                   
           1
     4.622897   -3.423984    0.000000
     4.622897    3.423984    0.000000
    -1.945174    0.000000    3.723679
   O 
     8
Direct configuration=   221
   0.75530814  0.19890760  0.83718133
   0.80109240  0.24469186  0.16281867
   0.24469186  0.80109240  0.16281867
   0.19890760  0.75530814  0.83718133
   0.80067533  0.80067533  0.76709461
   0.19932467  0.19932467  0.23290539
   0.84632363  0.84632363  0.09261813
   0.15367637  0.15367637  0.90738187
ni3al                                   
           1
     4.622247   -3.424213    0.000000
     4.622247    3.424213    0.000000
    -1.944901    0.000000    3.723679
   O 
     8
Direct configuration=   222
   0.75531116  0.19887024  0.83718867
   0.80112976  0.24468884  0.16281133
   0.24468884  0.80112976  0.16281133
   0.19887024  0.75531116  0.83718867
   0.80065268  0.80065268  0.76718037
   0.19934732  0.19934732  0.23281963
   0.84635622  0.84635622  0.09279570
   0.15364378  0.15364378  0.90720430
ni3al                                   
           1
     4.623932   -3.423390    0.000000
     4.623932    3.423390    0.000000
    -1.945610    0.000000    3.723679
   O 
     8
Direct configuration=   223
   0.75531163  0.19897545  0.83719894
   0.80102455  0.24468837  0.16280106
   0.24468837  0.80102455  0.16280106
   0.19897545  0.75531163  0.83719894
   0.80070111  0.80070111  0.76682871
   0.19929889  0.19929889  0.23317129
   0.84628331  0.84628331  0.09241366
   0.15371669  0.15371669  0.90758634
ni3al                                   
           1
     4.624119   -3.423243    0.000000
     4.624119    3.423243    0.000000
    -1.945688    0.000000    3.723679
   O 
     8
Direct configuration=   224
   0.75531516  0.19899430  0.83722246
   0.80100570  0.24468484  0.16277754
   0.24468484  0.80100570  0.16277754
   0.19899430  0.75531516  0.83722246
   0.80070955  0.80070955  0.76678217
   0.19929045  0.19929045  0.23321783
   0.84627161  0.84627161  0.09234443
   0.15372839  0.15372839  0.90765557
ni3al                                   
           1
     4.624555   -3.423060    0.000000
     4.624555    3.423060    0.000000
    -1.945872    0.000000    3.723679
   O 
     8
Direct configuration=   225
   0.75531930  0.19903350  0.83726792
   0.80096650  0.24468070  0.16273208
   0.24468070  0.80096650  0.16273208
   0.19903350  0.75531930  0.83726792
   0.80072847  0.80072847  0.76670511
   0.19927153  0.19927153  0.23329489
   0.84624847  0.84624847  0.09219716
   0.15375153  0.15375153  0.90780284
ni3al                                   
           1
     4.624828   -3.423029    0.000000
     4.624828    3.423029    0.000000
    -1.945987    0.000000    3.723679
   O 
     8
Direct configuration=   226
   0.75531577  0.19903617  0.83724208
   0.80096383  0.24468423  0.16275792
   0.24468423  0.80096383  0.16275792
   0.19903617  0.75531577  0.83724208
   0.80073224  0.80073224  0.76668847
   0.19926776  0.19926776  0.23331153
   0.84624493  0.84624493  0.09218625
   0.15375507  0.15375507  0.90781375
ni3al                                   
           1
     4.625005   -3.422884    0.000000
     4.625005    3.422884    0.000000
    -1.946061    0.000000    3.723679
   O 
     8
Direct configuration=   227
   0.75531988  0.19905647  0.83726978
   0.80094353  0.24468012  0.16273022
   0.24468012  0.80094353  0.16273022
   0.19905647  0.75531988  0.83726978
   0.80073430  0.80073430  0.76657722
   0.19926570  0.19926570  0.23342278
   0.84624588  0.84624588  0.09218149
   0.15375412  0.15375412  0.90781851
ni3al                                   
           1
     4.625420   -3.422426    0.000000
     4.625420    3.422426    0.000000
    -1.946236    0.000000    3.723679
   O 
     8
Direct configuration=   228
   0.75531950  0.19909830  0.83725238
   0.80090170  0.24468050  0.16274762
   0.24468050  0.80090170  0.16274762
   0.19909830  0.75531950  0.83725238
   0.80076454  0.80076454  0.76646526
   0.19923546  0.19923546  0.23353474
   0.84622187  0.84622187  0.09199560
   0.15377813  0.15377813  0.90800440
ni3al                                   
           1
     4.625609   -3.422401    0.000000
     4.625609    3.422401    0.000000
    -1.946315    0.000000    3.723679
   O 
     8
Direct configuration=   229
   0.75532148  0.19911403  0.83726664
   0.80088597  0.24467852  0.16273336
   0.24467852  0.80088597  0.16273336
   0.19911403  0.75532148  0.83726664
   0.80077272  0.80077272  0.76643649
   0.19922728  0.19922728  0.23356351
   0.84621179  0.84621179  0.09193799
   0.15378821  0.15378821  0.90806201
ni3al                                   
           1
     4.625070   -3.422505    0.000000
     4.625070    3.422505    0.000000
    -1.946089    0.000000    3.723679
   O 
     8
Direct configuration=   230
   0.75531390  0.19908790  0.83725590
   0.80091210  0.24468610  0.16274410
   0.24468610  0.80091210  0.16274410
   0.19908790  0.75531390  0.83725590
   0.80075204  0.80075204  0.76649914
   0.19924796  0.19924796  0.23350086
   0.84622145  0.84622145  0.09201093
   0.15377855  0.15377855  0.90798907
ni3al                                   
           1
     4.624479   -3.422322    0.000000
     4.624479    3.422322    0.000000
    -1.945840    0.000000    3.723679
   O 
     8
Direct configuration=   231
   0.75530441  0.19910142  0.83717942
   0.80089858  0.24469559  0.16282058
   0.24469559  0.80089858  0.16282058
   0.19910142  0.75530441  0.83717942
   0.80073979  0.80073979  0.76637720
   0.19926021  0.19926021  0.23362280
   0.84621542  0.84621542  0.09208505
   0.15378458  0.15378458  0.90791495
ni3al                                   
           1
     4.624314   -3.422318    0.000000
     4.624314    3.422318    0.000000
    -1.945771    0.000000    3.723679
   O 
     8
Direct configuration=   232
   0.75531314  0.19911352  0.83725288
   0.80088648  0.24468686  0.16274712
   0.24468686  0.80088648  0.16274712
   0.19911352  0.75531314  0.83725288
   0.80074841  0.80074841  0.76646095
   0.19925159  0.19925159  0.23353905
   0.84620152  0.84620152  0.09200520
   0.15379848  0.15379848  0.90799480
ni3al                                   
           1
     4.625744   -3.422193    0.000000
     4.625744    3.422193    0.000000
    -1.946372    0.000000    3.723679
   O 
     8
Direct configuration=   233
   0.75532566  0.19913013  0.83726395
   0.80086987  0.24467434  0.16273605
   0.24467434  0.80086987  0.16273605
   0.19913013  0.75532566  0.83726395
   0.80078164  0.80078164  0.76637175
   0.19921836  0.19921836  0.23362825
   0.84620678  0.84620678  0.09190738
   0.15379322  0.15379322  0.90809262
ni3al                                   
           1
     4.625393   -3.422222    0.000000
     4.625393    3.422222    0.000000
    -1.946224    0.000000    3.723679
   O 
     8
Direct configuration=   234
   0.75532079  0.19912226  0.83724258
   0.80087774  0.24467921  0.16275742
   0.24467921  0.80087774  0.16275742
   0.19912226  0.75532079  0.83724258
   0.80077692  0.80077692  0.76642095
   0.19922308  0.19922308  0.23357905
   0.84620750  0.84620750  0.09192732
   0.15379250  0.15379250  0.90807268
ni3al                                   
           1
     4.625065   -3.421871    0.000000
     4.625065    3.421871    0.000000
    -1.946086    0.000000    3.723679
   O 
     8
Direct configuration=   235
   0.75531417  0.19917167  0.83723724
   0.80082833  0.24468583  0.16276276
   0.24468583  0.80082833  0.16276276
   0.19917167  0.75531417  0.83723724
   0.80079115  0.80079115  0.76634107
   0.19920885  0.19920885  0.23365893
   0.84618124  0.84618124  0.09180594
   0.15381876  0.15381876  0.90819406
ni3al                                   
           1
     4.625517   -3.421881    0.000000
     4.625517    3.421881    0.000000
    -1.946277    0.000000    3.723679
   O 
     8
Direct configuration=   236
   0.75532203  0.19916816  0.83725890
   0.80083184  0.24467797  0.16274110
   0.24467797  0.80083184  0.16274110
   0.19916816  0.75532203  0.83725890
   0.80079583  0.80079583  0.76631155
   0.19920417  0.19920417  0.23368845
   0.84618756  0.84618756  0.09180467
   0.15381244  0.15381244  0.90819533
ni3al                                   
           1
     4.625665   -3.421990    0.000000
     4.625665    3.421990    0.000000
    -1.946339    0.000000    3.723679
   O 
     8
Direct configuration=   237
   0.75532419  0.19915591  0.83725712
   0.80084409  0.24467581  0.16274288
   0.24467581  0.80084409  0.16274288
   0.19915591  0.75532419  0.83725712
   0.80079448  0.80079448  0.76633389
   0.19920552  0.19920552  0.23366611
   0.84619154  0.84619154  0.09181755
   0.15380846  0.15380846  0.90818245
ni3al                                   
           1
     4.625621   -3.421254    0.000000
     4.625621    3.421254    0.000000
    -1.946321    0.000000    3.723679
   O 
     8
Direct configuration=   238
   0.75531061  0.19922873  0.83727317
   0.80077127  0.24468939  0.16272683
   0.24468939  0.80077127  0.16272683
   0.19922873  0.75531061  0.83727317
   0.80081338  0.80081338  0.76618423
   0.19918662  0.19918662  0.23381577
   0.84614644  0.84614644  0.09162432
   0.15385356  0.15385356  0.90837568
ni3al                                   
           1
     4.626766   -3.421395    0.000000
     4.626766    3.421395    0.000000
    -1.946802    0.000000    3.723679
   O 
     8
Direct configuration=   239
   0.75530111  0.19926483  0.83722631
   0.80073517  0.24469889  0.16277369
   0.24469889  0.80073517  0.16277369
   0.19926483  0.75530111  0.83722631
   0.80081402  0.80081402  0.76595691
   0.19918598  0.19918598  0.23404309
   0.84613127  0.84613127  0.09157710
   0.15386873  0.15386873  0.90842290
ni3al                                   
           1
     4.626503   -3.419632    0.000000
     4.626503    3.419632    0.000000
    -1.946692    0.000000    3.723679
   O 
     8
Direct configuration=   240
   0.75527935  0.19940332  0.83727831
   0.80059668  0.24472065  0.16272169
   0.24472065  0.80059668  0.16272169
   0.19940332  0.75527935  0.83727831
   0.80085388  0.80085388  0.76574868
   0.19914612  0.19914612  0.23425132
   0.84603322  0.84603322  0.09111282
   0.15396678  0.15396678  0.90888718
ni3al                                   
           1
     4.627390   -3.419747    0.000000
     4.627390    3.419747    0.000000
    -1.947065    0.000000    3.723679
   O 
     8
Direct configuration=   241
   0.75530748  0.19945895  0.83742063
   0.80054105  0.24469252  0.16257937
   0.24469252  0.80054105  0.16257937
   0.19945895  0.75530748  0.83742063
   0.80086730  0.80086730  0.76563271
   0.19913270  0.19913270  0.23436729
   0.84602158  0.84602158  0.09106470
   0.15397842  0.15397842  0.90893530
ni3al                                   
           1
     4.627502   -3.419787    0.000000
     4.627502    3.419787    0.000000
    -1.947112    0.000000    3.723679
   O 
     8
Direct configuration=   242
   0.75529439  0.19944115  0.83730409
   0.80055885  0.24470561  0.16269591
   0.24470561  0.80055885  0.16269591
   0.19944115  0.75529439  0.83730409
   0.80087614  0.80087614  0.76566902
   0.19912386  0.19912386  0.23433098
   0.84601806  0.84601806  0.09101742
   0.15398194  0.15398194  0.90898258
ni3al                                   
           1
     4.628133   -3.419542    0.000000
     4.628133    3.419542    0.000000
    -1.947377    0.000000    3.723679
   O 
     8
Direct configuration=   243
   0.75529351  0.19948466  0.83729189
   0.80051534  0.24470649  0.16270811
   0.24470649  0.80051534  0.16270811
   0.19948466  0.75529351  0.83729189
   0.80088235  0.80088235  0.76541788
   0.19911765  0.19911765  0.23458212
   0.84601737  0.84601737  0.09100215
   0.15398263  0.15398263  0.90899785
ni3al                                   
           1
     4.628217   -3.419508    0.000000
     4.628217    3.419508    0.000000
    -1.947413    0.000000    3.723679
   O 
     8
Direct configuration=   244
   0.75529797  0.19949483  0.83732203
   0.80050517  0.24470203  0.16267797
   0.24470203  0.80050517  0.16267797
   0.19949483  0.75529797  0.83732203
   0.80090054  0.80090054  0.76550511
   0.19909946  0.19909946  0.23449489
   0.84599936  0.84599936  0.09087251
   0.15400064  0.15400064  0.90912749
ni3al                                   
           1
     4.629083   -3.419429    0.000000
     4.629083    3.419429    0.000000
    -1.947777    0.000000    3.723679
   O 
     8
Direct configuration=   245
   0.75530117  0.19953444  0.83732505
   0.80046556  0.24469883  0.16267495
   0.24469883  0.80046556  0.16267495
   0.19953444  0.75530117  0.83732505
   0.80092751  0.80092751  0.76539799
   0.19907249  0.19907249  0.23460201
   0.84598003  0.84598003  0.09071795
   0.15401997  0.15401997  0.90928205
ni3al                                   
           1
     4.629335   -3.419040    0.000000
     4.629335    3.419040    0.000000
    -1.947883    0.000000    3.723679
   O 
     8
Direct configuration=   246
   0.75531212  0.19956588  0.83736763
   0.80043412  0.24468788  0.16263237
   0.24468788  0.80043412  0.16263237
   0.19956588  0.75531212  0.83736763
   0.80094615  0.80094615  0.76526587
   0.19905385  0.19905385  0.23473413
   0.84597176  0.84597176  0.09061930
   0.15402824  0.15402824  0.90938070
ni3al                                   
           1
     4.629653   -3.418819    0.000000
     4.629653    3.418819    0.000000
    -1.948017    0.000000    3.723679
   O 
     8
Direct configuration=   247
   0.75531056  0.19958470  0.83733229
   0.80041530  0.24468944  0.16266771
   0.24468944  0.80041530  0.16266771
   0.19958470  0.75531056  0.83733229
   0.80096520  0.80096520  0.76519532
   0.19903480  0.19903480  0.23480468
   0.84595850  0.84595850  0.09051088
   0.15404150  0.15404150  0.90948912
ni3al                                   
           1
     4.629962   -3.418785    0.000000
     4.629962    3.418785    0.000000
    -1.948147    0.000000    3.723679
   O 
     8
Direct configuration=   248
   0.75531142  0.19960352  0.83733836
   0.80039648  0.24468858  0.16266164
   0.24468858  0.80039648  0.16266164
   0.19960352  0.75531142  0.83733836
   0.80096987  0.80096987  0.76511785
   0.19903013  0.19903013  0.23488215
   0.84595498  0.84595498  0.09049655
   0.15404502  0.15404502  0.90950345
ni3al                                   
           1
     4.629827   -3.418878    0.000000
     4.629827    3.418878    0.000000
    -1.948090    0.000000    3.723679
   O 
     8
Direct configuration=   249
   0.75531103  0.19959026  0.83733782
   0.80040974  0.24468897  0.16266218
   0.24468897  0.80040974  0.16266218
   0.19959026  0.75531103  0.83733782
   0.80096406  0.80096406  0.76517108
   0.19903594  0.19903594  0.23482892
   0.84595976  0.84595976  0.09052807
   0.15404024  0.15404024  0.90947193
ni3al                                   
           1
     4.630093   -3.418573    0.000000
     4.630093    3.418573    0.000000
    -1.948202    0.000000    3.723679
   O 
     8
Direct configuration=   250
   0.75531133  0.19965556  0.83734228
   0.80034444  0.24468867  0.16265772
   0.24468867  0.80034444  0.16265772
   0.19965556  0.75531133  0.83734228
   0.80100977  0.80100977  0.76498701
   0.19899023  0.19899023  0.23501299
   0.84593244  0.84593244  0.09026429
   0.15406756  0.15406756  0.90973571
ni3al                                   
           1
     4.629913   -3.418777    0.000000
     4.629913    3.418777    0.000000
    -1.948127    0.000000    3.723679
   O 
     8
Direct configuration=   251
   0.75530838  0.19962888  0.83732493
   0.80037112  0.24469162  0.16267507
   0.24469162  0.80037112  0.16267507
   0.19962888  0.75530838  0.83732493
   0.80099378  0.80099378  0.76505544
   0.19900622  0.19900622  0.23494456
   0.84594363  0.84594363  0.09037067
   0.15405637  0.15405637  0.90962933
ni3al                                   
           1
     4.629745   -3.418828    0.000000
     4.629745    3.418828    0.000000
    -1.948056    0.000000    3.723679
   O 
     8
Direct configuration=   252
   0.75531189  0.19963232  0.83734562
   0.80036768  0.24468811  0.16265438
   0.24468811  0.80036768  0.16265438
   0.19963232  0.75531189  0.83734562
   0.80099389  0.80099389  0.76506016
   0.19900611  0.19900611  0.23493984
   0.84594391  0.84594391  0.09036971
   0.15405609  0.15405609  0.90963029
ni3al                                   
           1
     4.630044   -3.418776    0.000000
     4.630044    3.418776    0.000000
    -1.948182    0.000000    3.723679
   O 
     8
Direct configuration=   253
   0.75532381  0.19966936  0.83737035
   0.80033064  0.24467619  0.16262965
   0.24467619  0.80033064  0.16262965
   0.19966936  0.75532381  0.83737035
   0.80101388  0.80101388  0.76502244
   0.19898612  0.19898612  0.23497756
   0.84592082  0.84592082  0.09027385
   0.15407918  0.15407918  0.90972615
ni3al                                   
           1
     4.629876   -3.418597    0.000000
     4.629876    3.418597    0.000000
    -1.948111    0.000000    3.723679
   O 
     8
Direct configuration=   254
   0.75531962  0.19967036  0.83736564
   0.80032964  0.24468038  0.16263436
   0.24468038  0.80032964  0.16263436
   0.19967036  0.75531962  0.83736564
   0.80101796  0.80101796  0.76503107
   0.19898204  0.19898204  0.23496893
   0.84592029  0.84592029  0.09026849
   0.15407971  0.15407971  0.90973151
ni3al                                   
           1
     4.629993   -3.418279    0.000000
     4.629993    3.418279    0.000000
    -1.948160    0.000000    3.723679
   O 
     8
Direct configuration=   255
   0.75532006  0.19968747  0.83738003
   0.80031253  0.24467994  0.16261997
   0.24467994  0.80031253  0.16261997
   0.19968747  0.75532006  0.83738003
   0.80102226  0.80102226  0.76496326
   0.19897774  0.19897774  0.23503674
   0.84591532  0.84591532  0.09023256
   0.15408468  0.15408468  0.90976744
ni3al                                   
           1
     4.630590   -3.418022    0.000000
     4.630590    3.418022    0.000000
    -1.948411    0.000000    3.723679
   O 
     8
Direct configuration=   256
   0.75530353  0.19971140  0.83728321
   0.80028860  0.24469647  0.16271679
   0.24469647  0.80028860  0.16271679
   0.19971140  0.75530353  0.83728321
   0.80102631  0.80102631  0.76477099
   0.19897369  0.19897369  0.23522901
   0.84590316  0.84590316  0.09019284
   0.15409684  0.15409684  0.90980716
ni3al                                   
           1
     4.630507   -3.417911    0.000000
     4.630507    3.417911    0.000000
    -1.948377    0.000000    3.723679
   O 
     8
Direct configuration=   257
   0.75531613  0.19972710  0.83737643
   0.80027290  0.24468387  0.16262357
   0.24468387  0.80027290  0.16262357
   0.19972710  0.75531613  0.83737643
   0.80103793  0.80103793  0.76483460
   0.19896207  0.19896207  0.23516540
   0.84589145  0.84589145  0.09010935
   0.15410855  0.15410855  0.90989065
ni3al                                   
           1
     4.631225   -3.417712    0.000000
     4.631225    3.417712    0.000000
    -1.948678    0.000000    3.723679
   O 
     8
Direct configuration=   258
   0.75531368  0.19976819  0.83736847
   0.80023181  0.24468632  0.16263153
   0.24468632  0.80023181  0.16263153
   0.19976819  0.75531368  0.83736847
   0.80106041  0.80106041  0.76474033
   0.19893959  0.19893959  0.23525967
   0.84586222  0.84586222  0.08994849
   0.15413778  0.15413778  0.91005151
ni3al                                   
           1
     4.631403   -3.417611    0.000000
     4.631403    3.417611    0.000000
    -1.948753    0.000000    3.723679
   O 
     8
Direct configuration=   259
   0.75531723  0.19978445  0.83739777
   0.80021555  0.24468277  0.16260223
   0.24468277  0.80021555  0.16260223
   0.19978445  0.75531723  0.83739777
   0.80106245  0.80106245  0.76466564
   0.19893755  0.19893755  0.23533436
   0.84585959  0.84585959  0.08993262
   0.15414041  0.15414041  0.91006738
ni3al                                   
           1
     4.631944   -3.417377    0.000000
     4.631944    3.417377    0.000000
    -1.948981    0.000000    3.723679
   O 
     8
Direct configuration=   260
   0.75531809  0.19981535  0.83739867
   0.80018465  0.24468191  0.16260133
   0.24468191  0.80018465  0.16260133
   0.19981535  0.75531809  0.83739867
   0.80107848  0.80107848  0.76456216
   0.19892152  0.19892152  0.23543784
   0.84584244  0.84584244  0.08982217
   0.15415756  0.15415756  0.91017783
ni3al                                   
           1
     4.631082   -3.417615    0.000000
     4.631082    3.417615    0.000000
    -1.948618    0.000000    3.723679
   O 
     8
Direct configuration=   261
   0.75530970  0.19977564  0.83733934
   0.80022436  0.24469030  0.16266066
   0.24469030  0.80022436  0.16266066
   0.19977564  0.75530970  0.83733934
   0.80105380  0.80105380  0.76465093
   0.19894620  0.19894620  0.23534907
   0.84586707  0.84586707  0.08997294
   0.15413293  0.15413293  0.91002706
ni3al                                   
           1
     4.629737   -3.418004    0.000000
     4.629737    3.418004    0.000000
    -1.948052    0.000000    3.723679
   O 
     8
Direct configuration=   262
   0.75531143  0.19973622  0.83736166
   0.80026378  0.24468857  0.16263834
   0.24468857  0.80026378  0.16263834
   0.19973622  0.75531143  0.83736166
   0.80102921  0.80102921  0.76486325
   0.19897079  0.19897079  0.23513675
   0.84588983  0.84588983  0.09010515
   0.15411017  0.15411017  0.90989485
ni3al                                   
           1
     4.627472   -3.418831    0.000000
     4.627472    3.418831    0.000000
    -1.947099    0.000000    3.723679
   O 
     8
Direct configuration=   263
   0.75530374  0.19966761  0.83733992
   0.80033239  0.24469626  0.16266008
   0.24469626  0.80033239  0.16266008
   0.19966761  0.75530374  0.83733992
   0.80097169  0.80097169  0.76514286
   0.19902831  0.19902831  0.23485714
   0.84593477  0.84593477  0.09043819
   0.15406523  0.15406523  0.90956181
ni3al                                   
           1
     4.636370   -3.415299    0.000000
     4.636370    3.415299    0.000000
    -1.950843    0.000000    3.723679
   O 
     8
Direct configuration=   264
   0.75535205  0.19999046  0.83748517
   0.80000954  0.24464795  0.16251483
   0.24464795  0.80000954  0.16251483
   0.19999046  0.75535205  0.83748517
   0.80122433  0.80122433  0.76390174
   0.19877567  0.19877567  0.23609826
   0.84574453  0.84574453  0.08908480
   0.15425547  0.15425547  0.91091520
ni3al                                   
           1
     4.631847   -3.417434    0.000000
     4.631847    3.417434    0.000000
    -1.948940    0.000000    3.723679
   O 
     8
Direct configuration=   265
   0.75531209  0.19983274  0.83736342
   0.80016726  0.24468791  0.16263658
   0.24468791  0.80016726  0.16263658
   0.19983274  0.75531209  0.83736342
   0.80109190  0.80109190  0.76457943
   0.19890810  0.19890810  0.23542057
   0.84582709  0.84582709  0.08974341
   0.15417291  0.15417291  0.91025659
ni3al                                   
           1
     4.634385   -3.416342    0.000000
     4.634385    3.416342    0.000000
    -1.950008    0.000000    3.723679
   O 
     8
Direct configuration=   266
   0.75533029  0.19994181  0.83741900
   0.80005819  0.24466971  0.16258100
   0.24466971  0.80005819  0.16258100
   0.19994181  0.75533029  0.83741900
   0.80117041  0.80117041  0.76415988
   0.19882959  0.19882959  0.23584012
   0.84577098  0.84577098  0.08931926
   0.15422902  0.15422902  0.91068074
ni3al                                   
           1
     4.634696   -3.416077    0.000000
     4.634696    3.416077    0.000000
    -1.950139    0.000000    3.723679
   O 
     8
Direct configuration=   267
   0.75533454  0.19997178  0.83743855
   0.80002822  0.24466546  0.16256145
   0.24466546  0.80002822  0.16256145
   0.19997178  0.75533454  0.83743855
   0.80119376  0.80119376  0.76409148
   0.19880624  0.19880624  0.23590852
   0.84575340  0.84575340  0.08919767
   0.15424660  0.15424660  0.91080233
ni3al                                   
           1
     4.634973   -3.415881    0.000000
     4.634973    3.415881    0.000000
    -1.950256    0.000000    3.723679
   O 
     8
Direct configuration=   268
   0.75533444  0.19999394  0.83743360
   0.80000606  0.24466556  0.16256640
   0.24466556  0.80000606  0.16256640
   0.19999394  0.75533444  0.83743360
   0.80120813  0.80120813  0.76400533
   0.19879187  0.19879187  0.23599467
   0.84574200  0.84574200  0.08912515
   0.15425800  0.15425800  0.91087485
ni3al                                   
           1
     4.634319   -3.416236    0.000000
     4.634319    3.416236    0.000000
    -1.949980    0.000000    3.723679
   O 
     8
Direct configuration=   269
   0.75532886  0.19994605  0.83739820
   0.80005395  0.24467114  0.16260180
   0.24467114  0.80005395  0.16260180
   0.19994605  0.75532886  0.83739820
   0.80118368  0.80118368  0.76415176
   0.19881632  0.19881632  0.23584824
   0.84576541  0.84576541  0.08926188
   0.15423459  0.15423459  0.91073812
ni3al                                   
           1
     4.631830   -3.417854    0.000000
     4.631830    3.417854    0.000000
    -1.948933    0.000000    3.723679
   O 
     8
Direct configuration=   270
   0.75532483  0.19976737  0.83735633
   0.80023263  0.24467517  0.16264367
   0.24467517  0.80023263  0.16264367
   0.19976737  0.75532483  0.83735633
   0.80108153  0.80108153  0.76468702
   0.19891847  0.19891847  0.23531298
   0.84587151  0.84587151  0.08988424
   0.15412849  0.15412849  0.91011576
ni3al                                   
           1
     4.642194   -3.411525    0.000000
     4.642194    3.411525    0.000000
    -1.953294    0.000000    3.723679
   O 
     8
Direct configuration=   271
   0.75536349  0.20054717  0.83766058
   0.79945283  0.24463651  0.16233942
   0.24463651  0.79945283  0.16233942
   0.20054717  0.75536349  0.83766058
   0.80151586  0.80151586  0.76246166
   0.19848414  0.19848414  0.23753834
   0.84542903  0.84542903  0.08733938
   0.15457097  0.15457097  0.91266062
ni3al                                   
           1
     4.637858   -3.414235    0.000000
     4.637858    3.414235    0.000000
    -1.951469    0.000000    3.723679
   O 
     8
Direct configuration=   272
   0.75533898  0.20021522  0.83747357
   0.79978478  0.24466102  0.16252643
   0.24466102  0.79978478  0.16252643
   0.20021522  0.75533898  0.83747357
   0.80132145  0.80132145  0.76333134
   0.19867855  0.19867855  0.23666866
   0.84562390  0.84562390  0.08843629
   0.15437610  0.15437610  0.91156371
ni3al                                   
           1
     4.635841   -3.415503    0.000000
     4.635841    3.415503    0.000000
    -1.950621    0.000000    3.723679
   O 
     8
Direct configuration=   273
   0.75533753  0.20007168  0.83745296
   0.79992832  0.24466247  0.16254704
   0.24466247  0.79992832  0.16254704
   0.20007168  0.75533753  0.83745296
   0.80124020  0.80124020  0.76379492
   0.19875980  0.19875980  0.23620508
   0.84570550  0.84570550  0.08887856
   0.15429450  0.15429450  0.91112144
ni3al                                   
           1
     4.635625   -3.415650    0.000000
     4.635625    3.415650    0.000000
    -1.950530    0.000000    3.723679
   O 
     8
Direct configuration=   274
   0.75534067  0.20005810  0.83741957
   0.79994190  0.24465933  0.16258043
   0.24465933  0.79994190  0.16258043
   0.20005810  0.75534067  0.83741957
   0.80124811  0.80124811  0.76395388
   0.19875189  0.19875189  0.23604612
   0.84571930  0.84571930  0.08894991
   0.15428070  0.15428070  0.91105009
ni3al                                   
           1
     4.637712   -3.414341    0.000000
     4.637712    3.414341    0.000000
    -1.951408    0.000000    3.723679
   O 
     8
Direct configuration=   275
   0.75534268  0.20021954  0.83748531
   0.79978046  0.24465732  0.16251469
   0.24465732  0.79978046  0.16251469
   0.20021954  0.75534268  0.83748531
   0.80132179  0.80132179  0.76339127
   0.19867821  0.19867821  0.23660873
   0.84563116  0.84563116  0.08840853
   0.15436884  0.15436884  0.91159147
ni3al                                   
           1
     4.638290   -3.413973    0.000000
     4.638290    3.413973    0.000000
    -1.951651    0.000000    3.723679
   O 
     8
Direct configuration=   276
   0.75534505  0.20027672  0.83749887
   0.79972328  0.24465495  0.16250113
   0.24465495  0.79972328  0.16250113
   0.20027672  0.75534505  0.83749887
   0.80134666  0.80134666  0.76321887
   0.19865334  0.19865334  0.23678113
   0.84560313  0.84560313  0.08821577
   0.15439687  0.15439687  0.91178423
ni3al                                   
           1
     4.635280   -3.415627    0.000000
     4.635280    3.415627    0.000000
    -1.950385    0.000000    3.723679
   O 
     8
Direct configuration=   277
   0.75532267  0.19998445  0.83744003
   0.80001555  0.24467733  0.16255997
   0.24467733  0.80001555  0.16255997
   0.19998445  0.75532267  0.83744003
   0.80121626  0.80121626  0.76404350
   0.19878374  0.19878374  0.23595650
   0.84575103  0.84575103  0.08914289
   0.15424897  0.15424897  0.91085711
ni3al                                   
           1
     4.639507   -3.413279    0.000000
     4.639507    3.413279    0.000000
    -1.952163    0.000000    3.723679
   O 
     8
Direct configuration=   278
   0.75535875  0.20040422  0.83755054
   0.79959578  0.24464125  0.16244946
   0.24464125  0.79959578  0.16244946
   0.20040422  0.75535875  0.83755054
   0.80140185  0.80140185  0.76287253
   0.19859815  0.19859815  0.23712747
   0.84554079  0.84554079  0.08782102
   0.15445921  0.15445921  0.91217898
ni3al                                   
           1
     4.639148   -3.413423    0.000000
     4.639148    3.413423    0.000000
    -1.952012    0.000000    3.723679
   O 
     8
Direct configuration=   279
   0.75533815  0.20035998  0.83742946
   0.79964002  0.24466185  0.16257054
   0.24466185  0.79964002  0.16257054
   0.20035998  0.75533815  0.83742946
   0.80138556  0.80138556  0.76292606
   0.19861444  0.19861444  0.23707394
   0.84556188  0.84556188  0.08795439
   0.15443812  0.15443812  0.91204561
ni3al                                   
           1
     4.639776   -3.413021    0.000000
     4.639776    3.413021    0.000000
    -1.952277    0.000000    3.723679
   O 
     8
Direct configuration=   280
   0.75535450  0.20044107  0.83753337
   0.79955893  0.24464550  0.16246663
   0.24464550  0.79955893  0.16246663
   0.20044107  0.75535450  0.83753337
   0.80142342  0.80142342  0.76278487
   0.19857658  0.19857658  0.23721513
   0.84552036  0.84552036  0.08768448
   0.15447964  0.15447964  0.91231552
ni3al                                   
           1
     4.640104   -3.412731    0.000000
     4.640104    3.412731    0.000000
    -1.952415    0.000000    3.723679
   O 
     8
Direct configuration=   281
   0.75536306  0.20048485  0.83759724
   0.79951515  0.24463694  0.16240276
   0.24463694  0.79951515  0.16240276
   0.20048485  0.75536306  0.83759724
   0.80142998  0.80142998  0.76258694
   0.19857002  0.19857002  0.23741306
   0.84551195  0.84551195  0.08764559
   0.15448805  0.15448805  0.91235441
ni3al                                   
           1
     4.640199   -3.412692    0.000000
     4.640199    3.412692    0.000000
    -1.952455    0.000000    3.723679
   O 
     8
Direct configuration=   282
   0.75535737  0.20048622  0.83755324
   0.79951378  0.24464263  0.16244676
   0.24464263  0.79951378  0.16244676
   0.20048622  0.75535737  0.83755324
   0.80144265  0.80144265  0.76263337
   0.19855735  0.19855735  0.23736663
   0.84549779  0.84549779  0.08754926
   0.15450221  0.15450221  0.91245074
ni3al                                   
           1
     4.640733   -3.412452    0.000000
     4.640733    3.412452    0.000000
    -1.952679    0.000000    3.723679
   O 
     8
Direct configuration=   283
   0.75535693  0.20052769  0.83754203
   0.79947231  0.24464307  0.16245797
   0.24464307  0.79947231  0.16245797
   0.20052769  0.75535693  0.83754203
   0.80146092  0.80146092  0.76249961
   0.19853908  0.19853908  0.23750039
   0.84547111  0.84547111  0.08741053
   0.15452889  0.15452889  0.91258947
ni3al                                   
           1
     4.640827   -3.412385    0.000000
     4.640827    3.412385    0.000000
    -1.952719    0.000000    3.723679
   O 
     8
Direct configuration=   284
   0.75536069  0.20054068  0.83757080
   0.79945932  0.24463931  0.16242920
   0.24463931  0.79945932  0.16242920
   0.20054068  0.75536069  0.83757080
   0.80146746  0.80146746  0.76248492
   0.19853254  0.19853254  0.23751508
   0.84546297  0.84546297  0.08735938
   0.15453703  0.15453703  0.91264062
ni3al                                   
           1
     4.641326   -3.412205    0.000000
     4.641326    3.412205    0.000000
    -1.952929    0.000000    3.723679
   O 
     8
Direct configuration=   285
   0.75536831  0.20058159  0.83761229
   0.79941841  0.24463169  0.16238771
   0.24463169  0.79941841  0.16238771
   0.20058159  0.75536831  0.83761229
   0.80148273  0.80148273  0.76236077
   0.19851727  0.19851727  0.23763923
   0.84544132  0.84544132  0.08723907
   0.15455868  0.15455868  0.91276093
ni3al                                   
           1
     4.641317   -3.412081    0.000000
     4.641317    3.412081    0.000000
    -1.952925    0.000000    3.723679
   O 
     8
Direct configuration=   286
   0.75536248  0.20058362  0.83757130
   0.79941638  0.24463752  0.16242870
   0.24463752  0.79941638  0.16242870
   0.20058362  0.75536248  0.83757130
   0.80149023  0.80149023  0.76235812
   0.19850977  0.19850977  0.23764188
   0.84543191  0.84543191  0.08717425
   0.15456809  0.15456809  0.91282575
ni3al                                   
           1
     4.641337   -3.411909    0.000000
     4.641337    3.411909    0.000000
    -1.952933    0.000000    3.723679
   O 
     8
Direct configuration=   287
   0.75536269  0.20059580  0.83757556
   0.79940420  0.24463731  0.16242444
   0.24463731  0.79940420  0.16242444
   0.20059580  0.75536269  0.83757556
   0.80149320  0.80149320  0.76231007
   0.19850680  0.19850680  0.23768993
   0.84542717  0.84542717  0.08714544
   0.15457283  0.15457283  0.91285456
ni3al                                   
           1
     4.641421   -3.411112    0.000000
     4.641421    3.411112    0.000000
    -1.952969    0.000000    3.723679
   O 
     8
Direct configuration=   288
   0.75536516  0.20065776  0.83757905
   0.79934224  0.24463484  0.16242095
   0.24463484  0.79934224  0.16242095
   0.20065776  0.75536516  0.83757905
   0.80150800  0.80150800  0.76209674
   0.19849200  0.19849200  0.23790326
   0.84539507  0.84539507  0.08700873
   0.15460493  0.15460493  0.91299127
ni3al                                   
           1
     4.641683   -3.411265    0.000000
     4.641683    3.411265    0.000000
    -1.953079    0.000000    3.723679
   O 
     8
Direct configuration=   289
   0.75536579  0.20066276  0.83759091
   0.79933724  0.24463421  0.16240909
   0.24463421  0.79933724  0.16240909
   0.20066276  0.75536579  0.83759091
   0.80151284  0.80151284  0.76212481
   0.19848716  0.19848716  0.23787519
   0.84538936  0.84538936  0.08696351
   0.15461064  0.15461064  0.91303649
ni3al                                   
           1
     4.642049   -3.411128    0.000000
     4.642049    3.411128    0.000000
    -1.953233    0.000000    3.723679
   O 
     8
Direct configuration=   290
   0.75536689  0.20069662  0.83760390
   0.79930338  0.24463311  0.16239610
   0.24463311  0.79930338  0.16239610
   0.20069662  0.75536689  0.83760390
   0.80152116  0.80152116  0.76203030
   0.19847884  0.19847884  0.23796970
   0.84537251  0.84537251  0.08687766
   0.15462749  0.15462749  0.91312234
ni3al                                   
           1
     4.642239   -3.410952    0.000000
     4.642239    3.410952    0.000000
    -1.953313    0.000000    3.723679
   O 
     8
Direct configuration=   291
   0.75536504  0.20071444  0.83758403
   0.79928556  0.24463496  0.16241597
   0.24463496  0.79928556  0.16241597
   0.20071444  0.75536504  0.83758403
   0.80153296  0.80153296  0.76197567
   0.19846704  0.19846704  0.23802433
   0.84535660  0.84535660  0.08678140
   0.15464340  0.15464340  0.91321860
ni3al                                   
           1
     4.642640   -3.410688    0.000000
     4.642640    3.410688    0.000000
    -1.953481    0.000000    3.723679
   O 
     8
Direct configuration=   292
   0.75536668  0.20075309  0.83759027
   0.79924691  0.24463332  0.16240973
   0.24463332  0.79924691  0.16240973
   0.20075309  0.75536668  0.83759027
   0.80154949  0.80154949  0.76187178
   0.19845051  0.19845051  0.23812822
   0.84533270  0.84533270  0.08665576
   0.15466730  0.15466730  0.91334424
ni3al                                   
           1
     4.643737   -3.410278    0.000000
     4.643737    3.410278    0.000000
    -1.953943    0.000000    3.723679
   O 
     8
Direct configuration=   293
   0.75537556  0.20086093  0.83763637
   0.79913907  0.24462444  0.16236363
   0.24462444  0.79913907  0.16236363
   0.20086093  0.75537556  0.83763637
   0.80159461  0.80159461  0.76151024
   0.19840539  0.19840539  0.23848976
   0.84525779  0.84525779  0.08624309
   0.15474221  0.15474221  0.91375691
ni3al                                   
           1
     4.645628   -3.409372    0.000000
     4.645628    3.409372    0.000000
    -1.954739    0.000000    3.723679
   O 
     8
Direct configuration=   294
   0.75540508  0.20105734  0.83767624
   0.79894266  0.24459492  0.16232376
   0.24459492  0.79894266  0.16232376
   0.20105734  0.75540508  0.83767624
   0.80169875  0.80169875  0.76089195
   0.19830125  0.19830125  0.23910805
   0.84512107  0.84512107  0.08553375
   0.15487893  0.15487893  0.91446625
ni3al                                   
           1
     4.646668   -3.408846    0.000000
     4.646668    3.408846    0.000000
    -1.955177    0.000000    3.723679
   O 
     8
Direct configuration=   295
   0.75542454  0.20116693  0.83770741
   0.79883307  0.24457546  0.16229259
   0.24457546  0.79883307  0.16229259
   0.20116693  0.75542454  0.83770741
   0.80176299  0.80176299  0.76057021
   0.19823701  0.19823701  0.23942979
   0.84503981  0.84503981  0.08508734
   0.15496019  0.15496019  0.91491266
ni3al                                   
           1
     4.645787   -3.408988    0.000000
     4.645787    3.408988    0.000000
    -1.954806    0.000000    3.723679
   O 
     8
Direct configuration=   296
   0.75542268  0.20108643  0.83770489
   0.79891357  0.24457732  0.16229511
   0.24457732  0.79891357  0.16229511
   0.20108643  0.75542268  0.83770489
   0.80172809  0.80172809  0.76084729
   0.19827191  0.19827191  0.23915271
   0.84510302  0.84510302  0.08543760
   0.15489698  0.15489698  0.91456240
ni3al                                   
           1
     4.646208   -3.408855    0.000000
     4.646208    3.408855    0.000000
    -1.954983    0.000000    3.723679
   O 
     8
Direct configuration=   297
   0.75542991  0.20111822  0.83772946
   0.79888178  0.24457009  0.16227054
   0.24457009  0.79888178  0.16227054
   0.20111822  0.75542991  0.83772946
   0.80174488  0.80174488  0.76074389
   0.19825512  0.19825512  0.23925611
   0.84508158  0.84508158  0.08532753
   0.15491842  0.15491842  0.91467247
ni3al                                   
           1
     4.646267   -3.408714    0.000000
     4.646267    3.408714    0.000000
    -1.955008    0.000000    3.723679
   O 
     8
Direct configuration=   298
   0.75542835  0.20112865  0.83770958
   0.79887135  0.24457165  0.16229042
   0.24457165  0.79887135  0.16229042
   0.20112865  0.75542835  0.83770958
   0.80175354  0.80175354  0.76070123
   0.19824646  0.19824646  0.23929877
   0.84507038  0.84507038  0.08526128
   0.15492962  0.15492962  0.91473872
ni3al                                   
           1
     4.646532   -3.408352    0.000000
     4.646532    3.408352    0.000000
    -1.955119    0.000000    3.723679
   O 
     8
Direct configuration=   299
   0.75542931  0.20115284  0.83769532
   0.79884716  0.24457069  0.16230468
   0.24457069  0.79884716  0.16230468
   0.20115284  0.75542931  0.83769532
   0.80176342  0.80176342  0.76057686
   0.19823658  0.19823658  0.23942314
   0.84506075  0.84506075  0.08523322
   0.15493925  0.15493925  0.91476678
ni3al                                   
           1
     4.646622   -3.408277    0.000000
     4.646622    3.408277    0.000000
    -1.955157    0.000000    3.723679
   O 
     8
Direct configuration=   300
   0.75543148  0.20116399  0.83771185
   0.79883601  0.24456852  0.16228815
   0.24456852  0.79883601  0.16228815
   0.20116399  0.75543148  0.83771185
   0.80177513  0.80177513  0.76059625
   0.19822487  0.19822487  0.23940375
   0.84504719  0.84504719  0.08514448
   0.15495281  0.15495281  0.91485552
