       N       E                     dE             d eps       ncg     rms          rms(c)
DAV:   1    -0.659980315804E+03   -0.65998E+03   -0.12263E-05  7208   0.735E-03
DAV:   2    -0.659980315936E+03   -0.13167E-06   -0.13185E-06  4352   0.163E-03
DAV:   3    -0.659980315952E+03   -0.16473E-07   -0.16220E-07  3560   0.484E-04
DAV:   4    -0.659980315959E+03   -0.70431E-08   -0.68394E-08  3480   0.245E-04
DAV:   5    -0.659980315963E+03   -0.35507E-08   -0.37961E-08  3480   0.157E-04
   1 F= -.65998032E+03 E0= -.65998032E+03  d E =0.000000E+00
