srun: ROUTE: split_hostlist: hl=b10r2n10 tree_width 0
 running on    4 total cores
 distrk:  each k-point on    1 cores,    4 groups
 distr:  one band on    1 cores,    1 groups
 HIP runtime initialized ...    4 DCUs will be used
 Created    4 streams on each DCU
 vasp.6.3.2 27Jun22 (build Mar 15 2023 15:45:48) complex                        
  
 POSCAR found type information on POSCAR MoO 
 POSCAR found :  2 types and      64 ions
 Reading from existing POTCAR
 scaLAPACK will be used selectively (only on CPU)
 Reading from existing POTCAR
 LDA part: xc-table for Pade appr. of Perdew
 POSCAR found type information on POSCAR MoO 
 POSCAR found :  2 types and      64 ions
 Optimize memory usage for KPAR
 found WAVECAR, reading the header
 WARNING: stress and forces are not correct
 POSCAR, INCAR and KPOINTS ok, starting setup
 FFT: planning ... GRIDC
 FFT: planning ... GRID_SOFT
 FFT: planning ... GRID
 reading WAVECAR
 the WAVECAR file was read successfully
 charge-density read from file: ni3al                                   
 entering main loop
       N       E                     dE             d eps       ncg     rms          rms(c)
DAV:   1    -0.659980315804E+03   -0.65998E+03   -0.12263E-05  7208   0.735E-03
DAV:   2    -0.659980315936E+03   -0.13167E-06   -0.13185E-06  4352   0.163E-03
DAV:   3    -0.659980315952E+03   -0.16473E-07   -0.16220E-07  3560   0.484E-04
DAV:   4    -0.659980315959E+03   -0.70431E-08   -0.68394E-08  3480   0.245E-04
DAV:   5    -0.659980315963E+03   -0.35507E-08   -0.37961E-08  3480   0.157E-04
   1 F= -.65998032E+03 E0= -.65998032E+03  d E =0.000000E+00
 writing wavefunctions
 -----------------------------------------------------------------------------
|                                                                             |
|           W    W    AA    RRRRR   N    N  II  N    N   GGGG   !!!           |
|           W    W   A  A   R    R  NN   N  II  NN   N  G    G  !!!           |
|           W    W  A    A  R    R  N N  N  II  N N  N  G       !!!           |
|           W WW W  AAAAAA  RRRRR   N  N N  II  N  N N  G  GGG   !            |
|           WW  WW  A    A  R   R   N   NN  II  N   NN  G    G                |
|           W    W  A    A  R    R  N    N  II  N    N   GGGG   !!!           |
|                                                                             |
|     Tetrahedron method does not include variations of the Fermi             |
|     occupations, so forces and stress will be inaccurate. We suggest        |
|     using a different smearing scheme ISMEAR = 1 or 2 for metals in         |
|     relaxations.                                                            |
|                                                                             |
 -----------------------------------------------------------------------------

 PROFILE, used timers:     190
