Generated by VASPKIT code               
   1.00000000000000     
     9.5029000000000003    0.0000000000000000    0.0000000000000000
     0.0000000000000000   13.4327000000000005    0.0000000000000000
     0.0000000000000000    0.0000000000000000   26.1938999999999993
   Mo   Nb   O 
   106     2     1
Selective dynamics
Direct
  0.4999962434102723  0.0006226059336281  0.3417321010275147   T   T   T
  0.5000000000000000  0.1666700000000034  0.2564100000000025   F   F   F
  0.6666700000000034  0.1666700000000034  0.0000000000000000   F   F   F
  0.5000000000000000  0.1666700000000034  0.0854700000000008   F   F   F
  0.6666700000000034  0.1666700000000034  0.1709400000000016   F   F   F
  0.6666700000000034  0.0000000000000000  0.0854700000000008   F   F   F
  0.6666200344875240  0.1666786712320563  0.3420329231359952   T   T   T
  0.4999908016713702  0.1655306715630175  0.4229951020463376   T   T   T
  0.8333299999999966  0.3333299999999966  0.0000000000000000   F   F   F
  0.6666700000000034  0.3333299999999966  0.2564100000000025   F   F   F
  0.8352712251296767  0.8357786443039080  0.4234001650691290   T   T   T
  0.3328941383172713  0.5015879583226989  0.3432160865255943   T   T   T
  0.8333299999999966  0.6666700000000034  0.0000000000000000   F   F   F
  0.6666700000000034  0.6666700000000034  0.2564100000000025   F   F   F
  0.6676278226010449  0.8321270482001496  0.3430797158781059   T   T   T
  0.8333299999999966  0.8333299999999966  0.2564100000000025   F   F   F
  0.8339282939675473  0.6674413919280465  0.3417310981659132   T   T   T
  0.8333299999999966  0.8333299999999966  0.0854700000000008   F   F   F
  0.8333299999999966  0.6666700000000034  0.1709400000000016   F   F   F
  0.6663940996961352  0.3327723050162302  0.4232822047094998   T   T   T
  0.8333299999999966  0.3333299999999966  0.1709400000000016   F   F   F
  0.4999840440493207  0.4918436248238534  0.4251200578801301   T   T   T
  0.6666700000000034  0.5000000000000000  0.1709400000000016   F   F   F
  0.6666700000000034  0.3333299999999966  0.0854700000000008   F   F   F
  0.6670817893748389  0.5015916564554606  0.3432170104325379   T   T   T
  0.1646959395941108  0.8357780415196326  0.4234012315518501   T   T   T
  0.6666700000000034  0.5000000000000000  0.0000000000000000   F   F   F
  0.3323470251481930  0.8321291659977339  0.3430752989161776   T   T   T
  0.1666700000000034  0.6666700000000034  0.0000000000000000   F   F   F
  0.1668983433413270  0.3333384091460948  0.3419500040143989   T   T   T
  0.1666700000000034  0.5000000000000000  0.0854700000000008   F   F   F
  0.1666700000000034  0.3333299999999966  0.1709400000000016   F   F   F
  0.1666700000000034  0.3333299999999966  0.0000000000000000   F   F   F
  0.0000000000000000  0.3333299999999966  0.2564100000000025   F   F   F
 -0.0000042825154592  0.5004197722950504  0.3428055750773715   T   T   T
  0.1666700000000034  0.5000000000000000  0.2564100000000025   F   F   F
  0.1666700000000034  0.8333299999999966  0.2564100000000025   F   F   F
  0.1666700000000034  0.6666700000000034  0.1709400000000016   F   F   F
  0.3333299999999966  0.6666700000000034  0.2564100000000025   F   F   F
  0.1660287022430461  0.6674345468313102  0.3417288133190378   T   T   T
  0.3333299999999966  0.6666700000000034  0.0854700000000008   F   F   F
  0.3333299999999966  0.8333299999999966  0.0000000000000000   F   F   F
  0.1666700000000034  0.8333299999999966  0.0854700000000008   F   F   F
  0.3333299999999966  0.8333299999999966  0.1709400000000016   F   F   F
  0.3333299999999966  0.1666700000000034  0.0000000000000000   F   F   F
  0.3333299999999966  0.0000000000000000  0.0854700000000008   F   F   F
  0.5000000000000000  0.0000000000000000  0.0000000000000000   F   F   F
  0.0000000000000000  0.6666700000000034  0.2564100000000025   F   F   F
  0.1666700000000034  0.1666700000000034  0.2564100000000025   F   F   F
  0.6666700000000034  0.8333299999999966  0.0000000000000000   F   F   F
  0.3333299999999966  0.0000000000000000  0.2564100000000025   F   F   F
  0.3333299999999966  0.1666700000000034  0.1709400000000016   F   F   F
  0.3324041610798767  0.0024870122734729  0.4240498545568879   T   T   T
  0.3333617990014943  0.1666766857063589  0.3420306076219116   T   T   T
  0.1663782475470837  0.1671490263105498  0.4231708313117344   T   T   T
  0.1667615289805536  0.0004507771231347  0.3419118843156719   T   T   T
  0.0000000000000000  0.1666700000000034  0.1709400000000016   F   F   F
  0.1666700000000034  0.1666700000000034  0.0854700000000008   F   F   F
  0.1666700000000034  0.0000000000000000  0.1709400000000016   F   F   F
  0.0000000000000000  0.3333299999999966  0.0854700000000008   F   F   F
 -0.0000119059109025  0.0019586059236864  0.4233280104119522   T   T   T
  0.1666700000000034  0.0000000000000000  0.0000000000000000   F   F   F
  0.0000000000000000  0.1666700000000034  0.0000000000000000   F   F   F
  0.0000000000000000  0.0000000000000000  0.0854700000000008   F   F   F
  0.6666700000000034  0.8333299999999966  0.1709400000000016   F   F   F
  0.5000000000000000  0.6666700000000034  0.0000000000000000   F   F   F
  0.0000000759659995  0.1670087216893480  0.3419522578951082   T   T   T
  0.0000000000000000  0.0000000000000000  0.2564100000000025   F   F   F
 -0.0000173208171430  0.6682045625446691  0.4242655353894341   T   T   T
  0.8330815172879231  0.3333406653089903  0.3419496776994121   T   T   T
  0.8333299999999966  0.5000000000000000  0.2564100000000025   F   F   F
  0.0000000000000000  0.8333299999999966  0.0000000000000000   F   F   F
  0.8364139819272298  0.4997346387169457  0.4227322332146830   T   T   T
  0.0000000000000000  0.8333299999999966  0.1709400000000016   F   F   F
  0.0000000000000000  0.6666700000000034  0.0854700000000008   F   F   F
 -0.0000014312485871  0.8336561273877399  0.3425496676970431   T   T   T
  0.3333299999999966  0.3333299999999966  0.2564100000000025   F   F   F
  0.8335993318956199  0.1671486579314364  0.4231720582114437   T   T   T
  0.8333299999999966  0.0000000000000000  0.0000000000000000   F   F   F
  0.6675683818305702  0.0024858058833539  0.4240496001997620   T   T   T
  0.8333299999999966  0.0000000000000000  0.1709400000000016   F   F   F
  0.8332194724935773  0.0004478464239817  0.3419129728277630   T   T   T
  0.8333299999999966  0.1666700000000034  0.2564100000000025   F   F   F
  0.0000000000000000  0.5000000000000000  0.0000000000000000   F   F   F
  0.8333299999999966  0.1666700000000034  0.0854700000000008   F   F   F
  0.0000000000000000  0.5000000000000000  0.1709400000000016   F   F   F
  0.1635494805662869  0.4997386897301425  0.4227303644253136   T   T   T
  0.6666700000000034  0.6666700000000034  0.0854700000000008   F   F   F
  0.6666700000000034  0.0000000000000000  0.2564100000000025   F   F   F
  0.4999862891341699  0.8429595222551668  0.4218898931924572   T   T   T
  0.5000037633981248  0.6665805515468061  0.3428640371910915   T   T   T
  0.5000000000000000  0.8333299999999966  0.2564100000000025   F   F   F
  0.5000000000000000  0.6666700000000034  0.1709400000000016   F   F   F
  0.5000000000000000  0.8333299999999966  0.0854700000000008   F   F   F
 -0.0000131946865253  0.3310584648449261  0.4234063231070018   T   T   T
  0.3333299999999966  0.5000000000000000  0.0000000000000000   F   F   F
  0.8333299999999966  0.5000000000000000  0.0854700000000008   F   F   F
  0.5000000000000000  0.0000000000000000  0.1709400000000016   F   F   F
  0.5000000000000000  0.3333299999999966  0.1709400000000016   F   F   F
  0.5000000000000000  0.5000000000000000  0.0854700000000008   F   F   F
  0.3333299999999966  0.5000000000000000  0.1709400000000016   F   F   F
  0.3333299999999966  0.3333299999999966  0.0854700000000008   F   F   F
  0.4999979363975796  0.3333704786128907  0.3416454231505484   T   T   T
  0.5000000000000000  0.5000000000000000  0.2564100000000025   F   F   F
  0.5000000000000000  0.3333299999999966  0.0000000000000000   F   F   F
  0.3335785212620013  0.3327750025799757  0.4232825636109461   T   T   T
  0.3348224670215027  0.6658538373529649  0.4320202994674230   T   T   T
  0.6651347149071507  0.6658476577475791  0.4320186453663883   T   T   T
  0.4999743857480219  0.6150515922309108  0.4745182447866300   T   T   T
 
  0.00000000E+00  0.00000000E+00  0.00000000E+00
  0.00000000E+00  0.00000000E+00  0.00000000E+00
  0.00000000E+00  0.00000000E+00  0.00000000E+00
  0.00000000E+00  0.00000000E+00  0.00000000E+00
  0.00000000E+00  0.00000000E+00  0.00000000E+00
  0.00000000E+00  0.00000000E+00  0.00000000E+00
  0.00000000E+00  0.00000000E+00  0.00000000E+00
  0.00000000E+00  0.00000000E+00  0.00000000E+00
  0.00000000E+00  0.00000000E+00  0.00000000E+00
  0.00000000E+00  0.00000000E+00  0.00000000E+00
  0.00000000E+00  0.00000000E+00  0.00000000E+00
  0.00000000E+00  0.00000000E+00  0.00000000E+00
  0.00000000E+00  0.00000000E+00  0.00000000E+00
  0.00000000E+00  0.00000000E+00  0.00000000E+00
  0.00000000E+00  0.00000000E+00  0.00000000E+00
  0.00000000E+00  0.00000000E+00  0.00000000E+00
  0.00000000E+00  0.00000000E+00  0.00000000E+00
  0.00000000E+00  0.00000000E+00  0.00000000E+00
  0.00000000E+00  0.00000000E+00  0.00000000E+00
  0.00000000E+00  0.00000000E+00  0.00000000E+00
  0.00000000E+00  0.00000000E+00  0.00000000E+00
  0.00000000E+00  0.00000000E+00  0.00000000E+00
  0.00000000E+00  0.00000000E+00  0.00000000E+00
  0.00000000E+00  0.00000000E+00  0.00000000E+00
  0.00000000E+00  0.00000000E+00  0.00000000E+00
  0.00000000E+00  0.00000000E+00  0.00000000E+00
  0.00000000E+00  0.00000000E+00  0.00000000E+00
  0.00000000E+00  0.00000000E+00  0.00000000E+00
  0.00000000E+00  0.00000000E+00  0.00000000E+00
  0.00000000E+00  0.00000000E+00  0.00000000E+00
  0.00000000E+00  0.00000000E+00  0.00000000E+00
  0.00000000E+00  0.00000000E+00  0.00000000E+00
  0.00000000E+00  0.00000000E+00  0.00000000E+00
  0.00000000E+00  0.00000000E+00  0.00000000E+00
  0.00000000E+00  0.00000000E+00  0.00000000E+00
  0.00000000E+00  0.00000000E+00  0.00000000E+00
  0.00000000E+00  0.00000000E+00  0.00000000E+00
  0.00000000E+00  0.00000000E+00  0.00000000E+00
  0.00000000E+00  0.00000000E+00  0.00000000E+00
  0.00000000E+00  0.00000000E+00  0.00000000E+00
  0.00000000E+00  0.00000000E+00  0.00000000E+00
  0.00000000E+00  0.00000000E+00  0.00000000E+00
  0.00000000E+00  0.00000000E+00  0.00000000E+00
  0.00000000E+00  0.00000000E+00  0.00000000E+00
  0.00000000E+00  0.00000000E+00  0.00000000E+00
  0.00000000E+00  0.00000000E+00  0.00000000E+00
  0.00000000E+00  0.00000000E+00  0.00000000E+00
  0.00000000E+00  0.00000000E+00  0.00000000E+00
  0.00000000E+00  0.00000000E+00  0.00000000E+00
  0.00000000E+00  0.00000000E+00  0.00000000E+00
  0.00000000E+00  0.00000000E+00  0.00000000E+00
  0.00000000E+00  0.00000000E+00  0.00000000E+00
  0.00000000E+00  0.00000000E+00  0.00000000E+00
  0.00000000E+00  0.00000000E+00  0.00000000E+00
  0.00000000E+00  0.00000000E+00  0.00000000E+00
  0.00000000E+00  0.00000000E+00  0.00000000E+00
  0.00000000E+00  0.00000000E+00  0.00000000E+00
  0.00000000E+00  0.00000000E+00  0.00000000E+00
  0.00000000E+00  0.00000000E+00  0.00000000E+00
  0.00000000E+00  0.00000000E+00  0.00000000E+00
  0.00000000E+00  0.00000000E+00  0.00000000E+00
  0.00000000E+00  0.00000000E+00  0.00000000E+00
  0.00000000E+00  0.00000000E+00  0.00000000E+00
  0.00000000E+00  0.00000000E+00  0.00000000E+00
  0.00000000E+00  0.00000000E+00  0.00000000E+00
  0.00000000E+00  0.00000000E+00  0.00000000E+00
  0.00000000E+00  0.00000000E+00  0.00000000E+00
  0.00000000E+00  0.00000000E+00  0.00000000E+00
  0.00000000E+00  0.00000000E+00  0.00000000E+00
  0.00000000E+00  0.00000000E+00  0.00000000E+00
  0.00000000E+00  0.00000000E+00  0.00000000E+00
  0.00000000E+00  0.00000000E+00  0.00000000E+00
  0.00000000E+00  0.00000000E+00  0.00000000E+00
  0.00000000E+00  0.00000000E+00  0.00000000E+00
  0.00000000E+00  0.00000000E+00  0.00000000E+00
  0.00000000E+00  0.00000000E+00  0.00000000E+00
  0.00000000E+00  0.00000000E+00  0.00000000E+00
  0.00000000E+00  0.00000000E+00  0.00000000E+00
  0.00000000E+00  0.00000000E+00  0.00000000E+00
  0.00000000E+00  0.00000000E+00  0.00000000E+00
  0.00000000E+00  0.00000000E+00  0.00000000E+00
  0.00000000E+00  0.00000000E+00  0.00000000E+00
  0.00000000E+00  0.00000000E+00  0.00000000E+00
  0.00000000E+00  0.00000000E+00  0.00000000E+00
  0.00000000E+00  0.00000000E+00  0.00000000E+00
  0.00000000E+00  0.00000000E+00  0.00000000E+00
  0.00000000E+00  0.00000000E+00  0.00000000E+00
  0.00000000E+00  0.00000000E+00  0.00000000E+00
  0.00000000E+00  0.00000000E+00  0.00000000E+00
  0.00000000E+00  0.00000000E+00  0.00000000E+00
  0.00000000E+00  0.00000000E+00  0.00000000E+00
  0.00000000E+00  0.00000000E+00  0.00000000E+00
  0.00000000E+00  0.00000000E+00  0.00000000E+00
  0.00000000E+00  0.00000000E+00  0.00000000E+00
  0.00000000E+00  0.00000000E+00  0.00000000E+00
  0.00000000E+00  0.00000000E+00  0.00000000E+00
  0.00000000E+00  0.00000000E+00  0.00000000E+00
  0.00000000E+00  0.00000000E+00  0.00000000E+00
  0.00000000E+00  0.00000000E+00  0.00000000E+00
  0.00000000E+00  0.00000000E+00  0.00000000E+00
  0.00000000E+00  0.00000000E+00  0.00000000E+00
  0.00000000E+00  0.00000000E+00  0.00000000E+00
  0.00000000E+00  0.00000000E+00  0.00000000E+00
  0.00000000E+00  0.00000000E+00  0.00000000E+00
  0.00000000E+00  0.00000000E+00  0.00000000E+00
  0.00000000E+00  0.00000000E+00  0.00000000E+00
  0.00000000E+00  0.00000000E+00  0.00000000E+00
  0.00000000E+00  0.00000000E+00  0.00000000E+00
  0.00000000E+00  0.00000000E+00  0.00000000E+00
