  64  64   0   0
  0.3454128E+02  0.9498400E-09  0.9498400E-09  0.2450290E-08  0.5000000E-15
  1.000000000000000E-004
  CAR 
 ni3al                                   
      8.92692097    -60.83871262  301      3.54757314      1.00000000
    -60.839  0.0000E+00  0.0000E+00
    -60.606  0.0000E+00  0.0000E+00
    -60.374  0.0000E+00  0.0000E+00
    -60.141  0.0000E+00  0.0000E+00
    -59.909  0.0000E+00  0.0000E+00
    -59.676  0.0000E+00  0.0000E+00
    -59.443  0.0000E+00  0.0000E+00
    -59.211  0.0000E+00  0.0000E+00
    -58.978  0.0000E+00  0.0000E+00
    -58.746  0.0000E+00  0.0000E+00
    -58.513  0.0000E+00  0.0000E+00
    -58.281  0.0000E+00  0.0000E+00
    -58.048  0.1105E-06  0.2569E-07
    -57.816  0.1263E+00  0.2938E-01
    -57.583  0.4682E+02  0.1092E+02
    -57.350  0.2500E+03  0.6906E+02
    -57.118  0.1967E+03  0.1148E+03
    -56.885  0.3096E+02  0.1220E+03
    -56.653  0.6479E-02  0.1220E+03
    -56.420  0.9924E-10  0.1220E+03
    -56.188  0.0000E+00  0.1220E+03
    -55.955  0.0000E+00  0.1220E+03
    -55.723  0.0000E+00  0.1220E+03
    -55.490  0.0000E+00  0.1220E+03
    -55.257  0.0000E+00  0.1220E+03
    -55.025  0.0000E+00  0.1220E+03
    -54.792  0.0000E+00  0.1220E+03
    -54.560  0.0000E+00  0.1220E+03
    -54.327  0.0000E+00  0.1220E+03
    -54.095  0.0000E+00  0.1220E+03
    -53.862  0.0000E+00  0.1220E+03
    -53.630  0.0000E+00  0.1220E+03
    -53.397  0.0000E+00  0.1220E+03
    -53.164  0.0000E+00  0.1220E+03
    -52.932  0.0000E+00  0.1220E+03
    -52.699  0.0000E+00  0.1220E+03
    -52.467  0.0000E+00  0.1220E+03
    -52.234  0.2087E-09  0.1220E+03
    -52.002  0.4369E-02  0.1220E+03
    -51.769  0.4908E+01  0.1231E+03
    -51.537  0.1199E+02  0.1259E+03
    -51.304  0.3032E+00  0.1260E+03
    -51.072  0.1431E-05  0.1260E+03
    -50.839  0.0000E+00  0.1260E+03
    -50.606  0.0000E+00  0.1260E+03
    -50.374  0.0000E+00  0.1260E+03
    -50.141  0.0000E+00  0.1260E+03
    -49.909  0.0000E+00  0.1260E+03
    -49.676  0.0000E+00  0.1260E+03
    -49.444  0.0000E+00  0.1260E+03
    -49.211  0.0000E+00  0.1260E+03
    -48.979  0.0000E+00  0.1260E+03
    -48.746  0.0000E+00  0.1260E+03
    -48.513  0.0000E+00  0.1260E+03
    -48.281  0.0000E+00  0.1260E+03
    -48.048  0.0000E+00  0.1260E+03
    -47.816  0.0000E+00  0.1260E+03
    -47.583  0.0000E+00  0.1260E+03
    -47.351  0.0000E+00  0.1260E+03
    -47.118  0.0000E+00  0.1260E+03
    -46.886  0.0000E+00  0.1260E+03
    -46.653  0.0000E+00  0.1260E+03
    -46.420  0.0000E+00  0.1260E+03
    -46.188  0.0000E+00  0.1260E+03
    -45.955  0.0000E+00  0.1260E+03
    -45.723  0.0000E+00  0.1260E+03
    -45.490  0.0000E+00  0.1260E+03
    -45.258  0.0000E+00  0.1260E+03
    -45.025  0.0000E+00  0.1260E+03
    -44.793  0.0000E+00  0.1260E+03
    -44.560  0.0000E+00  0.1260E+03
    -44.328  0.0000E+00  0.1260E+03
    -44.095  0.0000E+00  0.1260E+03
    -43.862  0.0000E+00  0.1260E+03
    -43.630  0.0000E+00  0.1260E+03
    -43.397  0.0000E+00  0.1260E+03
    -43.165  0.0000E+00  0.1260E+03
    -42.932  0.0000E+00  0.1260E+03
    -42.700  0.0000E+00  0.1260E+03
    -42.467  0.0000E+00  0.1260E+03
    -42.235  0.0000E+00  0.1260E+03
    -42.002  0.0000E+00  0.1260E+03
    -41.769  0.0000E+00  0.1260E+03
    -41.537  0.0000E+00  0.1260E+03
    -41.304  0.0000E+00  0.1260E+03
    -41.072  0.0000E+00  0.1260E+03
    -40.839  0.0000E+00  0.1260E+03
    -40.607  0.0000E+00  0.1260E+03
    -40.374  0.0000E+00  0.1260E+03
    -40.142  0.0000E+00  0.1260E+03
    -39.909  0.0000E+00  0.1260E+03
    -39.676  0.0000E+00  0.1260E+03
    -39.444  0.0000E+00  0.1260E+03
    -39.211  0.0000E+00  0.1260E+03
    -38.979  0.0000E+00  0.1260E+03
    -38.746  0.0000E+00  0.1260E+03
    -38.514  0.0000E+00  0.1260E+03
    -38.281  0.0000E+00  0.1260E+03
    -38.049  0.0000E+00  0.1260E+03
    -37.816  0.0000E+00  0.1260E+03
    -37.584  0.0000E+00  0.1260E+03
    -37.351  0.0000E+00  0.1260E+03
    -37.118  0.0000E+00  0.1260E+03
    -36.886  0.0000E+00  0.1260E+03
    -36.653  0.0000E+00  0.1260E+03
    -36.421  0.0000E+00  0.1260E+03
    -36.188  0.0000E+00  0.1260E+03
    -35.956  0.0000E+00  0.1260E+03
    -35.723  0.0000E+00  0.1260E+03
    -35.491  0.0000E+00  0.1260E+03
    -35.258  0.0000E+00  0.1260E+03
    -35.025  0.0000E+00  0.1260E+03
    -34.793  0.0000E+00  0.1260E+03
    -34.560  0.0000E+00  0.1260E+03
    -34.328  0.0000E+00  0.1260E+03
    -34.095  0.0000E+00  0.1260E+03
    -33.863  0.0000E+00  0.1260E+03
    -33.630  0.0000E+00  0.1260E+03
    -33.398  0.0000E+00  0.1260E+03
    -33.165  0.0000E+00  0.1260E+03
    -32.932  0.0000E+00  0.1260E+03
    -32.700  0.1753E-07  0.1260E+03
    -32.467  0.6439E-01  0.1260E+03
    -32.235  0.3236E+02  0.1335E+03
    -32.002  0.1905E+03  0.1779E+03
    -31.770  0.2013E+03  0.2247E+03
    -31.537  0.2286E+03  0.2778E+03
    -31.305  0.2853E+03  0.3442E+03
    -31.072  0.3389E+03  0.4230E+03
    -30.839  0.2705E+03  0.4859E+03
    -30.607  0.2623E+02  0.4920E+03
    -30.374  0.1709E-01  0.4920E+03
    -30.142  0.1049E-08  0.4920E+03
    -29.909  0.0000E+00  0.4920E+03
    -29.677  0.0000E+00  0.4920E+03
    -29.444  0.0000E+00  0.4920E+03
    -29.212  0.0000E+00  0.4920E+03
    -28.979  0.0000E+00  0.4920E+03
    -28.747  0.0000E+00  0.4920E+03
    -28.514  0.3328E-12  0.4920E+03
    -28.281  0.1221E-03  0.4920E+03
    -28.049  0.1600E+01  0.4924E+03
    -27.816  0.1873E+02  0.4967E+03
    -27.584  0.2715E+02  0.5030E+03
    -27.351  0.4120E+01  0.5040E+03
    -27.119  0.1864E-02  0.5040E+03
    -26.886  0.4236E-10  0.5040E+03
    -26.654  0.0000E+00  0.5040E+03
    -26.421  0.0000E+00  0.5040E+03
    -26.188  0.0000E+00  0.5040E+03
    -25.956  0.0000E+00  0.5040E+03
    -25.723  0.0000E+00  0.5040E+03
    -25.491  0.0000E+00  0.5040E+03
    -25.258  0.0000E+00  0.5040E+03
    -25.026  0.0000E+00  0.5040E+03
    -24.793  0.0000E+00  0.5040E+03
    -24.561  0.0000E+00  0.5040E+03
    -24.328  0.0000E+00  0.5040E+03
    -24.095  0.0000E+00  0.5040E+03
    -23.863  0.0000E+00  0.5040E+03
    -23.630  0.0000E+00  0.5040E+03
    -23.398  0.0000E+00  0.5040E+03
    -23.165  0.0000E+00  0.5040E+03
    -22.933  0.0000E+00  0.5040E+03
    -22.700  0.0000E+00  0.5040E+03
    -22.468  0.0000E+00  0.5040E+03
    -22.235  0.0000E+00  0.5040E+03
    -22.003  0.0000E+00  0.5040E+03
    -21.770  0.0000E+00  0.5040E+03
    -21.537  0.0000E+00  0.5040E+03
    -21.305  0.0000E+00  0.5040E+03
    -21.072  0.0000E+00  0.5040E+03
    -20.840  0.0000E+00  0.5040E+03
    -20.607  0.0000E+00  0.5040E+03
    -20.375  0.0000E+00  0.5040E+03
    -20.142  0.0000E+00  0.5040E+03
    -19.910  0.0000E+00  0.5040E+03
    -19.677  0.0000E+00  0.5040E+03
    -19.444  0.0000E+00  0.5040E+03
    -19.212  0.0000E+00  0.5040E+03
    -18.979  0.0000E+00  0.5040E+03
    -18.747  0.0000E+00  0.5040E+03
    -18.514  0.0000E+00  0.5040E+03
    -18.282  0.0000E+00  0.5040E+03
    -18.049  0.0000E+00  0.5040E+03
    -17.817  0.0000E+00  0.5040E+03
    -17.584  0.0000E+00  0.5040E+03
    -17.351  0.0000E+00  0.5040E+03
    -17.119  0.0000E+00  0.5040E+03
    -16.886  0.0000E+00  0.5040E+03
    -16.654  0.1904E-08  0.5040E+03
    -16.421  0.1369E-01  0.5040E+03
    -16.189  0.5429E+01  0.5053E+03
    -15.956  0.3156E+01  0.5060E+03
    -15.724  0.1227E-02  0.5060E+03
    -15.491  0.1984E-10  0.5060E+03
    -15.258  0.0000E+00  0.5060E+03
    -15.026  0.0000E+00  0.5060E+03
    -14.793  0.0000E+00  0.5060E+03
    -14.561  0.0000E+00  0.5060E+03
    -14.328  0.0000E+00  0.5060E+03
    -14.096  0.0000E+00  0.5060E+03
    -13.863  0.0000E+00  0.5060E+03
    -13.631  0.0000E+00  0.5060E+03
    -13.398  0.0000E+00  0.5060E+03
    -13.166  0.0000E+00  0.5060E+03
    -12.933  0.0000E+00  0.5060E+03
    -12.700  0.0000E+00  0.5060E+03
    -12.468  0.0000E+00  0.5060E+03
    -12.235  0.0000E+00  0.5060E+03
    -12.003  0.0000E+00  0.5060E+03
    -11.770  0.0000E+00  0.5060E+03
    -11.538  0.0000E+00  0.5060E+03
    -11.305  0.0000E+00  0.5060E+03
    -11.073  0.0000E+00  0.5060E+03
    -10.840  0.0000E+00  0.5060E+03
    -10.607  0.0000E+00  0.5060E+03
    -10.375  0.0000E+00  0.5060E+03
    -10.142  0.0000E+00  0.5060E+03
     -9.910  0.0000E+00  0.5060E+03
     -9.677  0.0000E+00  0.5060E+03
     -9.445  0.0000E+00  0.5060E+03
     -9.212  0.0000E+00  0.5060E+03
     -8.980  0.0000E+00  0.5060E+03
     -8.747  0.0000E+00  0.5060E+03
     -8.514  0.0000E+00  0.5060E+03
     -8.282  0.0000E+00  0.5060E+03
     -8.049  0.0000E+00  0.5060E+03
     -7.817  0.0000E+00  0.5060E+03
     -7.584  0.0000E+00  0.5060E+03
     -7.352  0.0000E+00  0.5060E+03
     -7.119  0.0000E+00  0.5060E+03
     -6.887  0.0000E+00  0.5060E+03
     -6.654  0.0000E+00  0.5060E+03
     -6.422  0.0000E+00  0.5060E+03
     -6.189  0.0000E+00  0.5060E+03
     -5.956  0.0000E+00  0.5060E+03
     -5.724  0.0000E+00  0.5060E+03
     -5.491  0.0000E+00  0.5060E+03
     -5.259  0.0000E+00  0.5060E+03
     -5.026  0.0000E+00  0.5060E+03
     -4.794  0.0000E+00  0.5060E+03
     -4.561  0.0000E+00  0.5060E+03
     -4.329  0.0000E+00  0.5060E+03
     -4.096  0.0000E+00  0.5060E+03
     -3.863  0.0000E+00  0.5060E+03
     -3.631  0.4367E-09  0.5060E+03
     -3.398  0.1642E-02  0.5060E+03
     -3.166  0.5718E+00  0.5061E+03
     -2.933  0.7664E+01  0.5079E+03
     -2.701  0.1458E+02  0.5113E+03
     -2.468  0.9704E+01  0.5136E+03
     -2.236  0.4908E+01  0.5147E+03
     -2.003  0.6552E+01  0.5162E+03
     -1.770  0.8032E+01  0.5181E+03
     -1.538  0.9466E+01  0.5203E+03
     -1.305  0.2487E+02  0.5261E+03
     -1.073  0.4654E+02  0.5369E+03
     -0.840  0.5999E+02  0.5509E+03
     -0.608  0.7345E+02  0.5679E+03
     -0.375  0.5441E+02  0.5806E+03
     -0.143  0.7781E+02  0.5987E+03
      0.090  0.7480E+02  0.6161E+03
      0.322  0.7143E+02  0.6327E+03
      0.555  0.1055E+03  0.6572E+03
      0.788  0.1113E+03  0.6831E+03
      1.020  0.8941E+02  0.7039E+03
      1.253  0.8028E+02  0.7226E+03
      1.485  0.7342E+02  0.7396E+03
      1.718  0.8986E+02  0.7605E+03
      1.950  0.7887E+02  0.7789E+03
      2.183  0.9250E+02  0.8004E+03
      2.415  0.7037E+02  0.8168E+03
      2.648  0.5254E+02  0.8290E+03
      2.881  0.5877E+02  0.8426E+03
      3.113  0.7083E+02  0.8591E+03
      3.346  0.6547E+02  0.8743E+03
      3.578  0.5764E+02  0.8877E+03
      3.811  0.5524E+02  0.9006E+03
      4.043  0.6376E+02  0.9154E+03
      4.276  0.6600E+02  0.9308E+03
      4.508  0.7003E+02  0.9471E+03
      4.741  0.9152E+02  0.9683E+03
      4.974  0.1062E+03  0.9930E+03
      5.206  0.1110E+03  0.1019E+04
      5.439  0.1121E+03  0.1045E+04
      5.671  0.6748E+02  0.1061E+04
      5.904  0.5898E+01  0.1062E+04
      6.136  0.1121E-01  0.1062E+04
      6.369  0.1993E-07  0.1062E+04
      6.601  0.0000E+00  0.1062E+04
      6.834  0.0000E+00  0.1062E+04
      7.067  0.0000E+00  0.1062E+04
      7.299  0.0000E+00  0.1062E+04
      7.532  0.0000E+00  0.1062E+04
      7.764  0.0000E+00  0.1062E+04
      7.997  0.0000E+00  0.1062E+04
      8.229  0.0000E+00  0.1062E+04
      8.462  0.0000E+00  0.1062E+04
      8.694  0.0000E+00  0.1062E+04
      8.927  0.0000E+00  0.1062E+04
