   64   64    1    1
  0.3454128E+02  0.9498400E-09  0.9498400E-09  0.2450290E-08  0.5000000E-15
  1.000000000000000E-004
  CAR 
 ni3al                                   
    886     10    531
 
  0.0000000E+00  0.0000000E+00  0.0000000E+00  0.6250000E-01
      1        -57.667547   1.000000
      2        -57.600639   1.000000
      3        -57.578451   1.000000
      4        -57.567328   1.000000
      5        -57.566207   1.000000
      6        -57.562183   1.000000
      7        -57.542072   1.000000
      8        -57.532377   1.000000
      9        -57.529986   1.000000
     10        -57.525484   1.000000
     11        -57.523253   1.000000
     12        -57.518665   1.000000
     13        -57.514123   1.000000
     14        -57.512921   1.000000
     15        -57.504101   1.000000
     16        -57.499718   1.000000
     17        -57.494216   1.000000
     18        -57.493780   1.000000
     19        -57.460876   1.000000
     20        -57.444582   1.000000
     21        -57.431192   1.000000
     22        -57.399124   1.000000
     23        -57.393230   1.000000
     24        -57.392314   1.000000
     25        -57.388916   1.000000
     26        -57.387791   1.000000
     27        -57.384479   1.000000
     28        -57.383794   1.000000
     29        -57.376382   1.000000
     30        -57.376295   1.000000
     31        -57.375271   1.000000
     32        -57.373559   1.000000
     33        -57.367234   1.000000
     34        -57.360899   1.000000
     35        -57.358743   1.000000
     36        -57.357810   1.000000
     37        -57.356266   1.000000
     38        -57.350124   1.000000
     39        -57.347193   1.000000
     40        -57.347020   1.000000
     41        -57.345346   1.000000
     42        -57.343321   1.000000
     43        -57.334416   1.000000
     44        -57.329878   1.000000
     45        -57.287795   1.000000
     46        -57.247698   1.000000
     47        -57.245790   1.000000
     48        -57.180874   1.000000
     49        -57.176392   1.000000
     50        -57.175054   1.000000
     51        -57.175000   1.000000
     52        -57.172664   1.000000
     53        -57.172391   1.000000
     54        -57.171512   1.000000
     55        -57.170863   1.000000
     56        -57.170838   1.000000
     57        -57.169583   1.000000
     58        -57.158358   1.000000
     59        -57.154128   1.000000
     60        -57.153619   1.000000
     61        -57.125186   1.000000
     62        -51.769335   1.000000
     63        -51.664972   1.000000
     64        -32.264844   1.000000
     65        -32.243313   1.000000
     66        -32.227028   1.000000
     67        -32.224703   1.000000
     68        -32.186538   1.000000
     69        -32.182711   1.000000
     70        -32.167325   1.000000
     71        -32.164886   1.000000
     72        -32.160933   1.000000
     73        -32.155628   1.000000
     74        -32.151439   1.000000
     75        -32.150656   1.000000
     76        -32.133702   1.000000
     77        -32.075550   1.000000
     78        -32.074813   1.000000
     79        -32.071785   1.000000
     80        -32.052903   1.000000
     81        -32.045677   1.000000
     82        -32.038515   1.000000
     83        -32.027452   1.000000
     84        -32.026168   1.000000
     85        -32.021531   1.000000
     86        -32.018947   1.000000
     87        -32.010785   1.000000
     88        -32.009513   1.000000
     89        -32.003871   1.000000
     90        -32.001238   1.000000
     91        -31.999687   1.000000
     92        -31.992231   1.000000
     93        -31.991543   1.000000
     94        -31.990410   1.000000
     95        -31.975227   1.000000
     96        -31.968319   1.000000
     97        -31.966081   1.000000
     98        -31.954461   1.000000
     99        -31.944909   1.000000
    100        -31.928078   1.000000
    101        -31.906279   1.000000
    102        -31.898687   1.000000
    103        -31.889255   1.000000
    104        -31.880999   1.000000
    105        -31.852736   1.000000
    106        -31.851862   1.000000
    107        -31.837754   1.000000
    108        -31.808912   1.000000
    109        -31.801331   1.000000
    110        -31.790481   1.000000
    111        -31.787534   1.000000
    112        -31.767725   1.000000
    113        -31.764753   1.000000
    114        -31.760960   1.000000
    115        -31.746223   1.000000
    116        -31.728630   1.000000
    117        -31.725515   1.000000
    118        -31.709563   1.000000
    119        -31.703830   1.000000
    120        -31.684016   1.000000
    121        -31.677514   1.000000
    122        -31.668622   1.000000
    123        -31.667388   1.000000
    124        -31.657928   1.000000
    125        -31.645090   1.000000
    126        -31.643750   1.000000
    127        -31.638471   1.000000
    128        -31.636240   1.000000
    129        -31.628394   1.000000
    130        -31.627742   1.000000
    131        -31.619888   1.000000
    132        -31.611474   1.000000
    133        -31.603924   1.000000
    134        -31.586540   1.000000
    135        -31.578506   1.000000
    136        -31.569010   1.000000
    137        -31.560567   1.000000
    138        -31.558949   1.000000
    139        -31.548966   1.000000
    140        -31.539691   1.000000
    141        -31.538619   1.000000
    142        -31.524540   1.000000
    143        -31.517295   1.000000
    144        -31.514761   1.000000
    145        -31.502644   1.000000
    146        -31.495260   1.000000
    147        -31.486841   1.000000
    148        -31.473303   1.000000
    149        -31.473259   1.000000
    150        -31.450846   1.000000
    151        -31.441240   1.000000
    152        -31.434465   1.000000
    153        -31.427728   1.000000
    154        -31.420719   1.000000
    155        -31.396393   1.000000
    156        -31.383983   1.000000
    157        -31.381981   1.000000
    158        -31.377282   1.000000
    159        -31.367164   1.000000
    160        -31.362131   1.000000
    161        -31.350463   1.000000
    162        -31.346122   1.000000
    163        -31.344766   1.000000
    164        -31.343645   1.000000
    165        -31.342965   1.000000
    166        -31.339600   1.000000
    167        -31.332604   1.000000
    168        -31.321423   1.000000
    169        -31.315541   1.000000
    170        -31.306111   1.000000
    171        -31.302341   1.000000
    172        -31.301469   1.000000
    173        -31.290373   1.000000
    174        -31.282991   1.000000
    175        -31.274560   1.000000
    176        -31.262630   1.000000
    177        -31.262324   1.000000
    178        -31.259923   1.000000
    179        -31.250479   1.000000
    180        -31.249255   1.000000
    181        -31.238352   1.000000
    182        -31.234623   1.000000
    183        -31.233929   1.000000
    184        -31.229214   1.000000
    185        -31.226035   1.000000
    186        -31.213652   1.000000
    187        -31.209605   1.000000
    188        -31.203787   1.000000
    189        -31.199547   1.000000
    190        -31.199381   1.000000
    191        -31.192900   1.000000
    192        -31.185404   1.000000
    193        -31.184149   1.000000
    194        -31.181295   1.000000
    195        -31.180128   1.000000
    196        -31.176415   1.000000
    197        -31.170817   1.000000
    198        -31.168038   1.000000
    199        -31.166045   1.000000
    200        -31.163542   1.000000
    201        -31.161103   1.000000
    202        -31.153759   1.000000
    203        -31.150457   1.000000
    204        -31.115304   1.000000
    205        -31.107481   1.000000
    206        -31.097218   1.000000
    207        -31.093231   1.000000
    208        -31.088063   1.000000
    209        -31.068526   1.000000
    210        -31.064366   1.000000
    211        -31.058784   1.000000
    212        -31.058312   1.000000
    213        -31.056616   1.000000
    214        -31.054387   1.000000
    215        -31.050298   1.000000
    216        -31.045426   1.000000
    217        -31.043848   1.000000
    218        -31.043666   1.000000
    219        -31.042594   1.000000
    220        -31.034916   1.000000
    221        -31.033351   1.000000
    222        -31.031269   1.000000
    223        -31.018533   1.000000
    224        -31.012771   1.000000
    225        -31.007488   1.000000
    226        -31.001506   1.000000
    227        -30.998737   1.000000
    228        -30.997178   1.000000
    229        -30.985629   1.000000
    230        -30.974343   1.000000
    231        -30.974178   1.000000
    232        -30.971957   1.000000
    233        -30.970649   1.000000
    234        -30.968835   1.000000
    235        -30.951432   1.000000
    236        -30.948360   1.000000
    237        -30.943096   1.000000
    238        -30.939378   1.000000
    239        -30.927087   1.000000
    240        -30.898332   1.000000
    241        -30.894597   1.000000
    242        -30.890867   1.000000
    243        -30.875087   1.000000
    244        -30.842090   1.000000
    245        -30.841661   1.000000
    246        -30.821451   1.000000
    247        -27.985358   1.000000
    248        -27.828399   1.000000
    249        -27.804165   1.000000
    250        -27.786229   1.000000
    251        -27.689446   1.000000
    252        -27.600053   1.000000
    253        -16.212804   1.000000
    254         -3.204406   1.000000
    255         -2.906604   1.000000
    256         -2.866220   1.000000
    257         -2.514512   1.000000
    258         -2.189144   1.000000
    259         -1.547909   1.000000
    260         -1.403323   1.000000
    261         -1.392488   1.000000
    262         -1.390469   1.000000
    263         -1.382296   1.000000
    264         -1.368873   1.000000
    265         -1.319294   1.000000
    266         -1.313023   1.000000
    267         -1.305783   1.000000
    268         -1.295236   1.000000
    269         -1.183115   1.000000
    270         -1.177917   1.000000
    271         -1.150983   1.000000
    272         -1.142846   1.000000
    273         -0.991458   1.000000
    274         -0.984790   1.000000
    275         -0.979335   1.000000
    276         -0.978203   1.000000
    277         -0.953834   1.000000
    278         -0.917485   1.000000
    279         -0.864040   1.000000
    280         -0.863777   1.000000
    281         -0.822742   1.000000
    282         -0.821260   1.000000
    283         -0.622921   1.000000
    284         -0.573392   1.000000
    285         -0.556168   1.000000
    286         -0.550040   1.000000
    287         -0.520338   1.000000
    288         -0.520167   1.000000
    289         -0.515995   1.000000
    290         -0.506704   1.000000
    291         -0.496751   1.000000
    292         -0.167085   1.000000
    293         -0.129437   1.000000
    294         -0.118810   1.000000
    295         -0.115160   1.000000
    296         -0.106376   1.000000
    297         -0.067708   1.000000
    298         -0.016170   1.000000
    299         -0.008677   1.000000
    300         -0.005723   1.000000
    301          0.016292   1.000000
    302          0.026792   1.000000
    303          0.034872   1.000000
    304          0.036845   1.000000
    305          0.041237   1.000000
    306          0.061061   1.000000
    307          0.078814   1.000000
    308          0.086392   1.000000
    309          0.093148   1.000000
    310          0.105455   1.000000
    311          0.117652   1.000000
    312          0.141250   1.000000
    313          0.143677   1.000000
    314          0.146451   1.000000
    315          0.155122   1.000000
    316          0.170954   1.000000
    317          0.319146   1.000000
    318          0.377834   1.000000
    319          0.445158   1.000000
    320          0.516931   1.000000
    321          0.541914   1.000000
    322          0.583097   1.000000
    323          0.590224   1.000000
    324          0.600405   1.000000
    325          0.610113   1.000000
    326          0.628584   1.000000
    327          0.637604   1.000000
    328          0.639973   1.000000
    329          0.640885   1.000000
    330          0.650812   1.000000
    331          0.714855   1.000000
    332          0.723020   1.000000
    333          0.743360   1.000000
    334          0.747418   1.000000
    335          0.768061   1.000000
    336          0.776398   1.000000
    337          0.793662   1.000000
    338          0.795803   1.000000
    339          0.809369   1.000000
    340          0.823236   1.000000
    341          0.830380   1.000000
    342          0.855159   1.000000
    343          0.856114   1.000000
    344          0.878084   1.000000
    345          0.893066   1.000000
    346          0.902106   1.000000
    347          0.941532   1.000000
    348          0.961056   1.000000
    349          1.006006   1.000000
    350          1.007843   1.000000
    351          1.016824   1.000000
    352          1.045898   1.000000
    353          1.080228   1.000000
    354          1.100862   1.000000
    355          1.137919   1.000000
    356          1.177441   1.000000
    357          1.220545   1.000000
    358          1.239484   1.000000
    359          1.263760   1.000000
    360          1.285931   1.000000
    361          1.288675   1.000000
    362          1.294830   1.000000
    363          1.349248   1.000000
    364          1.389547   1.000000
    365          1.396843   1.000000
    366          1.414132   1.000000
    367          1.420748   1.000000
    368          1.437768   1.000000
    369          1.444593   1.000000
    370          1.460862   1.000000
    371          1.473523   1.000000
    372          1.498801   1.000000
    373          1.498870   1.000000
    374          1.500248   1.000000
    375          1.527706   1.000000
    376          1.544164   1.000000
    377          1.564052   1.000000
    378          1.576181   1.000000
    379          1.610860   1.000000
    380          1.730248   1.000000
    381          1.735669   1.000000
    382          1.740278   1.000000
    383          1.770079   1.000000
    384          1.803308   1.000000
    385          1.813216   1.000000
    386          1.844925   1.000000
    387          1.940928   1.000000
    388          2.002093   1.000000
    389          2.019976   1.000000
    390          2.041093   1.000000
    391          2.044901   1.000000
    392          2.074316   1.000000
    393          2.078712   1.000000
    394          2.110189   1.000000
    395          2.153073   1.000000
    396          2.194674   1.000000
    397          2.208907   1.000000
    398          2.212025   1.000000
    399          2.245609   1.000000
    400          2.263192   1.000000
    401          2.274907   1.000000
    402          2.283630   1.000000
    403          2.287885   1.000000
    404          2.300671   1.000000
    405          2.370736   1.000000
    406          2.392815   1.000000
    407          2.397562   1.000000
    408          2.407266   1.000000
    409          2.414728   1.000000
    410          2.417737   1.000000
    411          2.438089   1.000000
    412          2.442226   1.000000
    413          2.470943   1.000000
    414          2.485492   1.000000
    415          2.550460   1.000000
    416          2.614091   1.000000
    417          2.702999   1.000000
    418          2.703645   1.000000
    419          2.710318   1.000000
    420          2.723535   1.000000
    421          2.750730   1.000000
    422          2.773254   1.000000
    423          2.781614   1.000000
    424          2.786530   1.000000
    425          2.812237   1.000000
    426          2.824571   1.000000
    427          2.852476   1.000000
    428          2.904991   1.000000
    429          2.954628   1.000000
    430          2.992022   1.000000
    431          3.001974   1.000000
    432          3.190925   1.000000
    433          3.272071   0.999951
    434          3.282492   0.999911
    435          3.299214   0.999778
    436          3.354702   0.996810
    437          3.358162   0.996304
    438          3.395437   0.984283
    439          3.456091   0.902125
    440          3.483590   0.817228
    441          3.513142   0.686845
    442          3.539524   0.545313
    443          3.579225   0.327214
    444          3.650260   0.073222
    445          3.696347   0.017690
    446          3.718679   0.007765
    447          3.765919   0.001008
    448          3.799400   0.000184
    449          3.799907   0.000179
    450          3.800426   0.000175
    451          3.802538   0.000156
    452          3.804779   0.000138
    453          3.845063   0.000013
    454          3.866041   0.000003
    455          3.872477   0.000002
    456          3.875817   0.000002
    457          3.880615   0.000001
    458          3.893509   0.000000
    459          3.916248   0.000000
    460          3.993989   0.000000
    461          3.998298   0.000000
    462          4.020334   0.000000
    463          4.035594   0.000000
    464          4.035996   0.000000
    465          4.069834   0.000000
    466          4.099771   0.000000
    467          4.135946   0.000000
    468          4.139040   0.000000
    469          4.151602   0.000000
    470          4.154889   0.000000
    471          4.179922   0.000000
    472          4.204774   0.000000
    473          4.236769   0.000000
    474          4.293137   0.000000
    475          4.347743   0.000000
    476          4.352860   0.000000
    477          4.407878   0.000000
    478          4.459694   0.000000
    479          4.526214   0.000000
    480          4.551739   0.000000
    481          4.566661   0.000000
    482          4.584316   0.000000
    483          4.606513   0.000000
    484          4.611541   0.000000
    485          4.651917   0.000000
    486          4.692343   0.000000
    487          4.700670   0.000000
    488          4.745599   0.000000
    489          4.775399   0.000000
    490          4.782097   0.000000
    491          4.805854   0.000000
    492          4.813776   0.000000
    493          4.840700   0.000000
    494          4.855368   0.000000
    495          4.869778   0.000000
    496          4.909693   0.000000
    497          4.915421   0.000000
    498          4.934997   0.000000
    499          4.959954   0.000000
    500          4.980779   0.000000
    501          5.004049   0.000000
    502          5.020354   0.000000
    503          5.065190   0.000000
    504          5.068891   0.000000
    505          5.083005   0.000000
    506          5.121811   0.000000
    507          5.137892   0.000000
    508          5.184708   0.000000
    509          5.239293   0.000000
    510          5.265289   0.000000
    511          5.275502   0.000000
    512          5.277405   0.000000
    513          5.290932   0.000000
    514          5.317812   0.000000
    515          5.319851   0.000000
    516          5.336753   0.000000
    517          5.342729   0.000000
    518          5.407301   0.000000
    519          5.413261   0.000000
    520          5.423306   0.000000
    521          5.430949   0.000000
    522          5.440340   0.000000
    523          5.461053   0.000000
    524          5.462932   0.000000
    525          5.548180   0.000000
    526          5.557145   0.000000
    527          5.578304   0.000000
    528          5.588521   0.000000
    529          5.599505   0.000000
    530          5.604403   0.000000
    531          5.620715   0.000000
 
  0.2500000E+00  0.0000000E+00  0.0000000E+00  0.1250000E+00
      1        -57.660302   1.000000
      2        -57.608165   1.000000
      3        -57.594670   1.000000
      4        -57.568417   1.000000
      5        -57.563091   1.000000
      6        -57.556156   1.000000
      7        -57.539054   1.000000
      8        -57.536085   1.000000
      9        -57.532531   1.000000
     10        -57.528740   1.000000
     11        -57.525319   1.000000
     12        -57.513896   1.000000
     13        -57.511675   1.000000
     14        -57.504260   1.000000
     15        -57.502783   1.000000
     16        -57.500715   1.000000
     17        -57.490140   1.000000
     18        -57.488583   1.000000
     19        -57.459503   1.000000
     20        -57.445448   1.000000
     21        -57.432882   1.000000
     22        -57.398957   1.000000
     23        -57.397216   1.000000
     24        -57.392644   1.000000
     25        -57.387434   1.000000
     26        -57.386917   1.000000
     27        -57.386073   1.000000
     28        -57.381243   1.000000
     29        -57.379885   1.000000
     30        -57.378371   1.000000
     31        -57.375384   1.000000
     32        -57.373814   1.000000
     33        -57.371853   1.000000
     34        -57.365589   1.000000
     35        -57.360914   1.000000
     36        -57.359306   1.000000
     37        -57.355540   1.000000
     38        -57.352671   1.000000
     39        -57.348707   1.000000
     40        -57.347334   1.000000
     41        -57.343797   1.000000
     42        -57.338194   1.000000
     43        -57.332758   1.000000
     44        -57.318024   1.000000
     45        -57.290970   1.000000
     46        -57.249345   1.000000
     47        -57.245052   1.000000
     48        -57.183214   1.000000
     49        -57.178340   1.000000
     50        -57.177601   1.000000
     51        -57.174747   1.000000
     52        -57.173797   1.000000
     53        -57.171853   1.000000
     54        -57.170707   1.000000
     55        -57.169096   1.000000
     56        -57.168503   1.000000
     57        -57.167778   1.000000
     58        -57.158652   1.000000
     59        -57.155438   1.000000
     60        -57.149481   1.000000
     61        -57.127183   1.000000
     62        -51.769335   1.000000
     63        -51.664972   1.000000
     64        -32.274755   1.000000
     65        -32.256781   1.000000
     66        -32.246330   1.000000
     67        -32.202143   1.000000
     68        -32.194299   1.000000
     69        -32.192001   1.000000
     70        -32.172192   1.000000
     71        -32.160106   1.000000
     72        -32.152009   1.000000
     73        -32.127394   1.000000
     74        -32.118889   1.000000
     75        -32.110669   1.000000
     76        -32.105578   1.000000
     77        -32.101084   1.000000
     78        -32.098048   1.000000
     79        -32.086327   1.000000
     80        -32.078731   1.000000
     81        -32.074733   1.000000
     82        -32.062611   1.000000
     83        -32.057990   1.000000
     84        -32.053536   1.000000
     85        -32.046859   1.000000
     86        -32.038496   1.000000
     87        -32.030380   1.000000
     88        -32.022045   1.000000
     89        -32.008776   1.000000
     90        -32.001048   1.000000
     91        -31.992667   1.000000
     92        -31.987635   1.000000
     93        -31.981110   1.000000
     94        -31.977643   1.000000
     95        -31.962628   1.000000
     96        -31.944680   1.000000
     97        -31.939826   1.000000
     98        -31.925996   1.000000
     99        -31.921009   1.000000
    100        -31.914300   1.000000
    101        -31.910512   1.000000
    102        -31.894775   1.000000
    103        -31.873323   1.000000
    104        -31.865708   1.000000
    105        -31.846735   1.000000
    106        -31.831930   1.000000
    107        -31.824898   1.000000
    108        -31.819876   1.000000
    109        -31.800033   1.000000
    110        -31.786817   1.000000
    111        -31.783640   1.000000
    112        -31.770410   1.000000
    113        -31.765654   1.000000
    114        -31.754426   1.000000
    115        -31.746853   1.000000
    116        -31.733865   1.000000
    117        -31.727082   1.000000
    118        -31.719172   1.000000
    119        -31.696505   1.000000
    120        -31.692167   1.000000
    121        -31.681130   1.000000
    122        -31.670379   1.000000
    123        -31.665041   1.000000
    124        -31.656034   1.000000
    125        -31.652960   1.000000
    126        -31.647099   1.000000
    127        -31.636914   1.000000
    128        -31.628321   1.000000
    129        -31.623519   1.000000
    130        -31.618325   1.000000
    131        -31.613630   1.000000
    132        -31.606867   1.000000
    133        -31.602687   1.000000
    134        -31.596636   1.000000
    135        -31.581866   1.000000
    136        -31.572741   1.000000
    137        -31.565526   1.000000
    138        -31.548247   1.000000
    139        -31.540481   1.000000
    140        -31.530004   1.000000
    141        -31.523494   1.000000
    142        -31.520554   1.000000
    143        -31.510001   1.000000
    144        -31.500562   1.000000
    145        -31.496549   1.000000
    146        -31.491103   1.000000
    147        -31.475755   1.000000
    148        -31.470928   1.000000
    149        -31.458379   1.000000
    150        -31.451461   1.000000
    151        -31.445282   1.000000
    152        -31.435048   1.000000
    153        -31.430089   1.000000
    154        -31.424674   1.000000
    155        -31.415197   1.000000
    156        -31.408148   1.000000
    157        -31.395036   1.000000
    158        -31.388891   1.000000
    159        -31.380932   1.000000
    160        -31.371980   1.000000
    161        -31.366970   1.000000
    162        -31.363485   1.000000
    163        -31.362298   1.000000
    164        -31.357786   1.000000
    165        -31.350313   1.000000
    166        -31.347159   1.000000
    167        -31.337456   1.000000
    168        -31.334215   1.000000
    169        -31.332489   1.000000
    170        -31.327818   1.000000
    171        -31.320253   1.000000
    172        -31.310712   1.000000
    173        -31.307376   1.000000
    174        -31.301637   1.000000
    175        -31.277998   1.000000
    176        -31.268479   1.000000
    177        -31.263761   1.000000
    178        -31.254717   1.000000
    179        -31.249858   1.000000
    180        -31.243586   1.000000
    181        -31.236824   1.000000
    182        -31.230817   1.000000
    183        -31.225465   1.000000
    184        -31.221321   1.000000
    185        -31.218889   1.000000
    186        -31.212915   1.000000
    187        -31.210630   1.000000
    188        -31.206810   1.000000
    189        -31.199865   1.000000
    190        -31.194704   1.000000
    191        -31.187240   1.000000
    192        -31.181447   1.000000
    193        -31.177055   1.000000
    194        -31.173058   1.000000
    195        -31.166040   1.000000
    196        -31.160829   1.000000
    197        -31.155230   1.000000
    198        -31.150447   1.000000
    199        -31.148848   1.000000
    200        -31.143420   1.000000
    201        -31.140020   1.000000
    202        -31.130343   1.000000
    203        -31.128476   1.000000
    204        -31.124970   1.000000
    205        -31.115537   1.000000
    206        -31.107461   1.000000
    207        -31.098139   1.000000
    208        -31.093288   1.000000
    209        -31.091102   1.000000
    210        -31.085622   1.000000
    211        -31.075051   1.000000
    212        -31.061476   1.000000
    213        -31.050484   1.000000
    214        -31.048990   1.000000
    215        -31.041687   1.000000
    216        -31.038862   1.000000
    217        -31.034581   1.000000
    218        -31.033754   1.000000
    219        -31.032392   1.000000
    220        -31.029828   1.000000
    221        -31.020507   1.000000
    222        -31.018972   1.000000
    223        -31.015603   1.000000
    224        -31.014194   1.000000
    225        -31.008373   1.000000
    226        -31.006590   1.000000
    227        -30.999059   1.000000
    228        -30.996237   1.000000
    229        -30.990851   1.000000
    230        -30.983882   1.000000
    231        -30.981126   1.000000
    232        -30.978438   1.000000
    233        -30.972047   1.000000
    234        -30.960705   1.000000
    235        -30.957823   1.000000
    236        -30.954846   1.000000
    237        -30.941851   1.000000
    238        -30.936461   1.000000
    239        -30.927098   1.000000
    240        -30.901627   1.000000
    241        -30.900028   1.000000
    242        -30.889995   1.000000
    243        -30.878021   1.000000
    244        -30.844135   1.000000
    245        -30.840398   1.000000
    246        -30.825029   1.000000
    247        -27.985390   1.000000
    248        -27.828379   1.000000
    249        -27.804190   1.000000
    250        -27.786245   1.000000
    251        -27.689470   1.000000
    252        -27.600077   1.000000
    253        -16.212753   1.000000
    254         -3.069966   1.000000
    255         -2.904478   1.000000
    256         -2.860808   1.000000
    257         -2.510928   1.000000
    258         -2.081036   1.000000
    259         -2.023079   1.000000
    260         -1.457491   1.000000
    261         -1.444308   1.000000
    262         -1.377889   1.000000
    263         -1.331039   1.000000
    264         -1.303947   1.000000
    265         -1.292161   1.000000
    266         -1.278172   1.000000
    267         -1.172544   1.000000
    268         -1.159322   1.000000
    269         -1.049190   1.000000
    270         -1.028607   1.000000
    271         -1.005757   1.000000
    272         -0.992714   1.000000
    273         -0.984698   1.000000
    274         -0.968339   1.000000
    275         -0.953899   1.000000
    276         -0.914243   1.000000
    277         -0.895898   1.000000
    278         -0.872050   1.000000
    279         -0.834375   1.000000
    280         -0.823130   1.000000
    281         -0.790145   1.000000
    282         -0.763691   1.000000
    283         -0.748699   1.000000
    284         -0.701099   1.000000
    285         -0.691951   1.000000
    286         -0.528657   1.000000
    287         -0.443572   1.000000
    288         -0.385563   1.000000
    289         -0.375112   1.000000
    290         -0.326975   1.000000
    291         -0.319377   1.000000
    292         -0.306230   1.000000
    293         -0.257181   1.000000
    294         -0.240875   1.000000
    295         -0.233155   1.000000
    296         -0.225925   1.000000
    297         -0.178010   1.000000
    298         -0.167919   1.000000
    299         -0.130225   1.000000
    300         -0.090108   1.000000
    301         -0.055674   1.000000
    302         -0.030455   1.000000
    303         -0.025121   1.000000
    304          0.009842   1.000000
    305          0.032659   1.000000
    306          0.040876   1.000000
    307          0.059225   1.000000
    308          0.072530   1.000000
    309          0.081698   1.000000
    310          0.109062   1.000000
    311          0.172072   1.000000
    312          0.222153   1.000000
    313          0.257567   1.000000
    314          0.259026   1.000000
    315          0.303124   1.000000
    316          0.361707   1.000000
    317          0.373253   1.000000
    318          0.397993   1.000000
    319          0.412389   1.000000
    320          0.437744   1.000000
    321          0.444038   1.000000
    322          0.463106   1.000000
    323          0.470649   1.000000
    324          0.480966   1.000000
    325          0.523579   1.000000
    326          0.538993   1.000000
    327          0.552825   1.000000
    328          0.567978   1.000000
    329          0.584785   1.000000
    330          0.605420   1.000000
    331          0.613577   1.000000
    332          0.659918   1.000000
    333          0.674310   1.000000
    334          0.683785   1.000000
    335          0.706552   1.000000
    336          0.720437   1.000000
    337          0.734448   1.000000
    338          0.746106   1.000000
    339          0.752440   1.000000
    340          0.775611   1.000000
    341          0.791759   1.000000
    342          0.809354   1.000000
    343          0.818483   1.000000
    344          0.829647   1.000000
    345          0.878228   1.000000
    346          0.898609   1.000000
    347          0.912299   1.000000
    348          0.954843   1.000000
    349          0.964491   1.000000
    350          0.977188   1.000000
    351          0.994201   1.000000
    352          1.016825   1.000000
    353          1.055452   1.000000
    354          1.067086   1.000000
    355          1.086706   1.000000
    356          1.103691   1.000000
    357          1.137353   1.000000
    358          1.153546   1.000000
    359          1.191696   1.000000
    360          1.213440   1.000000
    361          1.231648   1.000000
    362          1.243398   1.000000
    363          1.255461   1.000000
    364          1.296065   1.000000
    365          1.320208   1.000000
    366          1.363381   1.000000
    367          1.413233   1.000000
    368          1.425632   1.000000
    369          1.500997   1.000000
    370          1.522709   1.000000
    371          1.532409   1.000000
    372          1.549358   1.000000
    373          1.561431   1.000000
    374          1.596198   1.000000
    375          1.617953   1.000000
    376          1.674730   1.000000
    377          1.701961   1.000000
    378          1.720196   1.000000
    379          1.725271   1.000000
    380          1.747412   1.000000
    381          1.755372   1.000000
    382          1.783135   1.000000
    383          1.814089   1.000000
    384          1.863564   1.000000
    385          1.876469   1.000000
    386          1.883390   1.000000
    387          1.912200   1.000000
    388          1.942974   1.000000
    389          1.986939   1.000000
    390          1.996723   1.000000
    391          2.017675   1.000000
    392          2.030170   1.000000
    393          2.076211   1.000000
    394          2.087767   1.000000
    395          2.092352   1.000000
    396          2.108718   1.000000
    397          2.139420   1.000000
    398          2.174393   1.000000
    399          2.203130   1.000000
    400          2.221876   1.000000
    401          2.233482   1.000000
    402          2.256689   1.000000
    403          2.278714   1.000000
    404          2.296415   1.000000
    405          2.318497   1.000000
    406          2.351841   1.000000
    407          2.354239   1.000000
    408          2.365160   1.000000
    409          2.390289   1.000000
    410          2.440984   1.000000
    411          2.457441   1.000000
    412          2.484572   1.000000
    413          2.498055   1.000000
    414          2.532644   1.000000
    415          2.567972   1.000000
    416          2.592443   1.000000
    417          2.641971   1.000000
    418          2.673528   1.000000
    419          2.679297   1.000000
    420          2.725774   1.000000
    421          2.755891   1.000000
    422          2.804061   1.000000
    423          2.831353   1.000000
    424          2.879090   1.000000
    425          2.928430   1.000000
    426          2.944263   1.000000
    427          2.949935   1.000000
    428          2.962583   1.000000
    429          2.985901   1.000000
    430          3.025890   1.000000
    431          3.066586   1.000000
    432          3.112173   1.000000
    433          3.139147   1.000000
    434          3.167448   1.000000
    435          3.195280   1.000000
    436          3.260669   0.999975
    437          3.288413   0.999876
    438          3.346608   0.997759
    439          3.375041   0.992656
    440          3.428039   0.954530
    441          3.436030   0.942655
    442          3.506065   0.721404
    443          3.549363   0.489904
    444          3.571363   0.368269
    445          3.611636   0.182472
    446          3.624865   0.137181
    447          3.664258   0.049454
    448          3.725536   0.005922
    449          3.786085   0.000372
    450          3.826618   0.000040
    451          3.889579   0.000001
    452          3.911580   0.000000
    453          3.925513   0.000000
    454          3.938602   0.000000
    455          3.944907   0.000000
    456          3.954262   0.000000
    457          3.981573   0.000000
    458          3.995114   0.000000
    459          4.021002   0.000000
    460          4.044007   0.000000
    461          4.067474   0.000000
    462          4.110746   0.000000
    463          4.140384   0.000000
    464          4.168349   0.000000
    465          4.178135   0.000000
    466          4.213549   0.000000
    467          4.281753   0.000000
    468          4.312196   0.000000
    469          4.343354   0.000000
    470          4.396368   0.000000
    471          4.420054   0.000000
    472          4.428587   0.000000
    473          4.459284   0.000000
    474          4.476645   0.000000
    475          4.491932   0.000000
    476          4.492896   0.000000
    477          4.500516   0.000000
    478          4.519861   0.000000
    479          4.548164   0.000000
    480          4.560516   0.000000
    481          4.567697   0.000000
    482          4.620128   0.000000
    483          4.646733   0.000000
    484          4.684073   0.000000
    485          4.692783   0.000000
    486          4.727669   0.000000
    487          4.745438   0.000000
    488          4.749576   0.000000
    489          4.762045   0.000000
    490          4.787641   0.000000
    491          4.789225   0.000000
    492          4.848247   0.000000
    493          4.866694   0.000000
    494          4.883917   0.000000
    495          4.890820   0.000000
    496          4.896724   0.000000
    497          4.940519   0.000000
    498          4.949340   0.000000
    499          4.970562   0.000000
    500          4.981608   0.000000
    501          4.998857   0.000000
    502          5.033732   0.000000
    503          5.048151   0.000000
    504          5.071420   0.000000
    505          5.111443   0.000000
    506          5.140055   0.000000
    507          5.162966   0.000000
    508          5.173275   0.000000
    509          5.183737   0.000000
    510          5.222453   0.000000
    511          5.239489   0.000000
    512          5.252034   0.000000
    513          5.269891   0.000000
    514          5.280351   0.000000
    515          5.311531   0.000000
    516          5.328482   0.000000
    517          5.343839   0.000000
    518          5.351979   0.000000
    519          5.363699   0.000000
    520          5.372756   0.000000
    521          5.400891   0.000000
    522          5.415520   0.000000
    523          5.428028   0.000000
    524          5.448432   0.000000
    525          5.467472   0.000000
    526          5.484733   0.000000
    527          5.516468   0.000000
    528          5.561955   0.000000
    529          5.615380   0.000000
    530          5.635442   0.000000
    531          5.643698   0.000000
 
  0.0000000E+00  0.2500000E+00  0.0000000E+00  0.1250000E+00
      1        -57.660302   1.000000
      2        -57.608165   1.000000
      3        -57.594670   1.000000
      4        -57.568417   1.000000
      5        -57.563090   1.000000
      6        -57.556156   1.000000
      7        -57.539053   1.000000
      8        -57.536085   1.000000
      9        -57.532531   1.000000
     10        -57.528740   1.000000
     11        -57.525319   1.000000
     12        -57.513895   1.000000
     13        -57.511677   1.000000
     14        -57.504259   1.000000
     15        -57.502784   1.000000
     16        -57.500714   1.000000
     17        -57.490141   1.000000
     18        -57.488582   1.000000
     19        -57.459504   1.000000
     20        -57.445448   1.000000
     21        -57.432882   1.000000
     22        -57.398957   1.000000
     23        -57.397217   1.000000
     24        -57.392642   1.000000
     25        -57.387434   1.000000
     26        -57.386918   1.000000
     27        -57.386074   1.000000
     28        -57.381243   1.000000
     29        -57.379885   1.000000
     30        -57.378371   1.000000
     31        -57.375384   1.000000
     32        -57.373814   1.000000
     33        -57.371853   1.000000
     34        -57.365590   1.000000
     35        -57.360915   1.000000
     36        -57.359306   1.000000
     37        -57.355539   1.000000
     38        -57.352671   1.000000
     39        -57.348707   1.000000
     40        -57.347334   1.000000
     41        -57.343796   1.000000
     42        -57.338194   1.000000
     43        -57.332759   1.000000
     44        -57.318024   1.000000
     45        -57.290970   1.000000
     46        -57.249353   1.000000
     47        -57.245044   1.000000
     48        -57.183214   1.000000
     49        -57.178340   1.000000
     50        -57.177602   1.000000
     51        -57.174750   1.000000
     52        -57.173795   1.000000
     53        -57.171854   1.000000
     54        -57.170705   1.000000
     55        -57.169097   1.000000
     56        -57.168502   1.000000
     57        -57.167778   1.000000
     58        -57.158653   1.000000
     59        -57.155438   1.000000
     60        -57.149480   1.000000
     61        -57.127183   1.000000
     62        -51.769335   1.000000
     63        -51.664972   1.000000
     64        -32.274751   1.000000
     65        -32.256787   1.000000
     66        -32.246331   1.000000
     67        -32.202138   1.000000
     68        -32.194297   1.000000
     69        -32.192005   1.000000
     70        -32.172189   1.000000
     71        -32.160105   1.000000
     72        -32.152011   1.000000
     73        -32.127393   1.000000
     74        -32.118893   1.000000
     75        -32.110668   1.000000
     76        -32.105576   1.000000
     77        -32.101085   1.000000
     78        -32.098048   1.000000
     79        -32.086325   1.000000
     80        -32.078732   1.000000
     81        -32.074734   1.000000
     82        -32.062620   1.000000
     83        -32.057991   1.000000
     84        -32.053527   1.000000
     85        -32.046859   1.000000
     86        -32.038492   1.000000
     87        -32.030380   1.000000
     88        -32.022043   1.000000
     89        -32.008777   1.000000
     90        -32.001050   1.000000
     91        -31.992671   1.000000
     92        -31.987635   1.000000
     93        -31.981109   1.000000
     94        -31.977643   1.000000
     95        -31.962625   1.000000
     96        -31.944678   1.000000
     97        -31.939832   1.000000
     98        -31.925997   1.000000
     99        -31.921007   1.000000
    100        -31.914300   1.000000
    101        -31.910509   1.000000
    102        -31.894776   1.000000
    103        -31.873323   1.000000
    104        -31.865709   1.000000
    105        -31.846739   1.000000
    106        -31.831928   1.000000
    107        -31.824899   1.000000
    108        -31.819878   1.000000
    109        -31.800026   1.000000
    110        -31.786823   1.000000
    111        -31.783638   1.000000
    112        -31.770410   1.000000
    113        -31.765649   1.000000
    114        -31.754419   1.000000
    115        -31.746854   1.000000
    116        -31.733867   1.000000
    117        -31.727080   1.000000
    118        -31.719175   1.000000
    119        -31.696508   1.000000
    120        -31.692167   1.000000
    121        -31.681127   1.000000
    122        -31.670389   1.000000
    123        -31.665039   1.000000
    124        -31.656041   1.000000
    125        -31.652966   1.000000
    126        -31.647088   1.000000
    127        -31.636908   1.000000
    128        -31.628321   1.000000
    129        -31.623520   1.000000
    130        -31.618326   1.000000
    131        -31.613628   1.000000
    132        -31.606868   1.000000
    133        -31.602683   1.000000
    134        -31.596640   1.000000
    135        -31.581867   1.000000
    136        -31.572740   1.000000
    137        -31.565526   1.000000
    138        -31.548246   1.000000
    139        -31.540481   1.000000
    140        -31.530005   1.000000
    141        -31.523496   1.000000
    142        -31.520554   1.000000
    143        -31.509999   1.000000
    144        -31.500560   1.000000
    145        -31.496552   1.000000
    146        -31.491110   1.000000
    147        -31.475753   1.000000
    148        -31.470922   1.000000
    149        -31.458384   1.000000
    150        -31.451467   1.000000
    151        -31.445271   1.000000
    152        -31.435038   1.000000
    153        -31.430089   1.000000
    154        -31.424677   1.000000
    155        -31.415200   1.000000
    156        -31.408149   1.000000
    157        -31.395032   1.000000
    158        -31.388897   1.000000
    159        -31.380933   1.000000
    160        -31.371977   1.000000
    161        -31.366969   1.000000
    162        -31.363484   1.000000
    163        -31.362297   1.000000
    164        -31.357784   1.000000
    165        -31.350312   1.000000
    166        -31.347161   1.000000
    167        -31.337456   1.000000
    168        -31.334216   1.000000
    169        -31.332491   1.000000
    170        -31.327817   1.000000
    171        -31.320251   1.000000
    172        -31.310716   1.000000
    173        -31.307375   1.000000
    174        -31.301638   1.000000
    175        -31.278001   1.000000
    176        -31.268481   1.000000
    177        -31.263760   1.000000
    178        -31.254722   1.000000
    179        -31.249857   1.000000
    180        -31.243587   1.000000
    181        -31.236824   1.000000
    182        -31.230816   1.000000
    183        -31.225463   1.000000
    184        -31.221322   1.000000
    185        -31.218889   1.000000
    186        -31.212917   1.000000
    187        -31.210632   1.000000
    188        -31.206812   1.000000
    189        -31.199859   1.000000
    190        -31.194707   1.000000
    191        -31.187240   1.000000
    192        -31.181446   1.000000
    193        -31.177055   1.000000
    194        -31.173056   1.000000
    195        -31.166039   1.000000
    196        -31.160832   1.000000
    197        -31.155231   1.000000
    198        -31.150446   1.000000
    199        -31.148847   1.000000
    200        -31.143418   1.000000
    201        -31.140024   1.000000
    202        -31.130340   1.000000
    203        -31.128476   1.000000
    204        -31.124970   1.000000
    205        -31.115536   1.000000
    206        -31.107459   1.000000
    207        -31.098136   1.000000
    208        -31.093287   1.000000
    209        -31.091102   1.000000
    210        -31.085622   1.000000
    211        -31.075065   1.000000
    212        -31.061468   1.000000
    213        -31.050483   1.000000
    214        -31.048990   1.000000
    215        -31.041685   1.000000
    216        -31.038859   1.000000
    217        -31.034580   1.000000
    218        -31.033753   1.000000
    219        -31.032392   1.000000
    220        -31.029822   1.000000
    221        -31.020515   1.000000
    222        -31.018973   1.000000
    223        -31.015603   1.000000
    224        -31.014197   1.000000
    225        -31.008378   1.000000
    226        -31.006590   1.000000
    227        -30.999062   1.000000
    228        -30.996233   1.000000
    229        -30.990848   1.000000
    230        -30.983884   1.000000
    231        -30.981127   1.000000
    232        -30.978434   1.000000
    233        -30.972049   1.000000
    234        -30.960704   1.000000
    235        -30.957823   1.000000
    236        -30.954846   1.000000
    237        -30.941847   1.000000
    238        -30.936473   1.000000
    239        -30.927094   1.000000
    240        -30.901626   1.000000
    241        -30.900033   1.000000
    242        -30.889986   1.000000
    243        -30.878027   1.000000
    244        -30.844139   1.000000
    245        -30.840396   1.000000
    246        -30.825028   1.000000
    247        -27.985390   1.000000
    248        -27.828379   1.000000
    249        -27.804190   1.000000
    250        -27.786245   1.000000
    251        -27.689470   1.000000
    252        -27.600077   1.000000
    253        -16.212753   1.000000
    254         -3.069965   1.000000
    255         -2.904471   1.000000
    256         -2.860814   1.000000
    257         -2.510928   1.000000
    258         -2.081035   1.000000
    259         -2.023080   1.000000
    260         -1.457493   1.000000
    261         -1.444308   1.000000
    262         -1.377889   1.000000
    263         -1.331039   1.000000
    264         -1.303948   1.000000
    265         -1.292161   1.000000
    266         -1.278171   1.000000
    267         -1.172542   1.000000
    268         -1.159324   1.000000
    269         -1.049188   1.000000
    270         -1.028608   1.000000
    271         -1.005756   1.000000
    272         -0.992715   1.000000
    273         -0.984699   1.000000
    274         -0.968337   1.000000
    275         -0.953897   1.000000
    276         -0.914245   1.000000
    277         -0.895898   1.000000
    278         -0.872053   1.000000
    279         -0.834380   1.000000
    280         -0.823125   1.000000
    281         -0.790145   1.000000
    282         -0.763692   1.000000
    283         -0.748700   1.000000
    284         -0.701097   1.000000
    285         -0.691950   1.000000
    286         -0.528655   1.000000
    287         -0.443572   1.000000
    288         -0.385565   1.000000
    289         -0.375108   1.000000
    290         -0.326981   1.000000
    291         -0.319378   1.000000
    292         -0.306227   1.000000
    293         -0.257181   1.000000
    294         -0.240875   1.000000
    295         -0.233152   1.000000
    296         -0.225925   1.000000
    297         -0.178009   1.000000
    298         -0.167923   1.000000
    299         -0.130239   1.000000
    300         -0.090110   1.000000
    301         -0.055670   1.000000
    302         -0.030452   1.000000
    303         -0.025124   1.000000
    304          0.009848   1.000000
    305          0.032655   1.000000
    306          0.040875   1.000000
    307          0.059219   1.000000
    308          0.072530   1.000000
    309          0.081703   1.000000
    310          0.109066   1.000000
    311          0.172079   1.000000
    312          0.222147   1.000000
    313          0.257568   1.000000
    314          0.259025   1.000000
    315          0.303117   1.000000
    316          0.361708   1.000000
    317          0.373248   1.000000
    318          0.397994   1.000000
    319          0.412392   1.000000
    320          0.437752   1.000000
    321          0.444028   1.000000
    322          0.463103   1.000000
    323          0.470654   1.000000
    324          0.480960   1.000000
    325          0.523571   1.000000
    326          0.538981   1.000000
    327          0.552817   1.000000
    328          0.567977   1.000000
    329          0.584789   1.000000
    330          0.605412   1.000000
    331          0.613583   1.000000
    332          0.659933   1.000000
    333          0.674315   1.000000
    334          0.683794   1.000000
    335          0.706564   1.000000
    336          0.720426   1.000000
    337          0.734436   1.000000
    338          0.746114   1.000000
    339          0.752453   1.000000
    340          0.775597   1.000000
    341          0.791763   1.000000
    342          0.809347   1.000000
    343          0.818483   1.000000
    344          0.829653   1.000000
    345          0.878228   1.000000
    346          0.898607   1.000000
    347          0.912300   1.000000
    348          0.954842   1.000000
    349          0.964496   1.000000
    350          0.977189   1.000000
    351          0.994207   1.000000
    352          1.016824   1.000000
    353          1.055453   1.000000
    354          1.067088   1.000000
    355          1.086701   1.000000
    356          1.103706   1.000000
    357          1.137355   1.000000
    358          1.153560   1.000000
    359          1.191684   1.000000
    360          1.213442   1.000000
    361          1.231645   1.000000
    362          1.243386   1.000000
    363          1.255457   1.000000
    364          1.296083   1.000000
    365          1.320181   1.000000
    366          1.363384   1.000000
    367          1.413236   1.000000
    368          1.425635   1.000000
    369          1.500994   1.000000
    370          1.522706   1.000000
    371          1.532397   1.000000
    372          1.549357   1.000000
    373          1.561433   1.000000
    374          1.596195   1.000000
    375          1.617956   1.000000
    376          1.674726   1.000000
    377          1.701966   1.000000
    378          1.720200   1.000000
    379          1.725269   1.000000
    380          1.747404   1.000000
    381          1.755380   1.000000
    382          1.783143   1.000000
    383          1.814097   1.000000
    384          1.863566   1.000000
    385          1.876470   1.000000
    386          1.883389   1.000000
    387          1.912200   1.000000
    388          1.942958   1.000000
    389          1.986936   1.000000
    390          1.996724   1.000000
    391          2.017685   1.000000
    392          2.030173   1.000000
    393          2.076216   1.000000
    394          2.087771   1.000000
    395          2.092343   1.000000
    396          2.108715   1.000000
    397          2.139423   1.000000
    398          2.174405   1.000000
    399          2.203120   1.000000
    400          2.221882   1.000000
    401          2.233476   1.000000
    402          2.256700   1.000000
    403          2.278712   1.000000
    404          2.296421   1.000000
    405          2.318499   1.000000
    406          2.351843   1.000000
    407          2.354242   1.000000
    408          2.365161   1.000000
    409          2.390294   1.000000
    410          2.440968   1.000000
    411          2.457447   1.000000
    412          2.484560   1.000000
    413          2.498053   1.000000
    414          2.532660   1.000000
    415          2.567986   1.000000
    416          2.592440   1.000000
    417          2.641985   1.000000
    418          2.673544   1.000000
    419          2.679287   1.000000
    420          2.725773   1.000000
    421          2.755899   1.000000
    422          2.804068   1.000000
    423          2.831340   1.000000
    424          2.879057   1.000000
    425          2.928431   1.000000
    426          2.944253   1.000000
    427          2.949941   1.000000
    428          2.962595   1.000000
    429          2.985897   1.000000
    430          3.025875   1.000000
    431          3.066616   1.000000
    432          3.112183   1.000000
    433          3.139137   1.000000
    434          3.167445   1.000000
    435          3.195271   1.000000
    436          3.260671   0.999975
    437          3.288393   0.999877
    438          3.346617   0.997758
    439          3.375039   0.992656
    440          3.428030   0.954543
    441          3.436041   0.942637
    442          3.506056   0.721444
    443          3.549427   0.489545
    444          3.571338   0.368406
    445          3.611631   0.182492
    446          3.624859   0.137200
    447          3.664243   0.049476
    448          3.725517   0.005926
    449          3.786075   0.000372
    450          3.826622   0.000040
    451          3.889578   0.000001
    452          3.911562   0.000000
    453          3.925509   0.000000
    454          3.938605   0.000000
    455          3.944908   0.000000
    456          3.954255   0.000000
    457          3.981578   0.000000
    458          3.995115   0.000000
    459          4.021010   0.000000
    460          4.044011   0.000000
    461          4.067462   0.000000
    462          4.110764   0.000000
    463          4.140384   0.000000
    464          4.168344   0.000000
    465          4.178153   0.000000
    466          4.213536   0.000000
    467          4.281763   0.000000
    468          4.312193   0.000000
    469          4.343342   0.000000
    470          4.396367   0.000000
    471          4.420037   0.000000
    472          4.428585   0.000000
    473          4.459266   0.000000
    474          4.476638   0.000000
    475          4.491931   0.000000
    476          4.492903   0.000000
    477          4.500517   0.000000
    478          4.519863   0.000000
    479          4.548171   0.000000
    480          4.560526   0.000000
    481          4.567693   0.000000
    482          4.620118   0.000000
    483          4.646732   0.000000
    484          4.684072   0.000000
    485          4.692795   0.000000
    486          4.727660   0.000000
    487          4.745444   0.000000
    488          4.749582   0.000000
    489          4.762034   0.000000
    490          4.787632   0.000000
    491          4.789228   0.000000
    492          4.848243   0.000000
    493          4.866700   0.000000
    494          4.883907   0.000000
    495          4.890830   0.000000
    496          4.896717   0.000000
    497          4.940529   0.000000
    498          4.949348   0.000000
    499          4.970562   0.000000
    500          4.981611   0.000000
    501          4.998850   0.000000
    502          5.033760   0.000000
    503          5.048133   0.000000
    504          5.071401   0.000000
    505          5.111434   0.000000
    506          5.140064   0.000000
    507          5.162963   0.000000
    508          5.173260   0.000000
    509          5.183725   0.000000
    510          5.222468   0.000000
    511          5.239526   0.000000
    512          5.252032   0.000000
    513          5.269895   0.000000
    514          5.280351   0.000000
    515          5.311535   0.000000
    516          5.328476   0.000000
    517          5.343837   0.000000
    518          5.351988   0.000000
    519          5.363693   0.000000
    520          5.372755   0.000000
    521          5.400909   0.000000
    522          5.415518   0.000000
    523          5.428025   0.000000
    524          5.448436   0.000000
    525          5.467424   0.000000
    526          5.484873   0.000000
    527          5.515968   0.000000
    528          5.563072   0.000000
    529          5.610106   0.000000
    530          5.622089   0.000000
    531          5.637676   0.000000
 
  0.5000000E+00  0.0000000E+00  0.0000000E+00  0.6250000E-01
      1        -57.641033   1.000000
      2        -57.637754   1.000000
      3        -57.583242   1.000000
      4        -57.577813   1.000000
      5        -57.558490   1.000000
      6        -57.554877   1.000000
      7        -57.549810   1.000000
      8        -57.547095   1.000000
      9        -57.527957   1.000000
     10        -57.524233   1.000000
     11        -57.520221   1.000000
     12        -57.516276   1.000000
     13        -57.509822   1.000000
     14        -57.500120   1.000000
     15        -57.497372   1.000000
     16        -57.495545   1.000000
     17        -57.487218   1.000000
     18        -57.485931   1.000000
     19        -57.458268   1.000000
     20        -57.446148   1.000000
     21        -57.435084   1.000000
     22        -57.400892   1.000000
     23        -57.397790   1.000000
     24        -57.393257   1.000000
     25        -57.390913   1.000000
     26        -57.385268   1.000000
     27        -57.384477   1.000000
     28        -57.383622   1.000000
     29        -57.382963   1.000000
     30        -57.379199   1.000000
     31        -57.377802   1.000000
     32        -57.375842   1.000000
     33        -57.374371   1.000000
     34        -57.366525   1.000000
     35        -57.361780   1.000000
     36        -57.359964   1.000000
     37        -57.353488   1.000000
     38        -57.351381   1.000000
     39        -57.348383   1.000000
     40        -57.346043   1.000000
     41        -57.344088   1.000000
     42        -57.336277   1.000000
     43        -57.334226   1.000000
     44        -57.303188   1.000000
     45        -57.299139   1.000000
     46        -57.250597   1.000000
     47        -57.244723   1.000000
     48        -57.185093   1.000000
     49        -57.180157   1.000000
     50        -57.178429   1.000000
     51        -57.174216   1.000000
     52        -57.174080   1.000000
     53        -57.172670   1.000000
     54        -57.170511   1.000000
     55        -57.168785   1.000000
     56        -57.167803   1.000000
     57        -57.161640   1.000000
     58        -57.159651   1.000000
     59        -57.158748   1.000000
     60        -57.144531   1.000000
     61        -57.130022   1.000000
     62        -51.769335   1.000000
     63        -51.664972   1.000000
     64        -32.285533   1.000000
     65        -32.269545   1.000000
     66        -32.242286   1.000000
     67        -32.213839   1.000000
     68        -32.177978   1.000000
     69        -32.172229   1.000000
     70        -32.169051   1.000000
     71        -32.152130   1.000000
     72        -32.145937   1.000000
     73        -32.133904   1.000000
     74        -32.129582   1.000000
     75        -32.123740   1.000000
     76        -32.114669   1.000000
     77        -32.105237   1.000000
     78        -32.096344   1.000000
     79        -32.092317   1.000000
     80        -32.082038   1.000000
     81        -32.077781   1.000000
     82        -32.071777   1.000000
     83        -32.069014   1.000000
     84        -32.051522   1.000000
     85        -32.041900   1.000000
     86        -32.027001   1.000000
     87        -32.021872   1.000000
     88        -32.016648   1.000000
     89        -32.009287   1.000000
     90        -32.002465   1.000000
     91        -32.000680   1.000000
     92        -31.991554   1.000000
     93        -31.988408   1.000000
     94        -31.984347   1.000000
     95        -31.982317   1.000000
     96        -31.970199   1.000000
     97        -31.962165   1.000000
     98        -31.916971   1.000000
     99        -31.911917   1.000000
    100        -31.901446   1.000000
    101        -31.882355   1.000000
    102        -31.877809   1.000000
    103        -31.867445   1.000000
    104        -31.849182   1.000000
    105        -31.839528   1.000000
    106        -31.816301   1.000000
    107        -31.808996   1.000000
    108        -31.804967   1.000000
    109        -31.800625   1.000000
    110        -31.787594   1.000000
    111        -31.775849   1.000000
    112        -31.761822   1.000000
    113        -31.751670   1.000000
    114        -31.744222   1.000000
    115        -31.743048   1.000000
    116        -31.740313   1.000000
    117        -31.734094   1.000000
    118        -31.707489   1.000000
    119        -31.701674   1.000000
    120        -31.698861   1.000000
    121        -31.685114   1.000000
    122        -31.673946   1.000000
    123        -31.666520   1.000000
    124        -31.658785   1.000000
    125        -31.656232   1.000000
    126        -31.650859   1.000000
    127        -31.648433   1.000000
    128        -31.640081   1.000000
    129        -31.625795   1.000000
    130        -31.615544   1.000000
    131        -31.611891   1.000000
    132        -31.599964   1.000000
    133        -31.589534   1.000000
    134        -31.588101   1.000000
    135        -31.580619   1.000000
    136        -31.568980   1.000000
    137        -31.558610   1.000000
    138        -31.555866   1.000000
    139        -31.540477   1.000000
    140        -31.527345   1.000000
    141        -31.519930   1.000000
    142        -31.494175   1.000000
    143        -31.488404   1.000000
    144        -31.485487   1.000000
    145        -31.483434   1.000000
    146        -31.472355   1.000000
    147        -31.468440   1.000000
    148        -31.464724   1.000000
    149        -31.461264   1.000000
    150        -31.454507   1.000000
    151        -31.452056   1.000000
    152        -31.446065   1.000000
    153        -31.440875   1.000000
    154        -31.431278   1.000000
    155        -31.426636   1.000000
    156        -31.423092   1.000000
    157        -31.416534   1.000000
    158        -31.407620   1.000000
    159        -31.401540   1.000000
    160        -31.395632   1.000000
    161        -31.391051   1.000000
    162        -31.381393   1.000000
    163        -31.373307   1.000000
    164        -31.369441   1.000000
    165        -31.361723   1.000000
    166        -31.353810   1.000000
    167        -31.349080   1.000000
    168        -31.336263   1.000000
    169        -31.332738   1.000000
    170        -31.331645   1.000000
    171        -31.326541   1.000000
    172        -31.323605   1.000000
    173        -31.313049   1.000000
    174        -31.298500   1.000000
    175        -31.281030   1.000000
    176        -31.278041   1.000000
    177        -31.263873   1.000000
    178        -31.260148   1.000000
    179        -31.256493   1.000000
    180        -31.255054   1.000000
    181        -31.247816   1.000000
    182        -31.239621   1.000000
    183        -31.226698   1.000000
    184        -31.219397   1.000000
    185        -31.210000   1.000000
    186        -31.201851   1.000000
    187        -31.193335   1.000000
    188        -31.187888   1.000000
    189        -31.180806   1.000000
    190        -31.174527   1.000000
    191        -31.173916   1.000000
    192        -31.172339   1.000000
    193        -31.170147   1.000000
    194        -31.166267   1.000000
    195        -31.159008   1.000000
    196        -31.158279   1.000000
    197        -31.156315   1.000000
    198        -31.154022   1.000000
    199        -31.150079   1.000000
    200        -31.139876   1.000000
    201        -31.138701   1.000000
    202        -31.126096   1.000000
    203        -31.119646   1.000000
    204        -31.115252   1.000000
    205        -31.108434   1.000000
    206        -31.099445   1.000000
    207        -31.096964   1.000000
    208        -31.095977   1.000000
    209        -31.091701   1.000000
    210        -31.089301   1.000000
    211        -31.081982   1.000000
    212        -31.066708   1.000000
    213        -31.055814   1.000000
    214        -31.050168   1.000000
    215        -31.045539   1.000000
    216        -31.044489   1.000000
    217        -31.030839   1.000000
    218        -31.018991   1.000000
    219        -31.017466   1.000000
    220        -31.015056   1.000000
    221        -31.013982   1.000000
    222        -31.013820   1.000000
    223        -31.012350   1.000000
    224        -31.011612   1.000000
    225        -31.006275   1.000000
    226        -30.998252   1.000000
    227        -30.996471   1.000000
    228        -30.995308   1.000000
    229        -30.994820   1.000000
    230        -30.993626   1.000000
    231        -30.984597   1.000000
    232        -30.983066   1.000000
    233        -30.980957   1.000000
    234        -30.976831   1.000000
    235        -30.963631   1.000000
    236        -30.962480   1.000000
    237        -30.939028   1.000000
    238        -30.935530   1.000000
    239        -30.923327   1.000000
    240        -30.908557   1.000000
    241        -30.902676   1.000000
    242        -30.889194   1.000000
    243        -30.880395   1.000000
    244        -30.845000   1.000000
    245        -30.839972   1.000000
    246        -30.829016   1.000000
    247        -27.985424   1.000000
    248        -27.828359   1.000000
    249        -27.804219   1.000000
    250        -27.786262   1.000000
    251        -27.689497   1.000000
    252        -27.600103   1.000000
    253        -16.212713   1.000000
    254         -2.929981   1.000000
    255         -2.858401   1.000000
    256         -2.695863   1.000000
    257         -2.627326   1.000000
    258         -2.447600   1.000000
    259         -1.790940   1.000000
    260         -1.774565   1.000000
    261         -1.433123   1.000000
    262         -1.371434   1.000000
    263         -1.221347   1.000000
    264         -1.198834   1.000000
    265         -1.102420   1.000000
    266         -1.093187   1.000000
    267         -1.082654   1.000000
    268         -1.069983   1.000000
    269         -0.990441   1.000000
    270         -0.974628   1.000000
    271         -0.966668   1.000000
    272         -0.959652   1.000000
    273         -0.932442   1.000000
    274         -0.902550   1.000000
    275         -0.878421   1.000000
    276         -0.832430   1.000000
    277         -0.814592   1.000000
    278         -0.782864   1.000000
    279         -0.776828   1.000000
    280         -0.765869   1.000000
    281         -0.762261   1.000000
    282         -0.749665   1.000000
    283         -0.721335   1.000000
    284         -0.686917   1.000000
    285         -0.662760   1.000000
    286         -0.644687   1.000000
    287         -0.635076   1.000000
    288         -0.615623   1.000000
    289         -0.357828   1.000000
    290         -0.340484   1.000000
    291         -0.328216   1.000000
    292         -0.299046   1.000000
    293         -0.289168   1.000000
    294         -0.287175   1.000000
    295         -0.245621   1.000000
    296         -0.227005   1.000000
    297         -0.201064   1.000000
    298         -0.173995   1.000000
    299         -0.166894   1.000000
    300         -0.131909   1.000000
    301         -0.129842   1.000000
    302         -0.120768   1.000000
    303         -0.102173   1.000000
    304         -0.081831   1.000000
    305         -0.018016   1.000000
    306          0.006375   1.000000
    307          0.045153   1.000000
    308          0.094646   1.000000
    309          0.103084   1.000000
    310          0.137630   1.000000
    311          0.147749   1.000000
    312          0.190174   1.000000
    313          0.195926   1.000000
    314          0.199358   1.000000
    315          0.232475   1.000000
    316          0.273195   1.000000
    317          0.303044   1.000000
    318          0.396326   1.000000
    319          0.451726   1.000000
    320          0.460179   1.000000
    321          0.476149   1.000000
    322          0.489781   1.000000
    323          0.492852   1.000000
    324          0.509588   1.000000
    325          0.510348   1.000000
    326          0.518672   1.000000
    327          0.521480   1.000000
    328          0.544205   1.000000
    329          0.573875   1.000000
    330          0.585776   1.000000
    331          0.608994   1.000000
    332          0.622160   1.000000
    333          0.624227   1.000000
    334          0.649554   1.000000
    335          0.657853   1.000000
    336          0.661245   1.000000
    337          0.671934   1.000000
    338          0.692392   1.000000
    339          0.725191   1.000000
    340          0.739013   1.000000
    341          0.747238   1.000000
    342          0.767172   1.000000
    343          0.775627   1.000000
    344          0.780393   1.000000
    345          0.817930   1.000000
    346          0.828906   1.000000
    347          0.840641   1.000000
    348          0.854988   1.000000
    349          0.857567   1.000000
    350          0.889024   1.000000
    351          0.916336   1.000000
    352          0.944838   1.000000
    353          0.964495   1.000000
    354          1.076611   1.000000
    355          1.118799   1.000000
    356          1.125992   1.000000
    357          1.172767   1.000000
    358          1.191160   1.000000
    359          1.209654   1.000000
    360          1.218298   1.000000
    361          1.241523   1.000000
    362          1.259568   1.000000
    363          1.273782   1.000000
    364          1.311520   1.000000
    365          1.371086   1.000000
    366          1.427116   1.000000
    367          1.451134   1.000000
    368          1.471052   1.000000
    369          1.480348   1.000000
    370          1.518850   1.000000
    371          1.529122   1.000000
    372          1.548958   1.000000
    373          1.566281   1.000000
    374          1.596499   1.000000
    375          1.604733   1.000000
    376          1.617539   1.000000
    377          1.629037   1.000000
    378          1.644866   1.000000
    379          1.663612   1.000000
    380          1.678016   1.000000
    381          1.699883   1.000000
    382          1.747956   1.000000
    383          1.820632   1.000000
    384          1.901125   1.000000
    385          1.917003   1.000000
    386          1.931028   1.000000
    387          1.958371   1.000000
    388          1.968047   1.000000
    389          2.004178   1.000000
    390          2.017818   1.000000
    391          2.026000   1.000000
    392          2.038034   1.000000
    393          2.046904   1.000000
    394          2.056015   1.000000
    395          2.081327   1.000000
    396          2.100389   1.000000
    397          2.110090   1.000000
    398          2.130229   1.000000
    399          2.138080   1.000000
    400          2.143773   1.000000
    401          2.148775   1.000000
    402          2.172303   1.000000
    403          2.206866   1.000000
    404          2.234186   1.000000
    405          2.253069   1.000000
    406          2.269200   1.000000
    407          2.305588   1.000000
    408          2.336604   1.000000
    409          2.345844   1.000000
    410          2.350198   1.000000
    411          2.358241   1.000000
    412          2.522262   1.000000
    413          2.586685   1.000000
    414          2.645365   1.000000
    415          2.676372   1.000000
    416          2.709681   1.000000
    417          2.739233   1.000000
    418          2.767453   1.000000
    419          2.780869   1.000000
    420          2.801079   1.000000
    421          2.819838   1.000000
    422          2.840930   1.000000
    423          2.879004   1.000000
    424          2.883969   1.000000
    425          2.908813   1.000000
    426          2.930397   1.000000
    427          2.943047   1.000000
    428          2.996965   1.000000
    429          3.082716   1.000000
    430          3.090476   1.000000
    431          3.105234   1.000000
    432          3.129524   1.000000
    433          3.173224   1.000000
    434          3.204925   0.999999
    435          3.232185   0.999996
    436          3.242454   0.999992
    437          3.290328   0.999863
    438          3.325013   0.999177
    439          3.380351   0.990982
    440          3.390513   0.986830
    441          3.413648   0.970887
    442          3.443649   0.929180
    443          3.494843   0.772082
    444          3.524819   0.626193
    445          3.557605   0.443591
    446          3.611442   0.183197
    447          3.682664   0.028036
    448          3.695880   0.017980
    449          3.729683   0.005006
    450          3.769678   0.000842
    451          3.800085   0.000178
    452          3.843186   0.000015
    453          3.874921   0.000002
    454          3.915419   0.000000
    455          3.963719   0.000000
    456          3.976328   0.000000
    457          3.981543   0.000000
    458          4.029342   0.000000
    459          4.106026   0.000000
    460          4.161635   0.000000
    461          4.182351   0.000000
    462          4.207316   0.000000
    463          4.230185   0.000000
    464          4.255801   0.000000
    465          4.287263   0.000000
    466          4.317299   0.000000
    467          4.346082   0.000000
    468          4.354752   0.000000
    469          4.385789   0.000000
    470          4.425338   0.000000
    471          4.485479   0.000000
    472          4.566564   0.000000
    473          4.575682   0.000000
    474          4.610250   0.000000
    475          4.633319   0.000000
    476          4.643525   0.000000
    477          4.648761   0.000000
    478          4.654446   0.000000
    479          4.660437   0.000000
    480          4.669355   0.000000
    481          4.698278   0.000000
    482          4.701423   0.000000
    483          4.704724   0.000000
    484          4.720634   0.000000
    485          4.735869   0.000000
    486          4.758529   0.000000
    487          4.770622   0.000000
    488          4.801314   0.000000
    489          4.830351   0.000000
    490          4.854184   0.000000
    491          4.898932   0.000000
    492          4.909297   0.000000
    493          4.931898   0.000000
    494          4.949272   0.000000
    495          4.960538   0.000000
    496          4.978345   0.000000
    497          4.989658   0.000000
    498          4.994758   0.000000
    499          5.004708   0.000000
    500          5.007035   0.000000
    501          5.011397   0.000000
    502          5.038751   0.000000
    503          5.063449   0.000000
    504          5.070445   0.000000
    505          5.080824   0.000000
    506          5.093235   0.000000
    507          5.113570   0.000000
    508          5.125642   0.000000
    509          5.141400   0.000000
    510          5.168882   0.000000
    511          5.193670   0.000000
    512          5.213089   0.000000
    513          5.241252   0.000000
    514          5.257028   0.000000
    515          5.273020   0.000000
    516          5.292709   0.000000
    517          5.298951   0.000000
    518          5.343584   0.000000
    519          5.352087   0.000000
    520          5.383868   0.000000
    521          5.406237   0.000000
    522          5.430555   0.000000
    523          5.437941   0.000000
    524          5.448878   0.000000
    525          5.469740   0.000000
    526          5.476819   0.000000
    527          5.514960   0.000000
    528          5.529155   0.000000
    529          5.551123   0.000000
    530          5.628237   0.000000
    531          5.650920   0.000000
 
  0.0000000E+00  0.5000000E+00  0.0000000E+00  0.6250000E-01
      1        -57.641034   1.000000
      2        -57.637754   1.000000
      3        -57.583243   1.000000
      4        -57.577813   1.000000
      5        -57.558490   1.000000
      6        -57.554877   1.000000
      7        -57.549810   1.000000
      8        -57.547095   1.000000
      9        -57.527957   1.000000
     10        -57.524232   1.000000
     11        -57.520221   1.000000
     12        -57.516276   1.000000
     13        -57.509822   1.000000
     14        -57.500120   1.000000
     15        -57.497373   1.000000
     16        -57.495544   1.000000
     17        -57.487219   1.000000
     18        -57.485930   1.000000
     19        -57.458269   1.000000
     20        -57.446147   1.000000
     21        -57.435084   1.000000
     22        -57.400890   1.000000
     23        -57.397791   1.000000
     24        -57.393256   1.000000
     25        -57.390913   1.000000
     26        -57.385269   1.000000
     27        -57.384478   1.000000
     28        -57.383622   1.000000
     29        -57.382962   1.000000
     30        -57.379199   1.000000
     31        -57.377803   1.000000
     32        -57.375842   1.000000
     33        -57.374371   1.000000
     34        -57.366525   1.000000
     35        -57.361781   1.000000
     36        -57.359963   1.000000
     37        -57.353487   1.000000
     38        -57.351380   1.000000
     39        -57.348383   1.000000
     40        -57.346044   1.000000
     41        -57.344088   1.000000
     42        -57.336274   1.000000
     43        -57.334229   1.000000
     44        -57.303187   1.000000
     45        -57.299140   1.000000
     46        -57.250608   1.000000
     47        -57.244711   1.000000
     48        -57.185092   1.000000
     49        -57.180160   1.000000
     50        -57.178430   1.000000
     51        -57.174219   1.000000
     52        -57.174078   1.000000
     53        -57.172670   1.000000
     54        -57.170509   1.000000
     55        -57.168786   1.000000
     56        -57.167802   1.000000
     57        -57.161642   1.000000
     58        -57.159650   1.000000
     59        -57.158749   1.000000
     60        -57.144529   1.000000
     61        -57.130022   1.000000
     62        -51.769335   1.000000
     63        -51.664972   1.000000
     64        -32.285529   1.000000
     65        -32.269550   1.000000
     66        -32.242287   1.000000
     67        -32.213836   1.000000
     68        -32.177972   1.000000
     69        -32.172238   1.000000
     70        -32.169049   1.000000
     71        -32.152130   1.000000
     72        -32.145934   1.000000
     73        -32.133910   1.000000
     74        -32.129579   1.000000
     75        -32.123739   1.000000
     76        -32.114669   1.000000
     77        -32.105238   1.000000
     78        -32.096347   1.000000
     79        -32.092318   1.000000
     80        -32.082035   1.000000
     81        -32.077789   1.000000
     82        -32.071776   1.000000
     83        -32.069009   1.000000
     84        -32.051525   1.000000
     85        -32.041895   1.000000
     86        -32.026995   1.000000
     87        -32.021867   1.000000
     88        -32.016654   1.000000
     89        -32.009289   1.000000
     90        -32.002463   1.000000
     91        -32.000684   1.000000
     92        -31.991555   1.000000
     93        -31.988409   1.000000
     94        -31.984343   1.000000
     95        -31.982316   1.000000
     96        -31.970202   1.000000
     97        -31.962161   1.000000
     98        -31.916974   1.000000
     99        -31.911930   1.000000
    100        -31.901441   1.000000
    101        -31.882364   1.000000
    102        -31.877806   1.000000
    103        -31.867437   1.000000
    104        -31.849172   1.000000
    105        -31.839525   1.000000
    106        -31.816298   1.000000
    107        -31.809001   1.000000
    108        -31.804962   1.000000
    109        -31.800629   1.000000
    110        -31.787594   1.000000
    111        -31.775849   1.000000
    112        -31.761829   1.000000
    113        -31.751666   1.000000
    114        -31.744221   1.000000
    115        -31.743047   1.000000
    116        -31.740316   1.000000
    117        -31.734086   1.000000
    118        -31.707491   1.000000
    119        -31.701670   1.000000
    120        -31.698860   1.000000
    121        -31.685110   1.000000
    122        -31.673964   1.000000
    123        -31.666521   1.000000
    124        -31.658783   1.000000
    125        -31.656232   1.000000
    126        -31.650866   1.000000
    127        -31.648427   1.000000
    128        -31.640086   1.000000
    129        -31.625787   1.000000
    130        -31.615546   1.000000
    131        -31.611888   1.000000
    132        -31.599968   1.000000
    133        -31.589540   1.000000
    134        -31.588102   1.000000
    135        -31.580618   1.000000
    136        -31.568980   1.000000
    137        -31.558608   1.000000
    138        -31.555864   1.000000
    139        -31.540474   1.000000
    140        -31.527344   1.000000
    141        -31.519922   1.000000
    142        -31.494179   1.000000
    143        -31.488416   1.000000
    144        -31.485487   1.000000
    145        -31.483428   1.000000
    146        -31.472354   1.000000
    147        -31.468442   1.000000
    148        -31.464723   1.000000
    149        -31.461261   1.000000
    150        -31.454511   1.000000
    151        -31.452052   1.000000
    152        -31.446060   1.000000
    153        -31.440877   1.000000
    154        -31.431275   1.000000
    155        -31.426628   1.000000
    156        -31.423091   1.000000
    157        -31.416541   1.000000
    158        -31.407624   1.000000
    159        -31.401544   1.000000
    160        -31.395631   1.000000
    161        -31.391039   1.000000
    162        -31.381392   1.000000
    163        -31.373306   1.000000
    164        -31.369436   1.000000
    165        -31.361724   1.000000
    166        -31.353811   1.000000
    167        -31.349076   1.000000
    168        -31.336269   1.000000
    169        -31.332737   1.000000
    170        -31.331645   1.000000
    171        -31.326541   1.000000
    172        -31.323599   1.000000
    173        -31.313062   1.000000
    174        -31.298501   1.000000
    175        -31.281033   1.000000
    176        -31.278044   1.000000
    177        -31.263871   1.000000
    178        -31.260148   1.000000
    179        -31.256491   1.000000
    180        -31.255057   1.000000
    181        -31.247823   1.000000
    182        -31.239620   1.000000
    183        -31.226705   1.000000
    184        -31.219397   1.000000
    185        -31.210000   1.000000
    186        -31.201863   1.000000
    187        -31.193323   1.000000
    188        -31.187888   1.000000
    189        -31.180806   1.000000
    190        -31.174527   1.000000
    191        -31.173918   1.000000
    192        -31.172338   1.000000
    193        -31.170148   1.000000
    194        -31.166267   1.000000
    195        -31.159008   1.000000
    196        -31.158278   1.000000
    197        -31.156312   1.000000
    198        -31.154013   1.000000
    199        -31.150080   1.000000
    200        -31.139876   1.000000
    201        -31.138698   1.000000
    202        -31.126093   1.000000
    203        -31.119646   1.000000
    204        -31.115254   1.000000
    205        -31.108433   1.000000
    206        -31.099446   1.000000
    207        -31.096965   1.000000
    208        -31.095980   1.000000
    209        -31.091701   1.000000
    210        -31.089296   1.000000
    211        -31.081990   1.000000
    212        -31.066702   1.000000
    213        -31.055818   1.000000
    214        -31.050155   1.000000
    215        -31.045536   1.000000
    216        -31.044489   1.000000
    217        -31.030843   1.000000
    218        -31.018998   1.000000
    219        -31.017471   1.000000
    220        -31.015055   1.000000
    221        -31.013984   1.000000
    222        -31.013819   1.000000
    223        -31.012350   1.000000
    224        -31.011611   1.000000
    225        -31.006272   1.000000
    226        -30.998250   1.000000
    227        -30.996472   1.000000
    228        -30.995307   1.000000
    229        -30.994820   1.000000
    230        -30.993628   1.000000
    231        -30.984594   1.000000
    232        -30.983067   1.000000
    233        -30.980956   1.000000
    234        -30.976829   1.000000
    235        -30.963631   1.000000
    236        -30.962481   1.000000
    237        -30.939026   1.000000
    238        -30.935540   1.000000
    239        -30.923325   1.000000
    240        -30.908556   1.000000
    241        -30.902681   1.000000
    242        -30.889174   1.000000
    243        -30.880409   1.000000
    244        -30.845008   1.000000
    245        -30.839969   1.000000
    246        -30.829012   1.000000
    247        -27.985424   1.000000
    248        -27.828359   1.000000
    249        -27.804219   1.000000
    250        -27.786262   1.000000
    251        -27.689497   1.000000
    252        -27.600103   1.000000
    253        -16.212713   1.000000
    254         -2.929966   1.000000
    255         -2.858415   1.000000
    256         -2.695864   1.000000
    257         -2.627324   1.000000
    258         -2.447602   1.000000
    259         -1.790939   1.000000
    260         -1.774567   1.000000
    261         -1.433124   1.000000
    262         -1.371434   1.000000
    263         -1.221343   1.000000
    264         -1.198837   1.000000
    265         -1.102419   1.000000
    266         -1.093186   1.000000
    267         -1.082654   1.000000
    268         -1.069984   1.000000
    269         -0.990440   1.000000
    270         -0.974630   1.000000
    271         -0.966673   1.000000
    272         -0.959643   1.000000
    273         -0.932444   1.000000
    274         -0.902550   1.000000
    275         -0.878424   1.000000
    276         -0.832429   1.000000
    277         -0.814589   1.000000
    278         -0.782864   1.000000
    279         -0.776826   1.000000
    280         -0.765869   1.000000
    281         -0.762260   1.000000
    282         -0.749669   1.000000
    283         -0.721347   1.000000
    284         -0.686907   1.000000
    285         -0.662760   1.000000
    286         -0.644685   1.000000
    287         -0.635074   1.000000
    288         -0.615625   1.000000
    289         -0.357823   1.000000
    290         -0.340483   1.000000
    291         -0.328216   1.000000
    292         -0.299047   1.000000
    293         -0.289162   1.000000
    294         -0.287182   1.000000
    295         -0.245628   1.000000
    296         -0.226996   1.000000
    297         -0.201068   1.000000
    298         -0.173991   1.000000
    299         -0.166890   1.000000
    300         -0.131925   1.000000
    301         -0.129844   1.000000
    302         -0.120764   1.000000
    303         -0.102174   1.000000
    304         -0.081819   1.000000
    305         -0.018019   1.000000
    306          0.006375   1.000000
    307          0.045138   1.000000
    308          0.094656   1.000000
    309          0.103082   1.000000
    310          0.137632   1.000000
    311          0.147743   1.000000
    312          0.190171   1.000000
    313          0.195932   1.000000
    314          0.199359   1.000000
    315          0.232456   1.000000
    316          0.273216   1.000000
    317          0.303020   1.000000
    318          0.396270   1.000000
    319          0.451718   1.000000
    320          0.460188   1.000000
    321          0.476142   1.000000
    322          0.489782   1.000000
    323          0.492856   1.000000
    324          0.509591   1.000000
    325          0.510348   1.000000
    326          0.518665   1.000000
    327          0.521485   1.000000
    328          0.544216   1.000000
    329          0.573896   1.000000
    330          0.585771   1.000000
    331          0.608981   1.000000
    332          0.622141   1.000000
    333          0.624222   1.000000
    334          0.649562   1.000000
    335          0.657859   1.000000
    336          0.661262   1.000000
    337          0.671934   1.000000
    338          0.692407   1.000000
    339          0.725193   1.000000
    340          0.739017   1.000000
    341          0.747257   1.000000
    342          0.767166   1.000000
    343          0.775624   1.000000
    344          0.780398   1.000000
    345          0.817929   1.000000
    346          0.828909   1.000000
    347          0.840648   1.000000
    348          0.854989   1.000000
    349          0.857566   1.000000
    350          0.889015   1.000000
    351          0.916324   1.000000
    352          0.944851   1.000000
    353          0.964522   1.000000
    354          1.076637   1.000000
    355          1.118803   1.000000
    356          1.125974   1.000000
    357          1.172776   1.000000
    358          1.191149   1.000000
    359          1.209657   1.000000
    360          1.218280   1.000000
    361          1.241511   1.000000
    362          1.259551   1.000000
    363          1.273796   1.000000
    364          1.311523   1.000000
    365          1.371091   1.000000
    366          1.427120   1.000000
    367          1.451146   1.000000
    368          1.471041   1.000000
    369          1.480359   1.000000
    370          1.518858   1.000000
    371          1.529124   1.000000
    372          1.548943   1.000000
    373          1.566277   1.000000
    374          1.596492   1.000000
    375          1.604729   1.000000
    376          1.617533   1.000000
    377          1.629032   1.000000
    378          1.644866   1.000000
    379          1.663620   1.000000
    380          1.678023   1.000000
    381          1.699875   1.000000
    382          1.747975   1.000000
    383          1.820628   1.000000
    384          1.901122   1.000000
    385          1.917005   1.000000
    386          1.931027   1.000000
    387          1.958381   1.000000
    388          1.968048   1.000000
    389          2.004165   1.000000
    390          2.017827   1.000000
    391          2.025998   1.000000
    392          2.038047   1.000000
    393          2.046913   1.000000
    394          2.055998   1.000000
    395          2.081318   1.000000
    396          2.100406   1.000000
    397          2.110112   1.000000
    398          2.130242   1.000000
    399          2.138062   1.000000
    400          2.143769   1.000000
    401          2.148781   1.000000
    402          2.172286   1.000000
    403          2.206863   1.000000
    404          2.234200   1.000000
    405          2.253086   1.000000
    406          2.269197   1.000000
    407          2.305596   1.000000
    408          2.336615   1.000000
    409          2.345825   1.000000
    410          2.350183   1.000000
    411          2.358249   1.000000
    412          2.522292   1.000000
    413          2.586698   1.000000
    414          2.645343   1.000000
    415          2.676381   1.000000
    416          2.709691   1.000000
    417          2.739228   1.000000
    418          2.767442   1.000000
    419          2.780874   1.000000
    420          2.801070   1.000000
    421          2.819847   1.000000
    422          2.840931   1.000000
    423          2.879006   1.000000
    424          2.883965   1.000000
    425          2.908809   1.000000
    426          2.930390   1.000000
    427          2.943027   1.000000
    428          2.997001   1.000000
    429          3.082736   1.000000
    430          3.090475   1.000000
    431          3.105231   1.000000
    432          3.129522   1.000000
    433          3.173222   1.000000
    434          3.204912   0.999999
    435          3.232167   0.999996
    436          3.242447   0.999992
    437          3.290333   0.999863
    438          3.324993   0.999177
    439          3.380343   0.990985
    440          3.390508   0.986833
    441          3.413642   0.970892
    442          3.443650   0.929178
    443          3.494836   0.772112
    444          3.524867   0.625935
    445          3.557595   0.443645
    446          3.611426   0.183260
    447          3.682674   0.028027
    448          3.695883   0.017978
    449          3.729692   0.005004
    450          3.769667   0.000842
    451          3.800176   0.000177
    452          3.843105   0.000015
    453          3.874912   0.000002
    454          3.915394   0.000000
    455          3.963703   0.000000
    456          3.976330   0.000000
    457          3.981536   0.000000
    458          4.029326   0.000000
    459          4.106047   0.000000
    460          4.161642   0.000000
    461          4.182358   0.000000
    462          4.207315   0.000000
    463          4.230179   0.000000
    464          4.255830   0.000000
    465          4.287277   0.000000
    466          4.317287   0.000000
    467          4.346073   0.000000
    468          4.354746   0.000000
    469          4.385781   0.000000
    470          4.425288   0.000000
    471          4.485434   0.000000
    472          4.566521   0.000000
    473          4.575722   0.000000
    474          4.610279   0.000000
    475          4.633314   0.000000
    476          4.643523   0.000000
    477          4.648759   0.000000
    478          4.654441   0.000000
    479          4.660442   0.000000
    480          4.669357   0.000000
    481          4.698263   0.000000
    482          4.701408   0.000000
    483          4.704737   0.000000
    484          4.720638   0.000000
    485          4.735843   0.000000
    486          4.758540   0.000000
    487          4.770642   0.000000
    488          4.801291   0.000000
    489          4.830358   0.000000
    490          4.854184   0.000000
    491          4.898914   0.000000
    492          4.909280   0.000000
    493          4.931901   0.000000
    494          4.949261   0.000000
    495          4.960518   0.000000
    496          4.978355   0.000000
    497          4.989665   0.000000
    498          4.994759   0.000000
    499          5.004715   0.000000
    500          5.007047   0.000000
    501          5.011394   0.000000
    502          5.038758   0.000000
    503          5.063483   0.000000
    504          5.070442   0.000000
    505          5.080814   0.000000
    506          5.093248   0.000000
    507          5.113594   0.000000
    508          5.125669   0.000000
    509          5.141398   0.000000
    510          5.168869   0.000000
    511          5.193676   0.000000
    512          5.213117   0.000000
    513          5.241265   0.000000
    514          5.257027   0.000000
    515          5.273021   0.000000
    516          5.292709   0.000000
    517          5.298944   0.000000
    518          5.343577   0.000000
    519          5.352074   0.000000
    520          5.383885   0.000000
    521          5.406230   0.000000
    522          5.430520   0.000000
    523          5.437934   0.000000
    524          5.448872   0.000000
    525          5.469556   0.000000
    526          5.476802   0.000000
    527          5.514212   0.000000
    528          5.528158   0.000000
    529          5.552099   0.000000
    530          5.618909   0.000000
    531          5.629779   0.000000
 
  0.2500000E+00  0.2500000E+00  0.0000000E+00  0.1250000E+00
      1        -57.653283   1.000000
      2        -57.606709   1.000000
      3        -57.597838   1.000000
      4        -57.589174   1.000000
      5        -57.565003   1.000000
      6        -57.556945   1.000000
      7        -57.547925   1.000000
      8        -57.532370   1.000000
      9        -57.528951   1.000000
     10        -57.524630   1.000000
     11        -57.516007   1.000000
     12        -57.511217   1.000000
     13        -57.509253   1.000000
     14        -57.504082   1.000000
     15        -57.499164   1.000000
     16        -57.495509   1.000000
     17        -57.492569   1.000000
     18        -57.484921   1.000000
     19        -57.459044   1.000000
     20        -57.445940   1.000000
     21        -57.432701   1.000000
     22        -57.402938   1.000000
     23        -57.398038   1.000000
     24        -57.392878   1.000000
     25        -57.389791   1.000000
     26        -57.386061   1.000000
     27        -57.385016   1.000000
     28        -57.383211   1.000000
     29        -57.379230   1.000000
     30        -57.378025   1.000000
     31        -57.377268   1.000000
     32        -57.374582   1.000000
     33        -57.371883   1.000000
     34        -57.368884   1.000000
     35        -57.365486   1.000000
     36        -57.361864   1.000000
     37        -57.360483   1.000000
     38        -57.357233   1.000000
     39        -57.350218   1.000000
     40        -57.341782   1.000000
     41        -57.337671   1.000000
     42        -57.333270   1.000000
     43        -57.324582   1.000000
     44        -57.317299   1.000000
     45        -57.294168   1.000000
     46        -57.252591   1.000000
     47        -57.242521   1.000000
     48        -57.183237   1.000000
     49        -57.182049   1.000000
     50        -57.180547   1.000000
     51        -57.175744   1.000000
     52        -57.173915   1.000000
     53        -57.171081   1.000000
     54        -57.168225   1.000000
     55        -57.167939   1.000000
     56        -57.167303   1.000000
     57        -57.163578   1.000000
     58        -57.159263   1.000000
     59        -57.157060   1.000000
     60        -57.148024   1.000000
     61        -57.128600   1.000000
     62        -51.769335   1.000000
     63        -51.664972   1.000000
     64        -32.281691   1.000000
     65        -32.262858   1.000000
     66        -32.256057   1.000000
     67        -32.215062   1.000000
     68        -32.196916   1.000000
     69        -32.196536   1.000000
     70        -32.178667   1.000000
     71        -32.150637   1.000000
     72        -32.131406   1.000000
     73        -32.129566   1.000000
     74        -32.126679   1.000000
     75        -32.112205   1.000000
     76        -32.105719   1.000000
     77        -32.101494   1.000000
     78        -32.089341   1.000000
     79        -32.082653   1.000000
     80        -32.076793   1.000000
     81        -32.074035   1.000000
     82        -32.063864   1.000000
     83        -32.056468   1.000000
     84        -32.053410   1.000000
     85        -32.043410   1.000000
     86        -32.040658   1.000000
     87        -32.037597   1.000000
     88        -32.020359   1.000000
     89        -32.014957   1.000000
     90        -31.999741   1.000000
     91        -31.999160   1.000000
     92        -31.990203   1.000000
     93        -31.983399   1.000000
     94        -31.958310   1.000000
     95        -31.956145   1.000000
     96        -31.940775   1.000000
     97        -31.937958   1.000000
     98        -31.922418   1.000000
     99        -31.913857   1.000000
    100        -31.908017   1.000000
    101        -31.903104   1.000000
    102        -31.887729   1.000000
    103        -31.884558   1.000000
    104        -31.876796   1.000000
    105        -31.841596   1.000000
    106        -31.830847   1.000000
    107        -31.823041   1.000000
    108        -31.805611   1.000000
    109        -31.802561   1.000000
    110        -31.792319   1.000000
    111        -31.784530   1.000000
    112        -31.763504   1.000000
    113        -31.761109   1.000000
    114        -31.757720   1.000000
    115        -31.748602   1.000000
    116        -31.746974   1.000000
    117        -31.738046   1.000000
    118        -31.729314   1.000000
    119        -31.705179   1.000000
    120        -31.696376   1.000000
    121        -31.680616   1.000000
    122        -31.670907   1.000000
    123        -31.666929   1.000000
    124        -31.653769   1.000000
    125        -31.649711   1.000000
    126        -31.638803   1.000000
    127        -31.630502   1.000000
    128        -31.622752   1.000000
    129        -31.618206   1.000000
    130        -31.611776   1.000000
    131        -31.604683   1.000000
    132        -31.600992   1.000000
    133        -31.588164   1.000000
    134        -31.581242   1.000000
    135        -31.566379   1.000000
    136        -31.559716   1.000000
    137        -31.555317   1.000000
    138        -31.547143   1.000000
    139        -31.539513   1.000000
    140        -31.537646   1.000000
    141        -31.528719   1.000000
    142        -31.517902   1.000000
    143        -31.504909   1.000000
    144        -31.501176   1.000000
    145        -31.496454   1.000000
    146        -31.487922   1.000000
    147        -31.481823   1.000000
    148        -31.472379   1.000000
    149        -31.463754   1.000000
    150        -31.452252   1.000000
    151        -31.442150   1.000000
    152        -31.438937   1.000000
    153        -31.427842   1.000000
    154        -31.420118   1.000000
    155        -31.419833   1.000000
    156        -31.416384   1.000000
    157        -31.414020   1.000000
    158        -31.397847   1.000000
    159        -31.388998   1.000000
    160        -31.385175   1.000000
    161        -31.373681   1.000000
    162        -31.368132   1.000000
    163        -31.366836   1.000000
    164        -31.363128   1.000000
    165        -31.356040   1.000000
    166        -31.352645   1.000000
    167        -31.350523   1.000000
    168        -31.347870   1.000000
    169        -31.338098   1.000000
    170        -31.332553   1.000000
    171        -31.320906   1.000000
    172        -31.314626   1.000000
    173        -31.306448   1.000000
    174        -31.294734   1.000000
    175        -31.285229   1.000000
    176        -31.282921   1.000000
    177        -31.279127   1.000000
    178        -31.274273   1.000000
    179        -31.272260   1.000000
    180        -31.257626   1.000000
    181        -31.254572   1.000000
    182        -31.232719   1.000000
    183        -31.224617   1.000000
    184        -31.210619   1.000000
    185        -31.202875   1.000000
    186        -31.192233   1.000000
    187        -31.187927   1.000000
    188        -31.183714   1.000000
    189        -31.180516   1.000000
    190        -31.178253   1.000000
    191        -31.174395   1.000000
    192        -31.171854   1.000000
    193        -31.166881   1.000000
    194        -31.163662   1.000000
    195        -31.160770   1.000000
    196        -31.157186   1.000000
    197        -31.152107   1.000000
    198        -31.149021   1.000000
    199        -31.144214   1.000000
    200        -31.141386   1.000000
    201        -31.135739   1.000000
    202        -31.130490   1.000000
    203        -31.126105   1.000000
    204        -31.120901   1.000000
    205        -31.118904   1.000000
    206        -31.110730   1.000000
    207        -31.110037   1.000000
    208        -31.108579   1.000000
    209        -31.095761   1.000000
    210        -31.089360   1.000000
    211        -31.073862   1.000000
    212        -31.067392   1.000000
    213        -31.056699   1.000000
    214        -31.054761   1.000000
    215        -31.053381   1.000000
    216        -31.045068   1.000000
    217        -31.032339   1.000000
    218        -31.030150   1.000000
    219        -31.022848   1.000000
    220        -31.022050   1.000000
    221        -31.019244   1.000000
    222        -31.013756   1.000000
    223        -31.009418   1.000000
    224        -31.008466   1.000000
    225        -31.007487   1.000000
    226        -30.998616   1.000000
    227        -30.995375   1.000000
    228        -30.993515   1.000000
    229        -30.989518   1.000000
    230        -30.986573   1.000000
    231        -30.983850   1.000000
    232        -30.978935   1.000000
    233        -30.975958   1.000000
    234        -30.970373   1.000000
    235        -30.967472   1.000000
    236        -30.953454   1.000000
    237        -30.940281   1.000000
    238        -30.932608   1.000000
    239        -30.927306   1.000000
    240        -30.909852   1.000000
    241        -30.902461   1.000000
    242        -30.889270   1.000000
    243        -30.880607   1.000000
    244        -30.844966   1.000000
    245        -30.836948   1.000000
    246        -30.823954   1.000000
    247        -27.985430   1.000000
    248        -27.828359   1.000000
    249        -27.804210   1.000000
    250        -27.786260   1.000000
    251        -27.689496   1.000000
    252        -27.600102   1.000000
    253        -16.212707   1.000000
    254         -2.944247   1.000000
    255         -2.905880   1.000000
    256         -2.842426   1.000000
    257         -2.506097   1.000000
    258         -1.968944   1.000000
    259         -1.923757   1.000000
    260         -1.903693   1.000000
    261         -1.331091   1.000000
    262         -1.325890   1.000000
    263         -1.317292   1.000000
    264         -1.259069   1.000000
    265         -1.240831   1.000000
    266         -1.232947   1.000000
    267         -1.209918   1.000000
    268         -1.193015   1.000000
    269         -1.187300   1.000000
    270         -1.153250   1.000000
    271         -1.045301   1.000000
    272         -0.892135   1.000000
    273         -0.839694   1.000000
    274         -0.825235   1.000000
    275         -0.814129   1.000000
    276         -0.795263   1.000000
    277         -0.770817   1.000000
    278         -0.765330   1.000000
    279         -0.759777   1.000000
    280         -0.721116   1.000000
    281         -0.715251   1.000000
    282         -0.701910   1.000000
    283         -0.682264   1.000000
    284         -0.629421   1.000000
    285         -0.574591   1.000000
    286         -0.478842   1.000000
    287         -0.463471   1.000000
    288         -0.436741   1.000000
    289         -0.425800   1.000000
    290         -0.395429   1.000000
    291         -0.381280   1.000000
    292         -0.348025   1.000000
    293         -0.330562   1.000000
    294         -0.322658   1.000000
    295         -0.302786   1.000000
    296         -0.257789   1.000000
    297         -0.248407   1.000000
    298         -0.214415   1.000000
    299         -0.195866   1.000000
    300         -0.156055   1.000000
    301         -0.130804   1.000000
    302         -0.069749   1.000000
    303         -0.045634   1.000000
    304         -0.034228   1.000000
    305         -0.007604   1.000000
    306          0.065874   1.000000
    307          0.093710   1.000000
    308          0.103315   1.000000
    309          0.120201   1.000000
    310          0.149420   1.000000
    311          0.200160   1.000000
    312          0.216973   1.000000
    313          0.233947   1.000000
    314          0.264073   1.000000
    315          0.278554   1.000000
    316          0.300807   1.000000
    317          0.339528   1.000000
    318          0.364746   1.000000
    319          0.372810   1.000000
    320          0.386674   1.000000
    321          0.415581   1.000000
    322          0.426738   1.000000
    323          0.461229   1.000000
    324          0.482834   1.000000
    325          0.489059   1.000000
    326          0.505867   1.000000
    327          0.509328   1.000000
    328          0.517472   1.000000
    329          0.531877   1.000000
    330          0.558496   1.000000
    331          0.578714   1.000000
    332          0.594262   1.000000
    333          0.607458   1.000000
    334          0.618763   1.000000
    335          0.634512   1.000000
    336          0.643500   1.000000
    337          0.655689   1.000000
    338          0.670262   1.000000
    339          0.696558   1.000000
    340          0.706194   1.000000
    341          0.752064   1.000000
    342          0.771659   1.000000
    343          0.816862   1.000000
    344          0.825967   1.000000
    345          0.861431   1.000000
    346          0.887844   1.000000
    347          0.911703   1.000000
    348          0.936909   1.000000
    349          0.954571   1.000000
    350          0.957540   1.000000
    351          1.000110   1.000000
    352          1.015767   1.000000
    353          1.040992   1.000000
    354          1.058546   1.000000
    355          1.072143   1.000000
    356          1.077288   1.000000
    357          1.099481   1.000000
    358          1.115802   1.000000
    359          1.139498   1.000000
    360          1.154522   1.000000
    361          1.230572   1.000000
    362          1.258920   1.000000
    363          1.272614   1.000000
    364          1.332021   1.000000
    365          1.360167   1.000000
    366          1.393015   1.000000
    367          1.413738   1.000000
    368          1.423147   1.000000
    369          1.454408   1.000000
    370          1.490367   1.000000
    371          1.522615   1.000000
    372          1.528270   1.000000
    373          1.566509   1.000000
    374          1.568294   1.000000
    375          1.608586   1.000000
    376          1.621958   1.000000
    377          1.651261   1.000000
    378          1.659945   1.000000
    379          1.682122   1.000000
    380          1.695430   1.000000
    381          1.739795   1.000000
    382          1.759790   1.000000
    383          1.781261   1.000000
    384          1.823867   1.000000
    385          1.848602   1.000000
    386          1.866226   1.000000
    387          1.883647   1.000000
    388          1.906459   1.000000
    389          1.957928   1.000000
    390          1.974274   1.000000
    391          2.003865   1.000000
    392          2.007098   1.000000
    393          2.020299   1.000000
    394          2.043944   1.000000
    395          2.053404   1.000000
    396          2.058528   1.000000
    397          2.100790   1.000000
    398          2.117715   1.000000
    399          2.127005   1.000000
    400          2.148256   1.000000
    401          2.167421   1.000000
    402          2.171192   1.000000
    403          2.219928   1.000000
    404          2.236763   1.000000
    405          2.286344   1.000000
    406          2.303800   1.000000
    407          2.350419   1.000000
    408          2.362220   1.000000
    409          2.374012   1.000000
    410          2.415844   1.000000
    411          2.455887   1.000000
    412          2.561363   1.000000
    413          2.575921   1.000000
    414          2.592367   1.000000
    415          2.634023   1.000000
    416          2.710575   1.000000
    417          2.733663   1.000000
    418          2.782485   1.000000
    419          2.830839   1.000000
    420          2.858469   1.000000
    421          2.929696   1.000000
    422          2.939492   1.000000
    423          2.947133   1.000000
    424          2.954754   1.000000
    425          2.971136   1.000000
    426          2.978491   1.000000
    427          3.010162   1.000000
    428          3.072877   1.000000
    429          3.080736   1.000000
    430          3.110376   1.000000
    431          3.123854   1.000000
    432          3.176287   1.000000
    433          3.194922   1.000000
    434          3.224274   0.999998
    435          3.263823   0.999970
    436          3.285011   0.999898
    437          3.298748   0.999783
    438          3.306116   0.999681
    439          3.355999   0.996628
    440          3.370680   0.993819
    441          3.415421   0.969183
    442          3.472438   0.856011
    443          3.534187   0.575075
    444          3.546479   0.506172
    445          3.592857   0.260951
    446          3.611327   0.183630
    447          3.651903   0.070047
    448          3.670754   0.040751
    449          3.701644   0.014670
    450          3.776920   0.000590
    451          3.826227   0.000041
    452          3.896703   0.000000
    453          3.937792   0.000000
    454          3.954915   0.000000
    455          3.974725   0.000000
    456          4.026454   0.000000
    457          4.043789   0.000000
    458          4.053827   0.000000
    459          4.059187   0.000000
    460          4.084733   0.000000
    461          4.109840   0.000000
    462          4.161108   0.000000
    463          4.168861   0.000000
    464          4.231696   0.000000
    465          4.273313   0.000000
    466          4.287920   0.000000
    467          4.320346   0.000000
    468          4.337406   0.000000
    469          4.409009   0.000000
    470          4.448092   0.000000
    471          4.455549   0.000000
    472          4.470070   0.000000
    473          4.516984   0.000000
    474          4.533826   0.000000
    475          4.543186   0.000000
    476          4.551168   0.000000
    477          4.560016   0.000000
    478          4.584792   0.000000
    479          4.599274   0.000000
    480          4.612274   0.000000
    481          4.646871   0.000000
    482          4.670723   0.000000
    483          4.711462   0.000000
    484          4.717050   0.000000
    485          4.738058   0.000000
    486          4.796821   0.000000
    487          4.826447   0.000000
    488          4.834522   0.000000
    489          4.851898   0.000000
    490          4.865674   0.000000
    491          4.873660   0.000000
    492          4.892776   0.000000
    493          4.908656   0.000000
    494          4.929801   0.000000
    495          4.954062   0.000000
    496          4.988796   0.000000
    497          4.999726   0.000000
    498          5.005701   0.000000
    499          5.015425   0.000000
    500          5.033027   0.000000
    501          5.042792   0.000000
    502          5.062629   0.000000
    503          5.080041   0.000000
    504          5.101117   0.000000
    505          5.117472   0.000000
    506          5.136485   0.000000
    507          5.154212   0.000000
    508          5.162502   0.000000
    509          5.171339   0.000000
    510          5.191076   0.000000
    511          5.208147   0.000000
    512          5.234860   0.000000
    513          5.241156   0.000000
    514          5.248604   0.000000
    515          5.267386   0.000000
    516          5.288713   0.000000
    517          5.295249   0.000000
    518          5.346681   0.000000
    519          5.361884   0.000000
    520          5.378273   0.000000
    521          5.415128   0.000000
    522          5.421680   0.000000
    523          5.428555   0.000000
    524          5.447515   0.000000
    525          5.458749   0.000000
    526          5.478754   0.000000
    527          5.501544   0.000000
    528          5.535941   0.000000
    529          5.556444   0.000000
    530          5.587346   0.000000
    531          5.605507   0.000000
 
 -0.2500000E+00  0.2500000E+00  0.0000000E+00  0.1250000E+00
      1        -57.653322   1.000000
      2        -57.606543   1.000000
      3        -57.597616   1.000000
      4        -57.589869   1.000000
      5        -57.562997   1.000000
      6        -57.557562   1.000000
      7        -57.549500   1.000000
      8        -57.532696   1.000000
      9        -57.527683   1.000000
     10        -57.524771   1.000000
     11        -57.515897   1.000000
     12        -57.512384   1.000000
     13        -57.508746   1.000000
     14        -57.504381   1.000000
     15        -57.499408   1.000000
     16        -57.495199   1.000000
     17        -57.491912   1.000000
     18        -57.485140   1.000000
     19        -57.458926   1.000000
     20        -57.444020   1.000000
     21        -57.435997   1.000000
     22        -57.401916   1.000000
     23        -57.397916   1.000000
     24        -57.392164   1.000000
     25        -57.386916   1.000000
     26        -57.386166   1.000000
     27        -57.384861   1.000000
     28        -57.382230   1.000000
     29        -57.381441   1.000000
     30        -57.379173   1.000000
     31        -57.377540   1.000000
     32        -57.374313   1.000000
     33        -57.371895   1.000000
     34        -57.369371   1.000000
     35        -57.365067   1.000000
     36        -57.363130   1.000000
     37        -57.361301   1.000000
     38        -57.357495   1.000000
     39        -57.348164   1.000000
     40        -57.341304   1.000000
     41        -57.339174   1.000000
     42        -57.334955   1.000000
     43        -57.320440   1.000000
     44        -57.319600   1.000000
     45        -57.293981   1.000000
     46        -57.250831   1.000000
     47        -57.244485   1.000000
     48        -57.183238   1.000000
     49        -57.180884   1.000000
     50        -57.180561   1.000000
     51        -57.175721   1.000000
     52        -57.173910   1.000000
     53        -57.171095   1.000000
     54        -57.168116   1.000000
     55        -57.168047   1.000000
     56        -57.167308   1.000000
     57        -57.166933   1.000000
     58        -57.158402   1.000000
     59        -57.157053   1.000000
     60        -57.145439   1.000000
     61        -57.129673   1.000000
     62        -51.769335   1.000000
     63        -51.664972   1.000000
     64        -32.270742   1.000000
     65        -32.255116   1.000000
     66        -32.244370   1.000000
     67        -32.237189   1.000000
     68        -32.223948   1.000000
     69        -32.210699   1.000000
     70        -32.171334   1.000000
     71        -32.157843   1.000000
     72        -32.132993   1.000000
     73        -32.116379   1.000000
     74        -32.111685   1.000000
     75        -32.104172   1.000000
     76        -32.103232   1.000000
     77        -32.091344   1.000000
     78        -32.088277   1.000000
     79        -32.087314   1.000000
     80        -32.078837   1.000000
     81        -32.072375   1.000000
     82        -32.064936   1.000000
     83        -32.063798   1.000000
     84        -32.051789   1.000000
     85        -32.046361   1.000000
     86        -32.034405   1.000000
     87        -32.027023   1.000000
     88        -32.022480   1.000000
     89        -32.016445   1.000000
     90        -32.008904   1.000000
     91        -31.993017   1.000000
     92        -31.990870   1.000000
     93        -31.969762   1.000000
     94        -31.964446   1.000000
     95        -31.954454   1.000000
     96        -31.943834   1.000000
     97        -31.936496   1.000000
     98        -31.934355   1.000000
     99        -31.920879   1.000000
    100        -31.916848   1.000000
    101        -31.895636   1.000000
    102        -31.886408   1.000000
    103        -31.876820   1.000000
    104        -31.859095   1.000000
    105        -31.851331   1.000000
    106        -31.830237   1.000000
    107        -31.819725   1.000000
    108        -31.815924   1.000000
    109        -31.804135   1.000000
    110        -31.800309   1.000000
    111        -31.785884   1.000000
    112        -31.777997   1.000000
    113        -31.757844   1.000000
    114        -31.753544   1.000000
    115        -31.748940   1.000000
    116        -31.743455   1.000000
    117        -31.734005   1.000000
    118        -31.731160   1.000000
    119        -31.711924   1.000000
    120        -31.700903   1.000000
    121        -31.694511   1.000000
    122        -31.666309   1.000000
    123        -31.655811   1.000000
    124        -31.655644   1.000000
    125        -31.642414   1.000000
    126        -31.632128   1.000000
    127        -31.625523   1.000000
    128        -31.622626   1.000000
    129        -31.615921   1.000000
    130        -31.615166   1.000000
    131        -31.614351   1.000000
    132        -31.603402   1.000000
    133        -31.602371   1.000000
    134        -31.586476   1.000000
    135        -31.569317   1.000000
    136        -31.559111   1.000000
    137        -31.546203   1.000000
    138        -31.544391   1.000000
    139        -31.539053   1.000000
    140        -31.533110   1.000000
    141        -31.516196   1.000000
    142        -31.512921   1.000000
    143        -31.508829   1.000000
    144        -31.493628   1.000000
    145        -31.493505   1.000000
    146        -31.484423   1.000000
    147        -31.483537   1.000000
    148        -31.473163   1.000000
    149        -31.467648   1.000000
    150        -31.451415   1.000000
    151        -31.441080   1.000000
    152        -31.439787   1.000000
    153        -31.428693   1.000000
    154        -31.421513   1.000000
    155        -31.419304   1.000000
    156        -31.406601   1.000000
    157        -31.406173   1.000000
    158        -31.394759   1.000000
    159        -31.393211   1.000000
    160        -31.388737   1.000000
    161        -31.377106   1.000000
    162        -31.376398   1.000000
    163        -31.367975   1.000000
    164        -31.364469   1.000000
    165        -31.357056   1.000000
    166        -31.352937   1.000000
    167        -31.344075   1.000000
    168        -31.344067   1.000000
    169        -31.338820   1.000000
    170        -31.335931   1.000000
    171        -31.318326   1.000000
    172        -31.308865   1.000000
    173        -31.307044   1.000000
    174        -31.289687   1.000000
    175        -31.285959   1.000000
    176        -31.282117   1.000000
    177        -31.281983   1.000000
    178        -31.275330   1.000000
    179        -31.275309   1.000000
    180        -31.267913   1.000000
    181        -31.257699   1.000000
    182        -31.233427   1.000000
    183        -31.216184   1.000000
    184        -31.211423   1.000000
    185        -31.209633   1.000000
    186        -31.203098   1.000000
    187        -31.187515   1.000000
    188        -31.184787   1.000000
    189        -31.183226   1.000000
    190        -31.176761   1.000000
    191        -31.175280   1.000000
    192        -31.170579   1.000000
    193        -31.166997   1.000000
    194        -31.163756   1.000000
    195        -31.162794   1.000000
    196        -31.155294   1.000000
    197        -31.153600   1.000000
    198        -31.150735   1.000000
    199        -31.141903   1.000000
    200        -31.133798   1.000000
    201        -31.133237   1.000000
    202        -31.127208   1.000000
    203        -31.126607   1.000000
    204        -31.123118   1.000000
    205        -31.114918   1.000000
    206        -31.114614   1.000000
    207        -31.113243   1.000000
    208        -31.109262   1.000000
    209        -31.101009   1.000000
    210        -31.075080   1.000000
    211        -31.074525   1.000000
    212        -31.065395   1.000000
    213        -31.058204   1.000000
    214        -31.054458   1.000000
    215        -31.054296   1.000000
    216        -31.051293   1.000000
    217        -31.034766   1.000000
    218        -31.030743   1.000000
    219        -31.029487   1.000000
    220        -31.021998   1.000000
    221        -31.021224   1.000000
    222        -31.014051   1.000000
    223        -31.008829   1.000000
    224        -31.007675   1.000000
    225        -31.003120   1.000000
    226        -30.999689   1.000000
    227        -30.993739   1.000000
    228        -30.992858   1.000000
    229        -30.991020   1.000000
    230        -30.986412   1.000000
    231        -30.985307   1.000000
    232        -30.975379   1.000000
    233        -30.973565   1.000000
    234        -30.968236   1.000000
    235        -30.967075   1.000000
    236        -30.953485   1.000000
    237        -30.941572   1.000000
    238        -30.933228   1.000000
    239        -30.931305   1.000000
    240        -30.901369   1.000000
    241        -30.898398   1.000000
    242        -30.890735   1.000000
    243        -30.874983   1.000000
    244        -30.845302   1.000000
    245        -30.839777   1.000000
    246        -30.829652   1.000000
    247        -27.985423   1.000000
    248        -27.828359   1.000000
    249        -27.804217   1.000000
    250        -27.786261   1.000000
    251        -27.689496   1.000000
    252        -27.600100   1.000000
    253        -16.212707   1.000000
    254         -2.963493   1.000000
    255         -2.870878   1.000000
    256         -2.859882   1.000000
    257         -2.504929   1.000000
    258         -1.967456   1.000000
    259         -1.929006   1.000000
    260         -1.899186   1.000000
    261         -1.327741   1.000000
    262         -1.319186   1.000000
    263         -1.317572   1.000000
    264         -1.261055   1.000000
    265         -1.239211   1.000000
    266         -1.238561   1.000000
    267         -1.205817   1.000000
    268         -1.193130   1.000000
    269         -1.191417   1.000000
    270         -1.148819   1.000000
    271         -1.040007   1.000000
    272         -0.883161   1.000000
    273         -0.864729   1.000000
    274         -0.812043   1.000000
    275         -0.806687   1.000000
    276         -0.791893   1.000000
    277         -0.772682   1.000000
    278         -0.769593   1.000000
    279         -0.753579   1.000000
    280         -0.718779   1.000000
    281         -0.718091   1.000000
    282         -0.702242   1.000000
    283         -0.688885   1.000000
    284         -0.605891   1.000000
    285         -0.601638   1.000000
    286         -0.492249   1.000000
    287         -0.460791   1.000000
    288         -0.450298   1.000000
    289         -0.413729   1.000000
    290         -0.395510   1.000000
    291         -0.382101   1.000000
    292         -0.344474   1.000000
    293         -0.319589   1.000000
    294         -0.316724   1.000000
    295         -0.307992   1.000000
    296         -0.266244   1.000000
    297         -0.251048   1.000000
    298         -0.207733   1.000000
    299         -0.204052   1.000000
    300         -0.162753   1.000000
    301         -0.129550   1.000000
    302         -0.078802   1.000000
    303         -0.068767   1.000000
    304         -0.023060   1.000000
    305         -0.007496   1.000000
    306          0.078768   1.000000
    307          0.090809   1.000000
    308          0.098910   1.000000
    309          0.105709   1.000000
    310          0.140104   1.000000
    311          0.202253   1.000000
    312          0.206607   1.000000
    313          0.236550   1.000000
    314          0.273253   1.000000
    315          0.280078   1.000000
    316          0.283067   1.000000
    317          0.345623   1.000000
    318          0.365286   1.000000
    319          0.378434   1.000000
    320          0.384078   1.000000
    321          0.403362   1.000000
    322          0.428049   1.000000
    323          0.475243   1.000000
    324          0.493400   1.000000
    325          0.500757   1.000000
    326          0.505362   1.000000
    327          0.507534   1.000000
    328          0.541502   1.000000
    329          0.546301   1.000000
    330          0.573899   1.000000
    331          0.574882   1.000000
    332          0.589367   1.000000
    333          0.592063   1.000000
    334          0.629664   1.000000
    335          0.641887   1.000000
    336          0.661432   1.000000
    337          0.674484   1.000000
    338          0.688021   1.000000
    339          0.691154   1.000000
    340          0.721143   1.000000
    341          0.732685   1.000000
    342          0.763163   1.000000
    343          0.769089   1.000000
    344          0.786662   1.000000
    345          0.809616   1.000000
    346          0.902231   1.000000
    347          0.927216   1.000000
    348          0.932980   1.000000
    349          0.952608   1.000000
    350          0.983500   1.000000
    351          1.013176   1.000000
    352          1.014571   1.000000
    353          1.032152   1.000000
    354          1.062831   1.000000
    355          1.070447   1.000000
    356          1.085343   1.000000
    357          1.112571   1.000000
    358          1.114571   1.000000
    359          1.145403   1.000000
    360          1.159909   1.000000
    361          1.228937   1.000000
    362          1.261534   1.000000
    363          1.290444   1.000000
    364          1.336307   1.000000
    365          1.378050   1.000000
    366          1.402780   1.000000
    367          1.413184   1.000000
    368          1.449394   1.000000
    369          1.457560   1.000000
    370          1.469750   1.000000
    371          1.512610   1.000000
    372          1.541282   1.000000
    373          1.560656   1.000000
    374          1.575711   1.000000
    375          1.593676   1.000000
    376          1.614711   1.000000
    377          1.650432   1.000000
    378          1.653537   1.000000
    379          1.691396   1.000000
    380          1.730771   1.000000
    381          1.747898   1.000000
    382          1.766144   1.000000
    383          1.790424   1.000000
    384          1.806527   1.000000
    385          1.848526   1.000000
    386          1.852472   1.000000
    387          1.882308   1.000000
    388          1.888505   1.000000
    389          1.934330   1.000000
    390          1.987184   1.000000
    391          2.003525   1.000000
    392          2.011159   1.000000
    393          2.027212   1.000000
    394          2.037248   1.000000
    395          2.050476   1.000000
    396          2.050763   1.000000
    397          2.095464   1.000000
    398          2.104945   1.000000
    399          2.131211   1.000000
    400          2.133953   1.000000
    401          2.154321   1.000000
    402          2.164242   1.000000
    403          2.201467   1.000000
    404          2.241715   1.000000
    405          2.282424   1.000000
    406          2.328673   1.000000
    407          2.357206   1.000000
    408          2.369192   1.000000
    409          2.386762   1.000000
    410          2.401256   1.000000
    411          2.414364   1.000000
    412          2.537636   1.000000
    413          2.563427   1.000000
    414          2.598304   1.000000
    415          2.675531   1.000000
    416          2.676118   1.000000
    417          2.717912   1.000000
    418          2.773905   1.000000
    419          2.816785   1.000000
    420          2.848392   1.000000
    421          2.879186   1.000000
    422          2.945723   1.000000
    423          2.946721   1.000000
    424          2.963218   1.000000
    425          2.966910   1.000000
    426          2.976592   1.000000
    427          2.997738   1.000000
    428          3.008642   1.000000
    429          3.055992   1.000000
    430          3.074122   1.000000
    431          3.115480   1.000000
    432          3.203974   0.999999
    433          3.250082   0.999987
    434          3.268210   0.999961
    435          3.295641   0.999817
    436          3.299085   0.999779
    437          3.310353   0.999603
    438          3.360449   0.995932
    439          3.379192   0.991373
    440          3.396520   0.983669
    441          3.462895   0.884450
    442          3.473185   0.853602
    443          3.519777   0.652874
    444          3.566085   0.396738
    445          3.595022   0.251100
    446          3.607386   0.198810
    447          3.640504   0.094383
    448          3.674639   0.036169
    449          3.737426   0.003627
    450          3.777143   0.000584
    451          3.838475   0.000019
    452          3.886966   0.000001
    453          3.898094   0.000000
    454          3.952688   0.000000
    455          3.965839   0.000000
    456          4.035997   0.000000
    457          4.053526   0.000000
    458          4.054031   0.000000
    459          4.065618   0.000000
    460          4.092458   0.000000
    461          4.121417   0.000000
    462          4.165916   0.000000
    463          4.222371   0.000000
    464          4.235555   0.000000
    465          4.277764   0.000000
    466          4.299984   0.000000
    467          4.323628   0.000000
    468          4.334886   0.000000
    469          4.386327   0.000000
    470          4.423126   0.000000
    471          4.441992   0.000000
    472          4.464636   0.000000
    473          4.503156   0.000000
    474          4.520542   0.000000
    475          4.533404   0.000000
    476          4.563230   0.000000
    477          4.571996   0.000000
    478          4.592959   0.000000
    479          4.609611   0.000000
    480          4.637929   0.000000
    481          4.648475   0.000000
    482          4.690450   0.000000
    483          4.711773   0.000000
    484          4.719179   0.000000
    485          4.758279   0.000000
    486          4.797335   0.000000
    487          4.810454   0.000000
    488          4.819683   0.000000
    489          4.835214   0.000000
    490          4.851934   0.000000
    491          4.855740   0.000000
    492          4.879584   0.000000
    493          4.882716   0.000000
    494          4.923391   0.000000
    495          4.942860   0.000000
    496          4.946013   0.000000
    497          4.978022   0.000000
    498          4.981650   0.000000
    499          5.031124   0.000000
    500          5.033028   0.000000
    501          5.041738   0.000000
    502          5.075541   0.000000
    503          5.081792   0.000000
    504          5.101912   0.000000
    505          5.118776   0.000000
    506          5.130706   0.000000
    507          5.144740   0.000000
    508          5.155537   0.000000
    509          5.159731   0.000000
    510          5.195150   0.000000
    511          5.221610   0.000000
    512          5.226671   0.000000
    513          5.246576   0.000000
    514          5.261356   0.000000
    515          5.300452   0.000000
    516          5.326231   0.000000
    517          5.329806   0.000000
    518          5.344358   0.000000
    519          5.354311   0.000000
    520          5.371306   0.000000
    521          5.393209   0.000000
    522          5.411307   0.000000
    523          5.442481   0.000000
    524          5.443306   0.000000
    525          5.464208   0.000000
    526          5.473940   0.000000
    527          5.506114   0.000000
    528          5.512266   0.000000
    529          5.538221   0.000000
    530          5.554824   0.000000
    531          5.606786   0.000000
 
  0.5000000E+00  0.2500000E+00  0.0000000E+00  0.1250000E+00
      1        -57.634915   1.000000
      2        -57.631395   1.000000
      3        -57.589537   1.000000
      4        -57.585287   1.000000
      5        -57.575324   1.000000
      6        -57.572204   1.000000
      7        -57.543797   1.000000
      8        -57.540825   1.000000
      9        -57.525466   1.000000
     10        -57.520741   1.000000
     11        -57.510390   1.000000
     12        -57.508399   1.000000
     13        -57.503530   1.000000
     14        -57.500077   1.000000
     15        -57.497241   1.000000
     16        -57.492921   1.000000
     17        -57.489787   1.000000
     18        -57.483354   1.000000
     19        -57.458948   1.000000
     20        -57.444116   1.000000
     21        -57.436260   1.000000
     22        -57.405510   1.000000
     23        -57.398522   1.000000
     24        -57.392286   1.000000
     25        -57.390101   1.000000
     26        -57.388161   1.000000
     27        -57.385459   1.000000
     28        -57.382979   1.000000
     29        -57.381870   1.000000
     30        -57.380565   1.000000
     31        -57.378994   1.000000
     32        -57.376620   1.000000
     33        -57.372102   1.000000
     34        -57.370322   1.000000
     35        -57.366701   1.000000
     36        -57.364136   1.000000
     37        -57.362584   1.000000
     38        -57.357275   1.000000
     39        -57.347697   1.000000
     40        -57.339376   1.000000
     41        -57.336547   1.000000
     42        -57.329096   1.000000
     43        -57.324991   1.000000
     44        -57.305879   1.000000
     45        -57.301863   1.000000
     46        -57.253628   1.000000
     47        -57.242432   1.000000
     48        -57.184226   1.000000
     49        -57.184082   1.000000
     50        -57.180038   1.000000
     51        -57.177045   1.000000
     52        -57.175120   1.000000
     53        -57.170368   1.000000
     54        -57.168483   1.000000
     55        -57.166439   1.000000
     56        -57.163756   1.000000
     57        -57.162679   1.000000
     58        -57.160754   1.000000
     59        -57.158729   1.000000
     60        -57.142901   1.000000
     61        -57.131948   1.000000
     62        -51.769335   1.000000
     63        -51.664972   1.000000
     64        -32.281780   1.000000
     65        -32.268655   1.000000
     66        -32.255034   1.000000
     67        -32.238720   1.000000
     68        -32.210122   1.000000
     69        -32.189144   1.000000
     70        -32.179046   1.000000
     71        -32.167312   1.000000
     72        -32.150274   1.000000
     73        -32.133786   1.000000
     74        -32.113368   1.000000
     75        -32.111793   1.000000
     76        -32.101259   1.000000
     77        -32.093549   1.000000
     78        -32.091674   1.000000
     79        -32.083906   1.000000
     80        -32.079076   1.000000
     81        -32.068116   1.000000
     82        -32.055711   1.000000
     83        -32.047961   1.000000
     84        -32.039713   1.000000
     85        -32.033519   1.000000
     86        -32.031501   1.000000
     87        -32.023609   1.000000
     88        -32.016905   1.000000
     89        -32.013111   1.000000
     90        -32.004454   1.000000
     91        -31.996301   1.000000
     92        -31.994074   1.000000
     93        -31.989925   1.000000
     94        -31.982458   1.000000
     95        -31.944422   1.000000
     96        -31.940093   1.000000
     97        -31.928505   1.000000
     98        -31.920245   1.000000
     99        -31.911192   1.000000
    100        -31.903598   1.000000
    101        -31.897744   1.000000
    102        -31.884060   1.000000
    103        -31.871403   1.000000
    104        -31.856008   1.000000
    105        -31.842351   1.000000
    106        -31.835969   1.000000
    107        -31.824207   1.000000
    108        -31.819938   1.000000
    109        -31.811617   1.000000
    110        -31.806609   1.000000
    111        -31.791147   1.000000
    112        -31.784897   1.000000
    113        -31.780525   1.000000
    114        -31.762915   1.000000
    115        -31.751830   1.000000
    116        -31.741559   1.000000
    117        -31.737701   1.000000
    118        -31.721803   1.000000
    119        -31.699130   1.000000
    120        -31.692743   1.000000
    121        -31.691357   1.000000
    122        -31.676460   1.000000
    123        -31.657899   1.000000
    124        -31.650503   1.000000
    125        -31.636829   1.000000
    126        -31.626192   1.000000
    127        -31.623208   1.000000
    128        -31.615435   1.000000
    129        -31.613492   1.000000
    130        -31.602570   1.000000
    131        -31.594463   1.000000
    132        -31.591674   1.000000
    133        -31.585285   1.000000
    134        -31.583903   1.000000
    135        -31.574426   1.000000
    136        -31.568747   1.000000
    137        -31.558047   1.000000
    138        -31.542440   1.000000
    139        -31.532079   1.000000
    140        -31.521325   1.000000
    141        -31.514356   1.000000
    142        -31.504006   1.000000
    143        -31.500356   1.000000
    144        -31.494347   1.000000
    145        -31.482753   1.000000
    146        -31.475267   1.000000
    147        -31.469937   1.000000
    148        -31.468339   1.000000
    149        -31.455129   1.000000
    150        -31.449154   1.000000
    151        -31.443539   1.000000
    152        -31.441197   1.000000
    153        -31.437706   1.000000
    154        -31.429705   1.000000
    155        -31.427594   1.000000
    156        -31.425684   1.000000
    157        -31.417830   1.000000
    158        -31.408957   1.000000
    159        -31.405711   1.000000
    160        -31.401194   1.000000
    161        -31.396764   1.000000
    162        -31.389878   1.000000
    163        -31.382724   1.000000
    164        -31.379978   1.000000
    165        -31.371846   1.000000
    166        -31.369656   1.000000
    167        -31.357905   1.000000
    168        -31.352605   1.000000
    169        -31.342464   1.000000
    170        -31.336336   1.000000
    171        -31.333565   1.000000
    172        -31.322405   1.000000
    173        -31.313409   1.000000
    174        -31.294985   1.000000
    175        -31.292701   1.000000
    176        -31.286761   1.000000
    177        -31.267304   1.000000
    178        -31.259806   1.000000
    179        -31.248877   1.000000
    180        -31.233414   1.000000
    181        -31.229818   1.000000
    182        -31.227885   1.000000
    183        -31.223008   1.000000
    184        -31.216489   1.000000
    185        -31.213803   1.000000
    186        -31.212344   1.000000
    187        -31.204358   1.000000
    188        -31.202554   1.000000
    189        -31.194106   1.000000
    190        -31.185210   1.000000
    191        -31.178018   1.000000
    192        -31.164034   1.000000
    193        -31.160760   1.000000
    194        -31.154279   1.000000
    195        -31.147154   1.000000
    196        -31.142373   1.000000
    197        -31.138359   1.000000
    198        -31.137396   1.000000
    199        -31.132321   1.000000
    200        -31.127276   1.000000
    201        -31.125849   1.000000
    202        -31.122105   1.000000
    203        -31.119374   1.000000
    204        -31.115774   1.000000
    205        -31.112402   1.000000
    206        -31.111304   1.000000
    207        -31.107667   1.000000
    208        -31.106069   1.000000
    209        -31.100738   1.000000
    210        -31.094700   1.000000
    211        -31.086172   1.000000
    212        -31.077818   1.000000
    213        -31.070780   1.000000
    214        -31.064056   1.000000
    215        -31.054118   1.000000
    216        -31.040699   1.000000
    217        -31.030220   1.000000
    218        -31.027133   1.000000
    219        -31.025716   1.000000
    220        -31.021789   1.000000
    221        -31.018159   1.000000
    222        -31.015943   1.000000
    223        -31.008866   1.000000
    224        -31.008340   1.000000
    225        -31.007133   1.000000
    226        -30.996130   1.000000
    227        -30.994812   1.000000
    228        -30.992982   1.000000
    229        -30.990078   1.000000
    230        -30.984003   1.000000
    231        -30.980089   1.000000
    232        -30.977085   1.000000
    233        -30.972870   1.000000
    234        -30.968961   1.000000
    235        -30.965382   1.000000
    236        -30.964704   1.000000
    237        -30.940108   1.000000
    238        -30.935505   1.000000
    239        -30.928092   1.000000
    240        -30.910049   1.000000
    241        -30.900559   1.000000
    242        -30.890009   1.000000
    243        -30.877314   1.000000
    244        -30.845999   1.000000
    245        -30.835781   1.000000
    246        -30.829123   1.000000
    247        -27.985463   1.000000
    248        -27.828341   1.000000
    249        -27.804236   1.000000
    250        -27.786277   1.000000
    251        -27.689521   1.000000
    252        -27.600125   1.000000
    253        -16.212663   1.000000
    254         -2.914372   1.000000
    255         -2.858846   1.000000
    256         -2.609708   1.000000
    257         -2.506620   1.000000
    258         -2.401685   1.000000
    259         -1.670917   1.000000
    260         -1.657996   1.000000
    261         -1.633768   1.000000
    262         -1.600878   1.000000
    263         -1.292183   1.000000
    264         -1.234229   1.000000
    265         -1.196841   1.000000
    266         -1.153602   1.000000
    267         -1.084968   1.000000
    268         -1.062225   1.000000
    269         -0.955500   1.000000
    270         -0.936983   1.000000
    271         -0.930238   1.000000
    272         -0.895002   1.000000
    273         -0.843497   1.000000
    274         -0.826524   1.000000
    275         -0.820036   1.000000
    276         -0.803643   1.000000
    277         -0.752260   1.000000
    278         -0.713576   1.000000
    279         -0.702081   1.000000
    280         -0.663539   1.000000
    281         -0.645459   1.000000
    282         -0.635904   1.000000
    283         -0.631280   1.000000
    284         -0.610518   1.000000
    285         -0.582952   1.000000
    286         -0.557023   1.000000
    287         -0.517960   1.000000
    288         -0.500095   1.000000
    289         -0.418258   1.000000
    290         -0.394638   1.000000
    291         -0.391710   1.000000
    292         -0.381003   1.000000
    293         -0.367943   1.000000
    294         -0.352550   1.000000
    295         -0.295441   1.000000
    296         -0.249868   1.000000
    297         -0.235619   1.000000
    298         -0.218581   1.000000
    299         -0.188108   1.000000
    300         -0.157125   1.000000
    301         -0.151266   1.000000
    302         -0.140141   1.000000
    303         -0.118188   1.000000
    304         -0.090827   1.000000
    305         -0.057163   1.000000
    306         -0.030845   1.000000
    307          0.003363   1.000000
    308          0.062122   1.000000
    309          0.091898   1.000000
    310          0.107603   1.000000
    311          0.123864   1.000000
    312          0.148167   1.000000
    313          0.189092   1.000000
    314          0.203584   1.000000
    315          0.236108   1.000000
    316          0.283424   1.000000
    317          0.318566   1.000000
    318          0.357471   1.000000
    319          0.366879   1.000000
    320          0.384975   1.000000
    321          0.391028   1.000000
    322          0.404698   1.000000
    323          0.411770   1.000000
    324          0.434595   1.000000
    325          0.443567   1.000000
    326          0.473761   1.000000
    327          0.485553   1.000000
    328          0.502835   1.000000
    329          0.509481   1.000000
    330          0.532962   1.000000
    331          0.540399   1.000000
    332          0.559443   1.000000
    333          0.584039   1.000000
    334          0.590872   1.000000
    335          0.620042   1.000000
    336          0.638743   1.000000
    337          0.656836   1.000000
    338          0.685069   1.000000
    339          0.705373   1.000000
    340          0.736298   1.000000
    341          0.749243   1.000000
    342          0.770220   1.000000
    343          0.784364   1.000000
    344          0.796661   1.000000
    345          0.807084   1.000000
    346          0.840319   1.000000
    347          0.890299   1.000000
    348          0.901018   1.000000
    349          0.923247   1.000000
    350          0.930738   1.000000
    351          0.951559   1.000000
    352          0.981805   1.000000
    353          1.007076   1.000000
    354          1.033446   1.000000
    355          1.094088   1.000000
    356          1.122098   1.000000
    357          1.134193   1.000000
    358          1.155088   1.000000
    359          1.182661   1.000000
    360          1.203423   1.000000
    361          1.223499   1.000000
    362          1.240099   1.000000
    363          1.261600   1.000000
    364          1.288732   1.000000
    365          1.325811   1.000000
    366          1.335209   1.000000
    367          1.368572   1.000000
    368          1.414448   1.000000
    369          1.428085   1.000000
    370          1.447644   1.000000
    371          1.512045   1.000000
    372          1.527220   1.000000
    373          1.550458   1.000000
    374          1.561266   1.000000
    375          1.572373   1.000000
    376          1.582947   1.000000
    377          1.594508   1.000000
    378          1.608578   1.000000
    379          1.632228   1.000000
    380          1.659869   1.000000
    381          1.689033   1.000000
    382          1.700177   1.000000
    383          1.726923   1.000000
    384          1.758761   1.000000
    385          1.772277   1.000000
    386          1.803313   1.000000
    387          1.845275   1.000000
    388          1.866389   1.000000
    389          1.890093   1.000000
    390          1.904308   1.000000
    391          1.921543   1.000000
    392          1.940948   1.000000
    393          1.955615   1.000000
    394          1.980219   1.000000
    395          1.994038   1.000000
    396          1.998216   1.000000
    397          2.015951   1.000000
    398          2.030335   1.000000
    399          2.070179   1.000000
    400          2.082508   1.000000
    401          2.141444   1.000000
    402          2.177221   1.000000
    403          2.201554   1.000000
    404          2.250311   1.000000
    405          2.300814   1.000000
    406          2.361564   1.000000
    407          2.419901   1.000000
    408          2.435264   1.000000
    409          2.481089   1.000000
    410          2.536368   1.000000
    411          2.562966   1.000000
    412          2.595450   1.000000
    413          2.642723   1.000000
    414          2.670871   1.000000
    415          2.695514   1.000000
    416          2.736265   1.000000
    417          2.805053   1.000000
    418          2.833126   1.000000
    419          2.879677   1.000000
    420          2.919625   1.000000
    421          2.945792   1.000000
    422          2.974149   1.000000
    423          2.977597   1.000000
    424          3.022977   1.000000
    425          3.045191   1.000000
    426          3.076214   1.000000
    427          3.134046   1.000000
    428          3.137654   1.000000
    429          3.141147   1.000000
    430          3.165286   1.000000
    431          3.201510   1.000000
    432          3.221574   0.999998
    433          3.235685   0.999995
    434          3.273019   0.999948
    435          3.283659   0.999905
    436          3.307316   0.999660
    437          3.343706   0.998031
    438          3.379877   0.991144
    439          3.396324   0.983781
    440          3.408350   0.975519
    441          3.453395   0.908550
    442          3.480516   0.828520
    443          3.525735   0.621277
    444          3.546703   0.504910
    445          3.573894   0.354861
    446          3.625916   0.133946
    447          3.656064   0.062479
    448          3.675106   0.035648
    449          3.709826   0.010878
    450          3.725212   0.005999
    451          3.759830   0.001342
    452          3.815597   0.000075
    453          3.856613   0.000006
    454          3.913507   0.000000
    455          3.996298   0.000000
    456          4.024844   0.000000
    457          4.042275   0.000000
    458          4.083239   0.000000
    459          4.123035   0.000000
    460          4.137953   0.000000
    461          4.160523   0.000000
    462          4.199211   0.000000
    463          4.217887   0.000000
    464          4.282115   0.000000
    465          4.290932   0.000000
    466          4.329714   0.000000
    467          4.365056   0.000000
    468          4.395279   0.000000
    469          4.428135   0.000000
    470          4.474878   0.000000
    471          4.492589   0.000000
    472          4.515943   0.000000
    473          4.572441   0.000000
    474          4.594006   0.000000
    475          4.613787   0.000000
    476          4.637378   0.000000
    477          4.668821   0.000000
    478          4.698850   0.000000
    479          4.713592   0.000000
    480          4.727072   0.000000
    481          4.741776   0.000000
    482          4.755164   0.000000
    483          4.770530   0.000000
    484          4.780028   0.000000
    485          4.797497   0.000000
    486          4.805535   0.000000
    487          4.815287   0.000000
    488          4.829521   0.000000
    489          4.848714   0.000000
    490          4.865988   0.000000
    491          4.881564   0.000000
    492          4.897563   0.000000
    493          4.916001   0.000000
    494          4.927798   0.000000
    495          4.934783   0.000000
    496          4.955120   0.000000
    497          4.979328   0.000000
    498          4.994919   0.000000
    499          5.028627   0.000000
    500          5.058221   0.000000
    501          5.076958   0.000000
    502          5.098836   0.000000
    503          5.116219   0.000000
    504          5.136040   0.000000
    505          5.152728   0.000000
    506          5.160159   0.000000
    507          5.180674   0.000000
    508          5.190383   0.000000
    509          5.204172   0.000000
    510          5.214659   0.000000
    511          5.233795   0.000000
    512          5.244369   0.000000
    513          5.257811   0.000000
    514          5.278228   0.000000
    515          5.292513   0.000000
    516          5.308426   0.000000
    517          5.317722   0.000000
    518          5.331067   0.000000
    519          5.347644   0.000000
    520          5.358159   0.000000
    521          5.382409   0.000000
    522          5.408916   0.000000
    523          5.432306   0.000000
    524          5.458611   0.000000
    525          5.479022   0.000000
    526          5.500544   0.000000
    527          5.507078   0.000000
    528          5.535404   0.000000
    529          5.570709   0.000000
    530          5.578751   0.000000
    531          5.604210   0.000000
 
 -0.2500000E+00  0.5000000E+00  0.0000000E+00  0.1250000E+00
      1        -57.634915   1.000000
      2        -57.631394   1.000000
      3        -57.589538   1.000000
      4        -57.585287   1.000000
      5        -57.575324   1.000000
      6        -57.572203   1.000000
      7        -57.543798   1.000000
      8        -57.540824   1.000000
      9        -57.525466   1.000000
     10        -57.520741   1.000000
     11        -57.510390   1.000000
     12        -57.508400   1.000000
     13        -57.503530   1.000000
     14        -57.500076   1.000000
     15        -57.497241   1.000000
     16        -57.492921   1.000000
     17        -57.489787   1.000000
     18        -57.483354   1.000000
     19        -57.458949   1.000000
     20        -57.444115   1.000000
     21        -57.436260   1.000000
     22        -57.405509   1.000000
     23        -57.398523   1.000000
     24        -57.392286   1.000000
     25        -57.390101   1.000000
     26        -57.388161   1.000000
     27        -57.385459   1.000000
     28        -57.382979   1.000000
     29        -57.381870   1.000000
     30        -57.380565   1.000000
     31        -57.378994   1.000000
     32        -57.376620   1.000000
     33        -57.372103   1.000000
     34        -57.370321   1.000000
     35        -57.366701   1.000000
     36        -57.364136   1.000000
     37        -57.362585   1.000000
     38        -57.357275   1.000000
     39        -57.347696   1.000000
     40        -57.339379   1.000000
     41        -57.336544   1.000000
     42        -57.329094   1.000000
     43        -57.324993   1.000000
     44        -57.305878   1.000000
     45        -57.301863   1.000000
     46        -57.253631   1.000000
     47        -57.242429   1.000000
     48        -57.184226   1.000000
     49        -57.184083   1.000000
     50        -57.180039   1.000000
     51        -57.177044   1.000000
     52        -57.175121   1.000000
     53        -57.170368   1.000000
     54        -57.168482   1.000000
     55        -57.166439   1.000000
     56        -57.163756   1.000000
     57        -57.162681   1.000000
     58        -57.160753   1.000000
     59        -57.158730   1.000000
     60        -57.142900   1.000000
     61        -57.131948   1.000000
     62        -51.769335   1.000000
     63        -51.664972   1.000000
     64        -32.281778   1.000000
     65        -32.268655   1.000000
     66        -32.255038   1.000000
     67        -32.238721   1.000000
     68        -32.210119   1.000000
     69        -32.189139   1.000000
     70        -32.179051   1.000000
     71        -32.167312   1.000000
     72        -32.150275   1.000000
     73        -32.133786   1.000000
     74        -32.113372   1.000000
     75        -32.111793   1.000000
     76        -32.101257   1.000000
     77        -32.093552   1.000000
     78        -32.091672   1.000000
     79        -32.083908   1.000000
     80        -32.079072   1.000000
     81        -32.068113   1.000000
     82        -32.055711   1.000000
     83        -32.047962   1.000000
     84        -32.039715   1.000000
     85        -32.033520   1.000000
     86        -32.031501   1.000000
     87        -32.023613   1.000000
     88        -32.016902   1.000000
     89        -32.013112   1.000000
     90        -32.004450   1.000000
     91        -31.996297   1.000000
     92        -31.994071   1.000000
     93        -31.989932   1.000000
     94        -31.982458   1.000000
     95        -31.944427   1.000000
     96        -31.940087   1.000000
     97        -31.928506   1.000000
     98        -31.920246   1.000000
     99        -31.911190   1.000000
    100        -31.903605   1.000000
    101        -31.897740   1.000000
    102        -31.884062   1.000000
    103        -31.871400   1.000000
    104        -31.856003   1.000000
    105        -31.842352   1.000000
    106        -31.835966   1.000000
    107        -31.824202   1.000000
    108        -31.819951   1.000000
    109        -31.811618   1.000000
    110        -31.806610   1.000000
    111        -31.791146   1.000000
    112        -31.784892   1.000000
    113        -31.780528   1.000000
    114        -31.762913   1.000000
    115        -31.751828   1.000000
    116        -31.741556   1.000000
    117        -31.737701   1.000000
    118        -31.721808   1.000000
    119        -31.699129   1.000000
    120        -31.692744   1.000000
    121        -31.691355   1.000000
    122        -31.676458   1.000000
    123        -31.657901   1.000000
    124        -31.650499   1.000000
    125        -31.636832   1.000000
    126        -31.626191   1.000000
    127        -31.623209   1.000000
    128        -31.615447   1.000000
    129        -31.613487   1.000000
    130        -31.602568   1.000000
    131        -31.594459   1.000000
    132        -31.591681   1.000000
    133        -31.585283   1.000000
    134        -31.583904   1.000000
    135        -31.574429   1.000000
    136        -31.568749   1.000000
    137        -31.558041   1.000000
    138        -31.542439   1.000000
    139        -31.532081   1.000000
    140        -31.521326   1.000000
    141        -31.514357   1.000000
    142        -31.504001   1.000000
    143        -31.500349   1.000000
    144        -31.494347   1.000000
    145        -31.482760   1.000000
    146        -31.475267   1.000000
    147        -31.469936   1.000000
    148        -31.468337   1.000000
    149        -31.455130   1.000000
    150        -31.449154   1.000000
    151        -31.443538   1.000000
    152        -31.441197   1.000000
    153        -31.437706   1.000000
    154        -31.429704   1.000000
    155        -31.427599   1.000000
    156        -31.425683   1.000000
    157        -31.417828   1.000000
    158        -31.408953   1.000000
    159        -31.405716   1.000000
    160        -31.401191   1.000000
    161        -31.396759   1.000000
    162        -31.389880   1.000000
    163        -31.382723   1.000000
    164        -31.379973   1.000000
    165        -31.371843   1.000000
    166        -31.369656   1.000000
    167        -31.357901   1.000000
    168        -31.352611   1.000000
    169        -31.342469   1.000000
    170        -31.336338   1.000000
    171        -31.333572   1.000000
    172        -31.322403   1.000000
    173        -31.313406   1.000000
    174        -31.294988   1.000000
    175        -31.292698   1.000000
    176        -31.286772   1.000000
    177        -31.267302   1.000000
    178        -31.259804   1.000000
    179        -31.248872   1.000000
    180        -31.233416   1.000000
    181        -31.229817   1.000000
    182        -31.227890   1.000000
    183        -31.223005   1.000000
    184        -31.216490   1.000000
    185        -31.213804   1.000000
    186        -31.212344   1.000000
    187        -31.204357   1.000000
    188        -31.202555   1.000000
    189        -31.194109   1.000000
    190        -31.185210   1.000000
    191        -31.178013   1.000000
    192        -31.164036   1.000000
    193        -31.160758   1.000000
    194        -31.154280   1.000000
    195        -31.147154   1.000000
    196        -31.142373   1.000000
    197        -31.138360   1.000000
    198        -31.137394   1.000000
    199        -31.132321   1.000000
    200        -31.127276   1.000000
    201        -31.125846   1.000000
    202        -31.122107   1.000000
    203        -31.119375   1.000000
    204        -31.115775   1.000000
    205        -31.112396   1.000000
    206        -31.111305   1.000000
    207        -31.107668   1.000000
    208        -31.106068   1.000000
    209        -31.100738   1.000000
    210        -31.094698   1.000000
    211        -31.086178   1.000000
    212        -31.077818   1.000000
    213        -31.070776   1.000000
    214        -31.064056   1.000000
    215        -31.054115   1.000000
    216        -31.040700   1.000000
    217        -31.030222   1.000000
    218        -31.027134   1.000000
    219        -31.025715   1.000000
    220        -31.021789   1.000000
    221        -31.018161   1.000000
    222        -31.015943   1.000000
    223        -31.008866   1.000000
    224        -31.008340   1.000000
    225        -31.007132   1.000000
    226        -30.996128   1.000000
    227        -30.994811   1.000000
    228        -30.992980   1.000000
    229        -30.990078   1.000000
    230        -30.984002   1.000000
    231        -30.980089   1.000000
    232        -30.977088   1.000000
    233        -30.972870   1.000000
    234        -30.968962   1.000000
    235        -30.965382   1.000000
    236        -30.964703   1.000000
    237        -30.940111   1.000000
    238        -30.935506   1.000000
    239        -30.928088   1.000000
    240        -30.910051   1.000000
    241        -30.900560   1.000000
    242        -30.890001   1.000000
    243        -30.877318   1.000000
    244        -30.846001   1.000000
    245        -30.835782   1.000000
    246        -30.829120   1.000000
    247        -27.985463   1.000000
    248        -27.828341   1.000000
    249        -27.804236   1.000000
    250        -27.786277   1.000000
    251        -27.689521   1.000000
    252        -27.600125   1.000000
    253        -16.212663   1.000000
    254         -2.914363   1.000000
    255         -2.858854   1.000000
    256         -2.609708   1.000000
    257         -2.506618   1.000000
    258         -2.401686   1.000000
    259         -1.670916   1.000000
    260         -1.657999   1.000000
    261         -1.633766   1.000000
    262         -1.600879   1.000000
    263         -1.292184   1.000000
    264         -1.234229   1.000000
    265         -1.196840   1.000000
    266         -1.153601   1.000000
    267         -1.084964   1.000000
    268         -1.062230   1.000000
    269         -0.955500   1.000000
    270         -0.936981   1.000000
    271         -0.930237   1.000000
    272         -0.895001   1.000000
    273         -0.843497   1.000000
    274         -0.826526   1.000000
    275         -0.820034   1.000000
    276         -0.803645   1.000000
    277         -0.752263   1.000000
    278         -0.713574   1.000000
    279         -0.702081   1.000000
    280         -0.663541   1.000000
    281         -0.645458   1.000000
    282         -0.635901   1.000000
    283         -0.631281   1.000000
    284         -0.610528   1.000000
    285         -0.582944   1.000000
    286         -0.557023   1.000000
    287         -0.517957   1.000000
    288         -0.500095   1.000000
    289         -0.418259   1.000000
    290         -0.394640   1.000000
    291         -0.391710   1.000000
    292         -0.381001   1.000000
    293         -0.367941   1.000000
    294         -0.352549   1.000000
    295         -0.295440   1.000000
    296         -0.249866   1.000000
    297         -0.235617   1.000000
    298         -0.218592   1.000000
    299         -0.188105   1.000000
    300         -0.157125   1.000000
    301         -0.151263   1.000000
    302         -0.140141   1.000000
    303         -0.118188   1.000000
    304         -0.090824   1.000000
    305         -0.057162   1.000000
    306         -0.030849   1.000000
    307          0.003366   1.000000
    308          0.062115   1.000000
    309          0.091884   1.000000
    310          0.107603   1.000000
    311          0.123866   1.000000
    312          0.148167   1.000000
    313          0.189084   1.000000
    314          0.203590   1.000000
    315          0.236097   1.000000
    316          0.283414   1.000000
    317          0.318568   1.000000
    318          0.357478   1.000000
    319          0.366868   1.000000
    320          0.384978   1.000000
    321          0.391029   1.000000
    322          0.404703   1.000000
    323          0.411767   1.000000
    324          0.434598   1.000000
    325          0.443569   1.000000
    326          0.473760   1.000000
    327          0.485554   1.000000
    328          0.502833   1.000000
    329          0.509485   1.000000
    330          0.532961   1.000000
    331          0.540398   1.000000
    332          0.559439   1.000000
    333          0.584042   1.000000
    334          0.590876   1.000000
    335          0.620042   1.000000
    336          0.638744   1.000000
    337          0.656856   1.000000
    338          0.685072   1.000000
    339          0.705359   1.000000
    340          0.736292   1.000000
    341          0.749238   1.000000
    342          0.770217   1.000000
    343          0.784365   1.000000
    344          0.796659   1.000000
    345          0.807085   1.000000
    346          0.840320   1.000000
    347          0.890307   1.000000
    348          0.901020   1.000000
    349          0.923253   1.000000
    350          0.930733   1.000000
    351          0.951553   1.000000
    352          0.981795   1.000000
    353          1.007083   1.000000
    354          1.033455   1.000000
    355          1.094126   1.000000
    356          1.122106   1.000000
    357          1.134183   1.000000
    358          1.155083   1.000000
    359          1.182674   1.000000
    360          1.203408   1.000000
    361          1.223504   1.000000
    362          1.240088   1.000000
    363          1.261612   1.000000
    364          1.288735   1.000000
    365          1.325811   1.000000
    366          1.335206   1.000000
    367          1.368561   1.000000
    368          1.414448   1.000000
    369          1.428075   1.000000
    370          1.447643   1.000000
    371          1.512039   1.000000
    372          1.527226   1.000000
    373          1.550458   1.000000
    374          1.561266   1.000000
    375          1.572376   1.000000
    376          1.582941   1.000000
    377          1.594507   1.000000
    378          1.608580   1.000000
    379          1.632228   1.000000
    380          1.659860   1.000000
    381          1.689035   1.000000
    382          1.700177   1.000000
    383          1.726920   1.000000
    384          1.758773   1.000000
    385          1.772280   1.000000
    386          1.803313   1.000000
    387          1.845276   1.000000
    388          1.866385   1.000000
    389          1.890095   1.000000
    390          1.904311   1.000000
    391          1.921538   1.000000
    392          1.940956   1.000000
    393          1.955615   1.000000
    394          1.980234   1.000000
    395          1.994036   1.000000
    396          1.998221   1.000000
    397          2.015954   1.000000
    398          2.030337   1.000000
    399          2.070169   1.000000
    400          2.082506   1.000000
    401          2.141444   1.000000
    402          2.177214   1.000000
    403          2.201559   1.000000
    404          2.250300   1.000000
    405          2.300814   1.000000
    406          2.361593   1.000000
    407          2.419903   1.000000
    408          2.435257   1.000000
    409          2.481096   1.000000
    410          2.536371   1.000000
    411          2.562958   1.000000
    412          2.595451   1.000000
    413          2.642730   1.000000
    414          2.670885   1.000000
    415          2.695526   1.000000
    416          2.736237   1.000000
    417          2.805054   1.000000
    418          2.833130   1.000000
    419          2.879664   1.000000
    420          2.919626   1.000000
    421          2.945781   1.000000
    422          2.974146   1.000000
    423          2.977602   1.000000
    424          3.022978   1.000000
    425          3.045195   1.000000
    426          3.076223   1.000000
    427          3.134045   1.000000
    428          3.137645   1.000000
    429          3.141137   1.000000
    430          3.165263   1.000000
    431          3.201509   1.000000
    432          3.221567   0.999998
    433          3.235696   0.999995
    434          3.273023   0.999948
    435          3.283670   0.999905
    436          3.307335   0.999660
    437          3.343695   0.998032
    438          3.379875   0.991144
    439          3.396320   0.983784
    440          3.408346   0.975522
    441          3.453413   0.908509
    442          3.480519   0.828508
    443          3.525743   0.621233
    444          3.546704   0.504905
    445          3.573887   0.354896
    446          3.625907   0.133974
    447          3.656070   0.062468
    448          3.675112   0.035642
    449          3.709822   0.010880
    450          3.725205   0.006001
    451          3.759832   0.001342
    452          3.815612   0.000075
    453          3.856631   0.000006
    454          3.913491   0.000000
    455          3.996263   0.000000
    456          4.024865   0.000000
    457          4.042272   0.000000
    458          4.083224   0.000000
    459          4.123037   0.000000
    460          4.137958   0.000000
    461          4.160520   0.000000
    462          4.199204   0.000000
    463          4.217881   0.000000
    464          4.282100   0.000000
    465          4.290917   0.000000
    466          4.329706   0.000000
    467          4.365059   0.000000
    468          4.395283   0.000000
    469          4.428131   0.000000
    470          4.474876   0.000000
    471          4.492590   0.000000
    472          4.515952   0.000000
    473          4.572449   0.000000
    474          4.594005   0.000000
    475          4.613802   0.000000
    476          4.637377   0.000000
    477          4.668831   0.000000
    478          4.698848   0.000000
    479          4.713574   0.000000
    480          4.727077   0.000000
    481          4.741777   0.000000
    482          4.755159   0.000000
    483          4.770508   0.000000
    484          4.780025   0.000000
    485          4.797490   0.000000
    486          4.805545   0.000000
    487          4.815292   0.000000
    488          4.829522   0.000000
    489          4.848710   0.000000
    490          4.865997   0.000000
    491          4.881564   0.000000
    492          4.897542   0.000000
    493          4.916003   0.000000
    494          4.927794   0.000000
    495          4.934796   0.000000
    496          4.955122   0.000000
    497          4.979333   0.000000
    498          4.994914   0.000000
    499          5.028626   0.000000
    500          5.058222   0.000000
    501          5.076943   0.000000
    502          5.098855   0.000000
    503          5.116205   0.000000
    504          5.136043   0.000000
    505          5.152741   0.000000
    506          5.160159   0.000000
    507          5.180663   0.000000
    508          5.190376   0.000000
    509          5.204177   0.000000
    510          5.214656   0.000000
    511          5.233796   0.000000
    512          5.244366   0.000000
    513          5.257812   0.000000
    514          5.278255   0.000000
    515          5.292506   0.000000
    516          5.308441   0.000000
    517          5.317726   0.000000
    518          5.331078   0.000000
    519          5.347645   0.000000
    520          5.358165   0.000000
    521          5.382407   0.000000
    522          5.408903   0.000000
    523          5.432277   0.000000
    524          5.458639   0.000000
    525          5.479094   0.000000
    526          5.500614   0.000000
    527          5.507322   0.000000
    528          5.535926   0.000000
    529          5.573851   0.000000
    530          5.581016   0.000000
    531          5.606061   0.000000
 
  0.5000000E+00  0.5000000E+00  0.0000000E+00  0.6250000E-01
      1        -57.621777   1.000000
      2        -57.615528   1.000000
      3        -57.610328   1.000000
      4        -57.610216   1.000000
      5        -57.568934   1.000000
      6        -57.562453   1.000000
      7        -57.557931   1.000000
      8        -57.555437   1.000000
      9        -57.516732   1.000000
     10        -57.507294   1.000000
     11        -57.507191   1.000000
     12        -57.504245   1.000000
     13        -57.501177   1.000000
     14        -57.496294   1.000000
     15        -57.495579   1.000000
     16        -57.491290   1.000000
     17        -57.489615   1.000000
     18        -57.482139   1.000000
     19        -57.460119   1.000000
     20        -57.439803   1.000000
     21        -57.439587   1.000000
     22        -57.409589   1.000000
     23        -57.399252   1.000000
     24        -57.392008   1.000000
     25        -57.390763   1.000000
     26        -57.387187   1.000000
     27        -57.385951   1.000000
     28        -57.385852   1.000000
     29        -57.384837   1.000000
     30        -57.383551   1.000000
     31        -57.380782   1.000000
     32        -57.376479   1.000000
     33        -57.371577   1.000000
     34        -57.371434   1.000000
     35        -57.368852   1.000000
     36        -57.367974   1.000000
     37        -57.364938   1.000000
     38        -57.356737   1.000000
     39        -57.345910   1.000000
     40        -57.338966   1.000000
     41        -57.335323   1.000000
     42        -57.317989   1.000000
     43        -57.313879   1.000000
     44        -57.312022   1.000000
     45        -57.307613   1.000000
     46        -57.255820   1.000000
     47        -57.241013   1.000000
     48        -57.186800   1.000000
     49        -57.183381   1.000000
     50        -57.179875   1.000000
     51        -57.178425   1.000000
     52        -57.178270   1.000000
     53        -57.167471   1.000000
     54        -57.165197   1.000000
     55        -57.164778   1.000000
     56        -57.164622   1.000000
     57        -57.163218   1.000000
     58        -57.161064   1.000000
     59        -57.158698   1.000000
     60        -57.139615   1.000000
     61        -57.135383   1.000000
     62        -51.769335   1.000000
     63        -51.664972   1.000000
     64        -32.294701   1.000000
     65        -32.270579   1.000000
     66        -32.256059   1.000000
     67        -32.235042   1.000000
     68        -32.204684   1.000000
     69        -32.204215   1.000000
     70        -32.183141   1.000000
     71        -32.181979   1.000000
     72        -32.167196   1.000000
     73        -32.159394   1.000000
     74        -32.145527   1.000000
     75        -32.116120   1.000000
     76        -32.103320   1.000000
     77        -32.102476   1.000000
     78        -32.084634   1.000000
     79        -32.082482   1.000000
     80        -32.058934   1.000000
     81        -32.052728   1.000000
     82        -32.034540   1.000000
     83        -32.028212   1.000000
     84        -32.023555   1.000000
     85        -32.014823   1.000000
     86        -32.008549   1.000000
     87        -32.008021   1.000000
     88        -31.995497   1.000000
     89        -31.989024   1.000000
     90        -31.984472   1.000000
     91        -31.981136   1.000000
     92        -31.972691   1.000000
     93        -31.969250   1.000000
     94        -31.965834   1.000000
     95        -31.956407   1.000000
     96        -31.953602   1.000000
     97        -31.949168   1.000000
     98        -31.939929   1.000000
     99        -31.930911   1.000000
    100        -31.899089   1.000000
    101        -31.898253   1.000000
    102        -31.889381   1.000000
    103        -31.882274   1.000000
    104        -31.851366   1.000000
    105        -31.845260   1.000000
    106        -31.842073   1.000000
    107        -31.834405   1.000000
    108        -31.828886   1.000000
    109        -31.824509   1.000000
    110        -31.819883   1.000000
    111        -31.813474   1.000000
    112        -31.811920   1.000000
    113        -31.799874   1.000000
    114        -31.771371   1.000000
    115        -31.766855   1.000000
    116        -31.761240   1.000000
    117        -31.735437   1.000000
    118        -31.696631   1.000000
    119        -31.695514   1.000000
    120        -31.694682   1.000000
    121        -31.693884   1.000000
    122        -31.681747   1.000000
    123        -31.670227   1.000000
    124        -31.639762   1.000000
    125        -31.636997   1.000000
    126        -31.631004   1.000000
    127        -31.617328   1.000000
    128        -31.608617   1.000000
    129        -31.607686   1.000000
    130        -31.592903   1.000000
    131        -31.576979   1.000000
    132        -31.576468   1.000000
    133        -31.557996   1.000000
    134        -31.549714   1.000000
    135        -31.546547   1.000000
    136        -31.545516   1.000000
    137        -31.541278   1.000000
    138        -31.539810   1.000000
    139        -31.538558   1.000000
    140        -31.535899   1.000000
    141        -31.510303   1.000000
    142        -31.496093   1.000000
    143        -31.488787   1.000000
    144        -31.487217   1.000000
    145        -31.480816   1.000000
    146        -31.471867   1.000000
    147        -31.471851   1.000000
    148        -31.468962   1.000000
    149        -31.459252   1.000000
    150        -31.456421   1.000000
    151        -31.445070   1.000000
    152        -31.442404   1.000000
    153        -31.436050   1.000000
    154        -31.427740   1.000000
    155        -31.424379   1.000000
    156        -31.420032   1.000000
    157        -31.419161   1.000000
    158        -31.418325   1.000000
    159        -31.417969   1.000000
    160        -31.413439   1.000000
    161        -31.410053   1.000000
    162        -31.406453   1.000000
    163        -31.405833   1.000000
    164        -31.397922   1.000000
    165        -31.390840   1.000000
    166        -31.387232   1.000000
    167        -31.378755   1.000000
    168        -31.358607   1.000000
    169        -31.352104   1.000000
    170        -31.341948   1.000000
    171        -31.337892   1.000000
    172        -31.334684   1.000000
    173        -31.327531   1.000000
    174        -31.287845   1.000000
    175        -31.282166   1.000000
    176        -31.268829   1.000000
    177        -31.262623   1.000000
    178        -31.232095   1.000000
    179        -31.226680   1.000000
    180        -31.226222   1.000000
    181        -31.224444   1.000000
    182        -31.223968   1.000000
    183        -31.216073   1.000000
    184        -31.211774   1.000000
    185        -31.209791   1.000000
    186        -31.200217   1.000000
    187        -31.195322   1.000000
    188        -31.189445   1.000000
    189        -31.188431   1.000000
    190        -31.185070   1.000000
    191        -31.180064   1.000000
    192        -31.176998   1.000000
    193        -31.169510   1.000000
    194        -31.157041   1.000000
    195        -31.154912   1.000000
    196        -31.145319   1.000000
    197        -31.143329   1.000000
    198        -31.142790   1.000000
    199        -31.141189   1.000000
    200        -31.137619   1.000000
    201        -31.136902   1.000000
    202        -31.134929   1.000000
    203        -31.126846   1.000000
    204        -31.118992   1.000000
    205        -31.111875   1.000000
    206        -31.111678   1.000000
    207        -31.107515   1.000000
    208        -31.105191   1.000000
    209        -31.091595   1.000000
    210        -31.086748   1.000000
    211        -31.084004   1.000000
    212        -31.081691   1.000000
    213        -31.074534   1.000000
    214        -31.058808   1.000000
    215        -31.049258   1.000000
    216        -31.036380   1.000000
    217        -31.029269   1.000000
    218        -31.027955   1.000000
    219        -31.027304   1.000000
    220        -31.027007   1.000000
    221        -31.016844   1.000000
    222        -31.016201   1.000000
    223        -31.015446   1.000000
    224        -31.013689   1.000000
    225        -31.012713   1.000000
    226        -31.005695   1.000000
    227        -30.984962   1.000000
    228        -30.984201   1.000000
    229        -30.981931   1.000000
    230        -30.981491   1.000000
    231        -30.981252   1.000000
    232        -30.978967   1.000000
    233        -30.967140   1.000000
    234        -30.966452   1.000000
    235        -30.964789   1.000000
    236        -30.963427   1.000000
    237        -30.944233   1.000000
    238        -30.939398   1.000000
    239        -30.930579   1.000000
    240        -30.908492   1.000000
    241        -30.899579   1.000000
    242        -30.891024   1.000000
    243        -30.874246   1.000000
    244        -30.846204   1.000000
    245        -30.831340   1.000000
    246        -30.830163   1.000000
    247        -27.985503   1.000000
    248        -27.828323   1.000000
    249        -27.804255   1.000000
    250        -27.786294   1.000000
    251        -27.689546   1.000000
    252        -27.600148   1.000000
    253        -16.212620   1.000000
    254         -2.905261   1.000000
    255         -2.853824   1.000000
    256         -2.544042   1.000000
    257         -2.158705   1.000000
    258         -2.146870   1.000000
    259         -2.141370   1.000000
    260         -2.081726   1.000000
    261         -1.356078   1.000000
    262         -1.334046   1.000000
    263         -1.329876   1.000000
    264         -1.311034   1.000000
    265         -1.274213   1.000000
    266         -1.214653   1.000000
    267         -0.919614   1.000000
    268         -0.910739   1.000000
    269         -0.898680   1.000000
    270         -0.891929   1.000000
    271         -0.866279   1.000000
    272         -0.859006   1.000000
    273         -0.848553   1.000000
    274         -0.839722   1.000000
    275         -0.775489   1.000000
    276         -0.762813   1.000000
    277         -0.748001   1.000000
    278         -0.737206   1.000000
    279         -0.716828   1.000000
    280         -0.692650   1.000000
    281         -0.672869   1.000000
    282         -0.612476   1.000000
    283         -0.492455   1.000000
    284         -0.473935   1.000000
    285         -0.464817   1.000000
    286         -0.455190   1.000000
    287         -0.451191   1.000000
    288         -0.437798   1.000000
    289         -0.429196   1.000000
    290         -0.414146   1.000000
    291         -0.411256   1.000000
    292         -0.401108   1.000000
    293         -0.399851   1.000000
    294         -0.391720   1.000000
    295         -0.372660   1.000000
    296         -0.334262   1.000000
    297         -0.295255   1.000000
    298         -0.260667   1.000000
    299         -0.243746   1.000000
    300         -0.184702   1.000000
    301         -0.178189   1.000000
    302         -0.176855   1.000000
    303         -0.165128   1.000000
    304         -0.116528   1.000000
    305         -0.088409   1.000000
    306         -0.080187   1.000000
    307         -0.072169   1.000000
    308         -0.028345   1.000000
    309          0.069367   1.000000
    310          0.095205   1.000000
    311          0.112298   1.000000
    312          0.196317   1.000000
    313          0.209925   1.000000
    314          0.282619   1.000000
    315          0.289222   1.000000
    316          0.297137   1.000000
    317          0.306386   1.000000
    318          0.327472   1.000000
    319          0.351097   1.000000
    320          0.360624   1.000000
    321          0.381901   1.000000
    322          0.388947   1.000000
    323          0.415000   1.000000
    324          0.432219   1.000000
    325          0.438113   1.000000
    326          0.443382   1.000000
    327          0.455021   1.000000
    328          0.456591   1.000000
    329          0.476698   1.000000
    330          0.481696   1.000000
    331          0.490683   1.000000
    332          0.493946   1.000000
    333          0.496930   1.000000
    334          0.513678   1.000000
    335          0.516693   1.000000
    336          0.539903   1.000000
    337          0.556830   1.000000
    338          0.583681   1.000000
    339          0.625474   1.000000
    340          0.631165   1.000000
    341          0.711967   1.000000
    342          0.729870   1.000000
    343          0.803969   1.000000
    344          0.820376   1.000000
    345          0.832687   1.000000
    346          0.838963   1.000000
    347          0.839184   1.000000
    348          0.924272   1.000000
    349          0.964170   1.000000
    350          0.974329   1.000000
    351          0.996680   1.000000
    352          0.997012   1.000000
    353          1.010666   1.000000
    354          1.012151   1.000000
    355          1.040236   1.000000
    356          1.080579   1.000000
    357          1.102723   1.000000
    358          1.178303   1.000000
    359          1.179064   1.000000
    360          1.230139   1.000000
    361          1.252253   1.000000
    362          1.255634   1.000000
    363          1.267885   1.000000
    364          1.270914   1.000000
    365          1.294416   1.000000
    366          1.304110   1.000000
    367          1.349558   1.000000
    368          1.365261   1.000000
    369          1.380647   1.000000
    370          1.422312   1.000000
    371          1.448898   1.000000
    372          1.470863   1.000000
    373          1.481458   1.000000
    374          1.529146   1.000000
    375          1.539022   1.000000
    376          1.552293   1.000000
    377          1.563501   1.000000
    378          1.575134   1.000000
    379          1.583805   1.000000
    380          1.585426   1.000000
    381          1.586881   1.000000
    382          1.594873   1.000000
    383          1.602746   1.000000
    384          1.604257   1.000000
    385          1.661116   1.000000
    386          1.744769   1.000000
    387          1.746602   1.000000
    388          1.805752   1.000000
    389          1.811334   1.000000
    390          1.838980   1.000000
    391          1.888904   1.000000
    392          1.891924   1.000000
    393          1.921723   1.000000
    394          1.944653   1.000000
    395          1.944793   1.000000
    396          1.980258   1.000000
    397          2.009083   1.000000
    398          2.043753   1.000000
    399          2.050822   1.000000
    400          2.061032   1.000000
    401          2.070882   1.000000
    402          2.081574   1.000000
    403          2.270453   1.000000
    404          2.315943   1.000000
    405          2.329594   1.000000
    406          2.391050   1.000000
    407          2.428060   1.000000
    408          2.552842   1.000000
    409          2.599076   1.000000
    410          2.627062   1.000000
    411          2.663862   1.000000
    412          2.724049   1.000000
    413          2.792316   1.000000
    414          2.804754   1.000000
    415          2.840955   1.000000
    416          2.852227   1.000000
    417          2.885246   1.000000
    418          2.940958   1.000000
    419          2.966280   1.000000
    420          2.993356   1.000000
    421          3.022146   1.000000
    422          3.042968   1.000000
    423          3.054404   1.000000
    424          3.097321   1.000000
    425          3.097633   1.000000
    426          3.098588   1.000000
    427          3.099216   1.000000
    428          3.106873   1.000000
    429          3.113608   1.000000
    430          3.145571   1.000000
    431          3.146250   1.000000
    432          3.165643   1.000000
    433          3.215221   0.999999
    434          3.233158   0.999996
    435          3.259947   0.999976
    436          3.366697   0.994736
    437          3.396783   0.983517
    438          3.450606   0.914862
    439          3.473355   0.853050
    440          3.554620   0.460310
    441          3.578645   0.330178
    442          3.582403   0.311158
    443          3.616966   0.163208
    444          3.667251   0.045276
    445          3.716434   0.008469
    446          3.717689   0.008069
    447          3.737067   0.003683
    448          3.738298   0.003496
    449          3.760035   0.001329
    450          3.800200   0.000177
    451          3.820821   0.000056
    452          3.828650   0.000035
    453          3.933827   0.000000
    454          3.959768   0.000000
    455          4.020791   0.000000
    456          4.034236   0.000000
    457          4.064343   0.000000
    458          4.082725   0.000000
    459          4.128964   0.000000
    460          4.171964   0.000000
    461          4.244025   0.000000
    462          4.250079   0.000000
    463          4.256972   0.000000
    464          4.263192   0.000000
    465          4.299461   0.000000
    466          4.354456   0.000000
    467          4.356763   0.000000
    468          4.401518   0.000000
    469          4.405927   0.000000
    470          4.415482   0.000000
    471          4.421464   0.000000
    472          4.435065   0.000000
    473          4.460520   0.000000
    474          4.497122   0.000000
    475          4.502219   0.000000
    476          4.514733   0.000000
    477          4.569955   0.000000
    478          4.600286   0.000000
    479          4.607081   0.000000
    480          4.608297   0.000000
    481          4.666157   0.000000
    482          4.672315   0.000000
    483          4.700522   0.000000
    484          4.756773   0.000000
    485          4.757003   0.000000
    486          4.761649   0.000000
    487          4.905579   0.000000
    488          4.930960   0.000000
    489          4.948479   0.000000
    490          4.989738   0.000000
    491          4.990118   0.000000
    492          4.992114   0.000000
    493          5.011324   0.000000
    494          5.017413   0.000000
    495          5.056008   0.000000
    496          5.064254   0.000000
    497          5.069210   0.000000
    498          5.077850   0.000000
    499          5.088354   0.000000
    500          5.099563   0.000000
    501          5.103433   0.000000
    502          5.123656   0.000000
    503          5.125893   0.000000
    504          5.131628   0.000000
    505          5.140045   0.000000
    506          5.160194   0.000000
    507          5.182413   0.000000
    508          5.197508   0.000000
    509          5.204703   0.000000
    510          5.223429   0.000000
    511          5.231753   0.000000
    512          5.241333   0.000000
    513          5.249176   0.000000
    514          5.281882   0.000000
    515          5.306879   0.000000
    516          5.317491   0.000000
    517          5.348392   0.000000
    518          5.348842   0.000000
    519          5.380273   0.000000
    520          5.406457   0.000000
    521          5.408347   0.000000
    522          5.425869   0.000000
    523          5.469408   0.000000
    524          5.477102   0.000000
    525          5.497725   0.000000
    526          5.535360   0.000000
    527          5.560484   0.000000
    528          5.625148   0.000000
    529          5.644929   0.000000
    530          5.691192   0.000000
    531          5.755756   0.000000
