srun: ROUTE: split_hostlist: hl=b03r3n10 tree_width 0
 running on    4 total cores
 distrk:  each k-point on    1 cores,    4 groups
 distr:  one band on    1 cores,    1 groups
 HIP runtime initialized ...    4 DCUs will be used
 Created    4 streams on each DCU
 vasp.6.3.2 27Jun22 (build Mar 15 2023 15:45:48) complex                        
  
 POSCAR found type information on POSCAR MoNbO 
 POSCAR found :  3 types and      64 ions
 Reading from existing POTCAR
 scaLAPACK will be used selectively (only on CPU)
 Reading from existing POTCAR
 LDA part: xc-table for Pade appr. of Perdew
 POSCAR found type information on POSCAR MoNbO 
 POSCAR found :  3 types and      64 ions
 Optimize memory usage for KPAR
 POSCAR, INCAR and KPOINTS ok, starting setup
 FFT: planning ... GRIDC
 FFT: planning ... GRID_SOFT
 FFT: planning ... GRID
 WAVECAR not read
 entering main loop
       N       E                     dE             d eps       ncg     rms          rms(c)
DAV:   1     0.109756174588E+05    0.10976E+05   -0.56404E+05 12860   0.161E+03
DAV:   2    -0.136202598584E+03   -0.11112E+05   -0.10772E+05 11776   0.509E+02
DAV:   3    -0.681669553289E+03   -0.54547E+03   -0.51258E+03 15296   0.110E+02
DAV:   4    -0.717666383802E+03   -0.35997E+02   -0.34476E+02 14896   0.220E+01
DAV:   5    -0.721239056761E+03   -0.35727E+01   -0.34953E+01 20352   0.580E+00    0.103E+02
DAV:   6    -0.720926583231E+03    0.31247E+00   -0.41392E+02 14352   0.288E+01    0.630E+01
DAV:   7    -0.755978030123E+03   -0.35051E+02   -0.88354E+02 13280   0.404E+01    0.529E+01
DAV:   8    -0.673003307091E+03    0.82975E+02   -0.19346E+02 13901   0.225E+01    0.254E+01
DAV:   9    -0.662679589999E+03    0.10324E+02   -0.35137E+01 14080   0.976E+00    0.138E+01
DAV:  10    -0.662089246446E+03    0.59034E+00   -0.62164E+00 15368   0.312E+00    0.107E+01
DAV:  11    -0.661895644641E+03    0.19360E+00   -0.11257E+00 14008   0.212E+00    0.960E+00
DAV:  12    -0.661392198486E+03    0.50345E+00   -0.21121E+00 13632   0.298E+00    0.678E+00
DAV:  13    -0.660800706318E+03    0.59149E+00   -0.23860E+00 13840   0.266E+00    0.379E+00
DAV:  14    -0.660768928278E+03    0.31778E-01   -0.12209E+00 14664   0.252E+00    0.333E+00
DAV:  15    -0.660638030338E+03    0.13090E+00   -0.52984E-01 13920   0.155E+00    0.247E+00
DAV:  16    -0.660546908596E+03    0.91122E-01   -0.20797E-01 14208   0.107E+00    0.153E+00
DAV:  17    -0.660506904223E+03    0.40004E-01   -0.10844E-01 14360   0.721E-01    0.100E+00
DAV:  18    -0.660461938209E+03    0.44966E-01   -0.45723E-02 12656   0.461E-01    0.643E-01
DAV:  19    -0.660413765878E+03    0.48172E-01   -0.42717E-02 14360   0.416E-01    0.776E-01
DAV:  20    -0.660337047744E+03    0.76718E-01   -0.45733E-02 13680   0.404E-01    0.677E-01
DAV:  21    -0.660264805405E+03    0.72242E-01   -0.36373E-02 13848   0.371E-01    0.590E-01
DAV:  22    -0.660232421872E+03    0.32384E-01   -0.19569E-02 14352   0.325E-01    0.511E-01
DAV:  23    -0.660196894139E+03    0.35528E-01   -0.24819E-02 13184   0.289E-01    0.474E-01
DAV:  24    -0.660159586052E+03    0.37308E-01   -0.22217E-02 12856   0.285E-01    0.277E-01
DAV:  25    -0.660161412308E+03   -0.18263E-02   -0.96507E-03 14400   0.210E-01    0.269E-01
DAV:  26    -0.660177375625E+03   -0.15963E-01   -0.10414E-02 13512   0.181E-01    0.264E-01
DAV:  27    -0.660197643332E+03   -0.20268E-01   -0.88530E-03 13400   0.171E-01    0.195E-01
DAV:  28    -0.660211959091E+03   -0.14316E-01   -0.51430E-03 13440   0.124E-01    0.148E-01
DAV:  29    -0.660223787892E+03   -0.11829E-01   -0.36217E-03 13408   0.101E-01    0.855E-02
DAV:  30    -0.660230706616E+03   -0.69187E-02   -0.18184E-03 13632   0.765E-02    0.975E-02
DAV:  31    -0.660235731818E+03   -0.50252E-02   -0.11250E-03 13576   0.588E-02    0.655E-02
DAV:  32    -0.660238793534E+03   -0.30617E-02   -0.54551E-04 13408   0.393E-02    0.345E-02
DAV:  33    -0.660240982929E+03   -0.21894E-02   -0.43823E-04 12928   0.241E-02    0.212E-02
DAV:  34    -0.660241719203E+03   -0.73627E-03   -0.13044E-04 13160   0.155E-02    0.147E-02
DAV:  35    -0.660242316418E+03   -0.59722E-03   -0.84000E-05 11152   0.987E-03    0.102E-02
DAV:  36    -0.660242756683E+03   -0.44026E-03   -0.71563E-05 10696   0.773E-03    0.582E-03
DAV:  37    -0.660242911637E+03   -0.15495E-03   -0.20621E-05 10288   0.463E-03    0.400E-03
DAV:  38    -0.660242975225E+03   -0.63588E-04   -0.48793E-06  8792   0.304E-03    0.227E-03
DAV:  39    -0.660243016326E+03   -0.41101E-04   -0.30813E-06  8320   0.208E-03    0.149E-03
DAV:  40    -0.660243047787E+03   -0.31461E-04   -0.32218E-06  8336   0.153E-03    0.153E-03
DAV:  41    -0.660243060566E+03   -0.12779E-04   -0.12081E-06  8184   0.116E-03    0.147E-03
DAV:  42    -0.660243067679E+03   -0.71133E-05   -0.63962E-07  7864   0.990E-04    0.117E-03
DAV:  43    -0.660243073877E+03   -0.61976E-05   -0.79050E-07  8144   0.913E-04    0.105E-03
DAV:  44    -0.660243077879E+03   -0.40028E-05   -0.49480E-07  7792   0.886E-04    0.918E-04
DAV:  45    -0.660243080883E+03   -0.30032E-05   -0.59456E-07  7912   0.829E-04    0.579E-04
DAV:  46    -0.660243081986E+03   -0.11031E-05   -0.13779E-07  6632   0.636E-04    0.474E-04
DAV:  47    -0.660243083243E+03   -0.12574E-05   -0.23146E-07  7544   0.488E-04    0.234E-04
DAV:  48    -0.660243084244E+03   -0.10012E-05   -0.12343E-07  6800   0.433E-04    0.188E-04
DAV:  49    -0.660243084571E+03   -0.32652E-06   -0.57748E-08  6080   0.324E-04
   1 F= -.66024308E+03 E0= -.66010204E+03  d E =-.282098E+00
 writing wavefunctions
 PROFILE, used timers:     226
