ni3al                                   
           1
     9.498400    0.000000    0.000000
     0.000000    9.498400    0.000000
     0.000000    0.000000   24.502899
   Mo   Nb   O 
    61     2     1
Direct configuration=     1
   0.00000000  0.00000000  0.00000000
   0.02110403  0.97888828  0.38367706
   0.16667000  0.16667000  0.06464000
   0.33333000  0.00000000  0.00000000
   0.31174052  0.01988766  0.38320983
   0.50000000  0.16667000  0.06464000
   0.66667000  0.00000000  0.00000000
   0.66723403  0.00076157  0.38066267
   0.83333000  0.16667000  0.06464000
   0.00000000  0.33333000  0.00000000
   0.16667000  0.50000000  0.06464000
   0.33333000  0.33333000  0.00000000
   0.34384477  0.31180199  0.38297893
   0.50000000  0.50000000  0.06464000
   0.66667000  0.33333000  0.00000000
   0.83333000  0.50000000  0.06464000
   0.00000000  0.66667000  0.00000000
   0.98010031  0.68825201  0.38321031
   0.16667000  0.83333000  0.06464000
   0.33333000  0.66667000  0.00000000
   0.50000000  0.83333000  0.06464000
   0.66667000  0.66667000  0.00000000
   0.68818265  0.65614676  0.38297857
   0.83333000  0.83333000  0.06464000
   0.00000000  0.00000000  0.12928000
   0.16667000  0.16667000  0.19391000
   0.33333000  0.00000000  0.12928000
   0.50000000  0.16667000  0.19391000
   0.66667000  0.00000000  0.12928000
   0.83333000  0.16667000  0.19391000
   0.00000000  0.33333000  0.12928000
   0.16667000  0.50000000  0.19391000
   0.33333000  0.33333000  0.12928000
   0.50000000  0.50000000  0.19391000
   0.66667000  0.33333000  0.12928000
   0.83333000  0.50000000  0.19391000
   0.00000000  0.66667000  0.12928000
   0.16667000  0.83333000  0.19391000
   0.33333000  0.66667000  0.12928000
   0.50000000  0.83333000  0.19391000
   0.66667000  0.66667000  0.12928000
   0.83333000  0.83333000  0.19391000
   0.00000000  0.00000000  0.25855000
   0.16266153  0.16956834  0.32321204
   0.33333000  0.00000000  0.25855000
   0.50176007  0.16419529  0.32373380
   0.66667000  0.00000000  0.25855000
   0.83300381  0.16699753  0.32500219
   0.00000000  0.33333000  0.25855000
   0.16619126  0.49960653  0.32466813
   0.33333000  0.33333000  0.25855000
   0.49905050  0.50094714  0.32067968
   0.66667000  0.33333000  0.25855000
   0.83580311  0.49823948  0.32373369
   0.00000000  0.66667000  0.25855000
   0.16861911  0.83137781  0.32259405
   0.33333000  0.66667000  0.25855000
   0.50039379  0.83380909  0.32466826
   0.66667000  0.66667000  0.25855000
   0.83043100  0.83733674  0.32321177
   0.99925278  0.33278319  0.38066287
   0.65187910  0.34811471  0.38805810
   0.34255817  0.65745176  0.38739091
   0.49445739  0.50556100  0.41060090
