  63  63   0   0
  0.3508955E+02  0.9498400E-09  0.9498400E-09  0.2450290E-08  0.5000000E-15
  1.000000000000000E-004
  CAR 
 ni3al                                   
     16.55603259    -61.26790315  301      3.47469237      1.00000000
    -61.268  0.0000E+00  0.0000E+00  0.0000E+00  0.0000E+00
    -61.008  0.0000E+00  0.0000E+00  0.0000E+00  0.0000E+00
    -60.749  0.0000E+00  0.0000E+00  0.0000E+00  0.0000E+00
    -60.490  0.0000E+00  0.0000E+00  0.0000E+00  0.0000E+00
    -60.230  0.0000E+00  0.0000E+00  0.0000E+00  0.0000E+00
    -59.971  0.0000E+00  0.0000E+00  0.0000E+00  0.0000E+00
    -59.711  0.0000E+00  0.0000E+00  0.0000E+00  0.0000E+00
    -59.452  0.0000E+00  0.0000E+00  0.0000E+00  0.0000E+00
    -59.193  0.0000E+00  0.0000E+00  0.0000E+00  0.0000E+00
    -58.933  0.0000E+00  0.0000E+00  0.0000E+00  0.0000E+00
    -58.674 -0.1140E-40 -0.1140E-40 -0.2958E-41 -0.2958E-41
    -58.414 -0.2464E-22 -0.2464E-22 -0.6391E-23 -0.6391E-23
    -58.155 -0.7318E-10 -0.7318E-10 -0.1898E-10 -0.1898E-10
    -57.896 -0.3027E-03 -0.3027E-03 -0.7854E-04 -0.7854E-04
    -57.636  0.6636E-01  0.6636E-01  0.1714E-01  0.1714E-01
    -57.377  0.4525E+00  0.4525E+00  0.1345E+00  0.1345E+00
    -57.117  0.2559E+00  0.2559E+00  0.2009E+00  0.2009E+00
    -56.858  0.3504E-01  0.3504E-01  0.2100E+00  0.2100E+00
    -56.598 -0.4560E-04 -0.4560E-04  0.2100E+00  0.2100E+00
    -56.339 -0.2014E-12 -0.2015E-12  0.2100E+00  0.2100E+00
    -56.080  0.0000E+00  0.0000E+00  0.2100E+00  0.2100E+00
    -55.820  0.0000E+00  0.0000E+00  0.2100E+00  0.2100E+00
    -55.561  0.0000E+00  0.0000E+00  0.2100E+00  0.2100E+00
    -55.301  0.0000E+00  0.0000E+00  0.2100E+00  0.2100E+00
    -55.042  0.0000E+00  0.0000E+00  0.2100E+00  0.2100E+00
    -54.783  0.0000E+00  0.0000E+00  0.2100E+00  0.2100E+00
    -54.523  0.0000E+00  0.0000E+00  0.2100E+00  0.2100E+00
    -54.264  0.0000E+00  0.0000E+00  0.2100E+00  0.2100E+00
    -54.004  0.0000E+00  0.0000E+00  0.2100E+00  0.2100E+00
    -53.745  0.0000E+00  0.0000E+00  0.2100E+00  0.2100E+00
    -53.486  0.0000E+00  0.0000E+00  0.2100E+00  0.2100E+00
    -53.226  0.0000E+00  0.0000E+00  0.2100E+00  0.2100E+00
    -52.967  0.0000E+00  0.0000E+00  0.2100E+00  0.2100E+00
    -52.707  0.0000E+00  0.0000E+00  0.2100E+00  0.2100E+00
    -52.448  0.0000E+00  0.0000E+00  0.2100E+00  0.2100E+00
    -52.188  0.0000E+00  0.0000E+00  0.2100E+00  0.2100E+00
    -51.929  0.0000E+00  0.0000E+00  0.2100E+00  0.2100E+00
    -51.670  0.0000E+00  0.0000E+00  0.2100E+00  0.2100E+00
    -51.410  0.0000E+00  0.0000E+00  0.2100E+00  0.2100E+00
    -51.151  0.0000E+00  0.0000E+00  0.2100E+00  0.2100E+00
    -50.891  0.0000E+00  0.0000E+00  0.2100E+00  0.2100E+00
    -50.632  0.0000E+00  0.0000E+00  0.2100E+00  0.2100E+00
    -50.373  0.0000E+00  0.0000E+00  0.2100E+00  0.2100E+00
    -50.113  0.0000E+00  0.0000E+00  0.2100E+00  0.2100E+00
    -49.854  0.0000E+00  0.0000E+00  0.2100E+00  0.2100E+00
    -49.594  0.0000E+00  0.0000E+00  0.2100E+00  0.2100E+00
    -49.335  0.0000E+00  0.0000E+00  0.2100E+00  0.2100E+00
    -49.075  0.0000E+00  0.0000E+00  0.2100E+00  0.2100E+00
    -48.816  0.0000E+00  0.0000E+00  0.2100E+00  0.2100E+00
    -48.557  0.0000E+00  0.0000E+00  0.2100E+00  0.2100E+00
    -48.297  0.0000E+00  0.0000E+00  0.2100E+00  0.2100E+00
    -48.038  0.0000E+00  0.0000E+00  0.2100E+00  0.2100E+00
    -47.778  0.0000E+00  0.0000E+00  0.2100E+00  0.2100E+00
    -47.519  0.0000E+00  0.0000E+00  0.2100E+00  0.2100E+00
    -47.260  0.0000E+00  0.0000E+00  0.2100E+00  0.2100E+00
    -47.000  0.0000E+00  0.0000E+00  0.2100E+00  0.2100E+00
    -46.741  0.0000E+00  0.0000E+00  0.2100E+00  0.2100E+00
    -46.481  0.0000E+00  0.0000E+00  0.2100E+00  0.2100E+00
    -46.222  0.0000E+00  0.0000E+00  0.2100E+00  0.2100E+00
    -45.963  0.0000E+00  0.0000E+00  0.2100E+00  0.2100E+00
    -45.703  0.0000E+00  0.0000E+00  0.2100E+00  0.2100E+00
    -45.444  0.0000E+00  0.0000E+00  0.2100E+00  0.2100E+00
    -45.184  0.0000E+00  0.0000E+00  0.2100E+00  0.2100E+00
    -44.925  0.0000E+00  0.0000E+00  0.2100E+00  0.2100E+00
    -44.665  0.0000E+00  0.0000E+00  0.2100E+00  0.2100E+00
    -44.406  0.0000E+00  0.0000E+00  0.2100E+00  0.2100E+00
    -44.147  0.0000E+00  0.0000E+00  0.2100E+00  0.2100E+00
    -43.887  0.0000E+00  0.0000E+00  0.2100E+00  0.2100E+00
    -43.628  0.0000E+00  0.0000E+00  0.2100E+00  0.2100E+00
    -43.368  0.0000E+00  0.0000E+00  0.2100E+00  0.2100E+00
    -43.109  0.0000E+00  0.0000E+00  0.2100E+00  0.2100E+00
    -42.850  0.0000E+00  0.0000E+00  0.2100E+00  0.2100E+00
    -42.590  0.0000E+00  0.0000E+00  0.2100E+00  0.2100E+00
    -42.331  0.0000E+00  0.0000E+00  0.2100E+00  0.2100E+00
    -42.071  0.0000E+00  0.0000E+00  0.2100E+00  0.2100E+00
    -41.812  0.0000E+00  0.0000E+00  0.2100E+00  0.2100E+00
    -41.553  0.0000E+00  0.0000E+00  0.2100E+00  0.2100E+00
    -41.293  0.0000E+00  0.0000E+00  0.2100E+00  0.2100E+00
    -41.034  0.0000E+00  0.0000E+00  0.2100E+00  0.2100E+00
    -40.774  0.0000E+00  0.0000E+00  0.2100E+00  0.2100E+00
    -40.515  0.0000E+00  0.0000E+00  0.2100E+00  0.2100E+00
    -40.255  0.0000E+00  0.0000E+00  0.2100E+00  0.2100E+00
    -39.996  0.0000E+00  0.0000E+00  0.2100E+00  0.2100E+00
    -39.737  0.0000E+00  0.0000E+00  0.2100E+00  0.2100E+00
    -39.477  0.0000E+00  0.0000E+00  0.2100E+00  0.2100E+00
    -39.218  0.0000E+00  0.0000E+00  0.2100E+00  0.2100E+00
    -38.958  0.0000E+00  0.0000E+00  0.2100E+00  0.2100E+00
    -38.699  0.0000E+00  0.0000E+00  0.2100E+00  0.2100E+00
    -38.440  0.0000E+00  0.0000E+00  0.2100E+00  0.2100E+00
    -38.180  0.0000E+00  0.0000E+00  0.2100E+00  0.2100E+00
    -37.921  0.0000E+00  0.0000E+00  0.2100E+00  0.2100E+00
    -37.661  0.0000E+00  0.0000E+00  0.2100E+00  0.2100E+00
    -37.402  0.0000E+00  0.0000E+00  0.2100E+00  0.2100E+00
    -37.142  0.0000E+00  0.0000E+00  0.2100E+00  0.2100E+00
    -36.883  0.0000E+00  0.0000E+00  0.2100E+00  0.2100E+00
    -36.624  0.0000E+00  0.0000E+00  0.2100E+00  0.2100E+00
    -36.364  0.0000E+00  0.0000E+00  0.2100E+00  0.2100E+00
    -36.105  0.0000E+00  0.0000E+00  0.2100E+00  0.2100E+00
    -35.845  0.0000E+00  0.0000E+00  0.2100E+00  0.2100E+00
    -35.586  0.0000E+00  0.0000E+00  0.2100E+00  0.2100E+00
    -35.327  0.0000E+00  0.0000E+00  0.2100E+00  0.2100E+00
    -35.067  0.0000E+00  0.0000E+00  0.2100E+00  0.2100E+00
    -34.808  0.0000E+00  0.0000E+00  0.2100E+00  0.2100E+00
    -34.548  0.0000E+00  0.0000E+00  0.2100E+00  0.2100E+00
    -34.289  0.0000E+00  0.0000E+00  0.2100E+00  0.2100E+00
    -34.030  0.0000E+00  0.0000E+00  0.2100E+00  0.2100E+00
    -33.770  0.0000E+00  0.0000E+00  0.2100E+00  0.2100E+00
    -33.511  0.0000E+00  0.0000E+00  0.2100E+00  0.2100E+00
    -33.251 -0.6798E-39 -0.6797E-39  0.2100E+00  0.2100E+00
    -32.992 -0.4635E-21 -0.4635E-21  0.2100E+00  0.2100E+00
    -32.732 -0.4825E-09 -0.4825E-09  0.2100E+00  0.2100E+00
    -32.473 -0.7283E-03 -0.7283E-03  0.2098E+00  0.2098E+00
    -32.214  0.8528E-01  0.8528E-01  0.2319E+00  0.2319E+00
    -31.954  0.3964E+00  0.3964E+00  0.3348E+00  0.3348E+00
    -31.695  0.3499E+00  0.3499E+00  0.4255E+00  0.4255E+00
    -31.435  0.4686E+00  0.4686E+00  0.5471E+00  0.5471E+00
    -31.176  0.5069E+00  0.5069E+00  0.6786E+00  0.6786E+00
    -30.917  0.5369E+00  0.5369E+00  0.8179E+00  0.8179E+00
    -30.657  0.8549E-01  0.8549E-01  0.8400E+00  0.8400E+00
    -30.398 -0.1766E-03 -0.1766E-03  0.8400E+00  0.8400E+00
    -30.138 -0.2495E-11 -0.2496E-11  0.8400E+00  0.8400E+00
    -29.879  0.0000E+00  0.0000E+00  0.8400E+00  0.8400E+00
    -29.620  0.0000E+00  0.0000E+00  0.8400E+00  0.8400E+00
    -29.360  0.0000E+00  0.0000E+00  0.8400E+00  0.8400E+00
    -29.101  0.0000E+00  0.0000E+00  0.8400E+00  0.8400E+00
    -28.841  0.0000E+00  0.0000E+00  0.8400E+00  0.8400E+00
    -28.582  0.0000E+00  0.0000E+00  0.8400E+00  0.8400E+00
    -28.322  0.0000E+00  0.0000E+00  0.8400E+00  0.8400E+00
    -28.063  0.0000E+00  0.0000E+00  0.8400E+00  0.8400E+00
    -27.804  0.0000E+00  0.0000E+00  0.8400E+00  0.8400E+00
    -27.544  0.0000E+00  0.0000E+00  0.8400E+00  0.8400E+00
    -27.285  0.0000E+00  0.0000E+00  0.8400E+00  0.8400E+00
    -27.025  0.0000E+00  0.0000E+00  0.8400E+00  0.8400E+00
    -26.766  0.0000E+00  0.0000E+00  0.8400E+00  0.8400E+00
    -26.507  0.0000E+00  0.0000E+00  0.8400E+00  0.8400E+00
    -26.247  0.0000E+00  0.0000E+00  0.8400E+00  0.8400E+00
    -25.988  0.0000E+00  0.0000E+00  0.8400E+00  0.8400E+00
    -25.728  0.0000E+00  0.0000E+00  0.8400E+00  0.8400E+00
    -25.469  0.0000E+00  0.0000E+00  0.8400E+00  0.8400E+00
    -25.209  0.0000E+00  0.0000E+00  0.8400E+00  0.8400E+00
    -24.950  0.0000E+00  0.0000E+00  0.8400E+00  0.8400E+00
    -24.691  0.0000E+00  0.0000E+00  0.8400E+00  0.8400E+00
    -24.431  0.0000E+00  0.0000E+00  0.8400E+00  0.8400E+00
    -24.172  0.0000E+00  0.0000E+00  0.8400E+00  0.8400E+00
    -23.912  0.0000E+00  0.0000E+00  0.8400E+00  0.8400E+00
    -23.653  0.0000E+00  0.0000E+00  0.8400E+00  0.8400E+00
    -23.394  0.0000E+00  0.0000E+00  0.8400E+00  0.8400E+00
    -23.134  0.0000E+00  0.0000E+00  0.8400E+00  0.8400E+00
    -22.875  0.0000E+00  0.0000E+00  0.8400E+00  0.8400E+00
    -22.615  0.0000E+00  0.0000E+00  0.8400E+00  0.8400E+00
    -22.356  0.0000E+00  0.0000E+00  0.8400E+00  0.8400E+00
    -22.097  0.0000E+00  0.0000E+00  0.8400E+00  0.8400E+00
    -21.837  0.0000E+00  0.0000E+00  0.8400E+00  0.8400E+00
    -21.578  0.0000E+00  0.0000E+00  0.8400E+00  0.8400E+00
    -21.318  0.0000E+00  0.0000E+00  0.8400E+00  0.8400E+00
    -21.059  0.0000E+00  0.0000E+00  0.8400E+00  0.8400E+00
    -20.799  0.0000E+00  0.0000E+00  0.8400E+00  0.8400E+00
    -20.540  0.0000E+00  0.0000E+00  0.8400E+00  0.8400E+00
    -20.281  0.0000E+00  0.0000E+00  0.8400E+00  0.8400E+00
    -20.021  0.0000E+00  0.0000E+00  0.8400E+00  0.8400E+00
    -19.762  0.0000E+00  0.0000E+00  0.8400E+00  0.8400E+00
    -19.502  0.0000E+00  0.0000E+00  0.8400E+00  0.8400E+00
    -19.243  0.0000E+00  0.0000E+00  0.8400E+00  0.8400E+00
    -18.984  0.0000E+00  0.0000E+00  0.8400E+00  0.8400E+00
    -18.724  0.0000E+00  0.0000E+00  0.8400E+00  0.8400E+00
    -18.465  0.0000E+00  0.0000E+00  0.8400E+00  0.8400E+00
    -18.205  0.0000E+00  0.0000E+00  0.8400E+00  0.8400E+00
    -17.946  0.0000E+00  0.0000E+00  0.8400E+00  0.8400E+00
    -17.686  0.0000E+00  0.0000E+00  0.8400E+00  0.8400E+00
    -17.427  0.0000E+00  0.0000E+00  0.8400E+00  0.8400E+00
    -17.168  0.0000E+00  0.0000E+00  0.8400E+00  0.8400E+00
    -16.908  0.0000E+00  0.0000E+00  0.8400E+00  0.8400E+00
    -16.649  0.0000E+00  0.0000E+00  0.8400E+00  0.8400E+00
    -16.389  0.0000E+00  0.0000E+00  0.8400E+00  0.8400E+00
    -16.130  0.0000E+00  0.0000E+00  0.8400E+00  0.8400E+00
    -15.871  0.0000E+00  0.0000E+00  0.8400E+00  0.8400E+00
    -15.611  0.0000E+00  0.0000E+00  0.8400E+00  0.8400E+00
    -15.352  0.0000E+00  0.0000E+00  0.8400E+00  0.8400E+00
    -15.092  0.0000E+00  0.0000E+00  0.8400E+00  0.8400E+00
    -14.833  0.0000E+00  0.0000E+00  0.8400E+00  0.8400E+00
    -14.574  0.0000E+00  0.0000E+00  0.8400E+00  0.8400E+00
    -14.314  0.0000E+00  0.0000E+00  0.8400E+00  0.8400E+00
    -14.055  0.0000E+00  0.0000E+00  0.8400E+00  0.8400E+00
    -13.795  0.0000E+00  0.0000E+00  0.8400E+00  0.8400E+00
    -13.536  0.0000E+00  0.0000E+00  0.8400E+00  0.8400E+00
    -13.276  0.0000E+00  0.0000E+00  0.8400E+00  0.8400E+00
    -13.017  0.0000E+00  0.0000E+00  0.8400E+00  0.8400E+00
    -12.758  0.0000E+00  0.0000E+00  0.8400E+00  0.8400E+00
    -12.498  0.0000E+00  0.0000E+00  0.8400E+00  0.8400E+00
    -12.239  0.0000E+00  0.0000E+00  0.8400E+00  0.8400E+00
    -11.979  0.0000E+00  0.0000E+00  0.8400E+00  0.8400E+00
    -11.720  0.0000E+00  0.0000E+00  0.8400E+00  0.8400E+00
    -11.461  0.0000E+00  0.0000E+00  0.8400E+00  0.8400E+00
    -11.201  0.0000E+00  0.0000E+00  0.8400E+00  0.8400E+00
    -10.942  0.0000E+00  0.0000E+00  0.8400E+00  0.8400E+00
    -10.682  0.0000E+00  0.0000E+00  0.8400E+00  0.8400E+00
    -10.423  0.0000E+00  0.0000E+00  0.8400E+00  0.8400E+00
    -10.164  0.0000E+00  0.0000E+00  0.8400E+00  0.8400E+00
     -9.904  0.0000E+00  0.0000E+00  0.8400E+00  0.8400E+00
     -9.645  0.0000E+00  0.0000E+00  0.8400E+00  0.8400E+00
     -9.385  0.0000E+00  0.0000E+00  0.8400E+00  0.8400E+00
     -9.126  0.0000E+00  0.0000E+00  0.8400E+00  0.8400E+00
     -8.866  0.0000E+00  0.0000E+00  0.8400E+00  0.8400E+00
     -8.607  0.0000E+00  0.0000E+00  0.8400E+00  0.8400E+00
     -8.348  0.0000E+00  0.0000E+00  0.8400E+00  0.8400E+00
     -8.088  0.0000E+00  0.0000E+00  0.8400E+00  0.8400E+00
     -7.829  0.0000E+00  0.0000E+00  0.8400E+00  0.8400E+00
     -7.569  0.0000E+00  0.0000E+00  0.8400E+00  0.8400E+00
     -7.310  0.0000E+00  0.0000E+00  0.8400E+00  0.8400E+00
     -7.051  0.0000E+00  0.0000E+00  0.8400E+00  0.8400E+00
     -6.791  0.0000E+00  0.0000E+00  0.8400E+00  0.8400E+00
     -6.532  0.0000E+00  0.0000E+00  0.8400E+00  0.8400E+00
     -6.272  0.0000E+00  0.0000E+00  0.8400E+00  0.8400E+00
     -6.013  0.0000E+00  0.0000E+00  0.8400E+00  0.8400E+00
     -5.753  0.0000E+00  0.0000E+00  0.8400E+00  0.8400E+00
     -5.494  0.0000E+00  0.0000E+00  0.8400E+00  0.8400E+00
     -5.235  0.0000E+00  0.0000E+00  0.8400E+00  0.8400E+00
     -4.975  0.0000E+00  0.0000E+00  0.8400E+00  0.8400E+00
     -4.716  0.0000E+00  0.0000E+00  0.8400E+00  0.8400E+00
     -4.456  0.0000E+00  0.0000E+00  0.8400E+00  0.8400E+00
     -4.197 -0.5538E-40 -0.5538E-40  0.8400E+00  0.8400E+00
     -3.938 -0.4355E-22 -0.4355E-22  0.8400E+00  0.8400E+00
     -3.678 -0.3920E-10 -0.3920E-10  0.8400E+00  0.8400E+00
     -3.419 -0.2187E-04 -0.2187E-04  0.8400E+00  0.8400E+00
     -3.159  0.1488E-02  0.1488E-02  0.8404E+00  0.8404E+00
     -2.900  0.5722E-02  0.5722E-02  0.8419E+00  0.8419E+00
     -2.641  0.3737E-02  0.3737E-02  0.8428E+00  0.8428E+00
     -2.381  0.5895E-02  0.5895E-02  0.8444E+00  0.8444E+00
     -2.122  0.8472E-02  0.8472E-02  0.8466E+00  0.8466E+00
     -1.862  0.1373E-01  0.1373E-01  0.8501E+00  0.8501E+00
     -1.603  0.1457E-01  0.1457E-01  0.8539E+00  0.8539E+00
     -1.343  0.4730E-01  0.4730E-01  0.8662E+00  0.8662E+00
     -1.084  0.7245E-01  0.7245E-01  0.8850E+00  0.8850E+00
     -0.825  0.1265E+00  0.1265E+00  0.9178E+00  0.9178E+00
     -0.565  0.9026E-01  0.9026E-01  0.9412E+00  0.9412E+00
     -0.306  0.1220E+00  0.1220E+00  0.9728E+00  0.9728E+00
     -0.046  0.1293E+00  0.1293E+00  0.1006E+01  0.1006E+01
      0.213  0.1229E+00  0.1229E+00  0.1038E+01  0.1038E+01
      0.472  0.1696E+00  0.1696E+00  0.1082E+01  0.1082E+01
      0.732  0.1856E+00  0.1856E+00  0.1130E+01  0.1130E+01
      0.991  0.1498E+00  0.1498E+00  0.1169E+01  0.1169E+01
      1.251  0.1286E+00  0.1286E+00  0.1203E+01  0.1203E+01
      1.510  0.1331E+00  0.1331E+00  0.1237E+01  0.1237E+01
      1.769  0.1353E+00  0.1353E+00  0.1272E+01  0.1272E+01
      2.029  0.1533E+00  0.1533E+00  0.1312E+01  0.1312E+01
      2.288  0.1237E+00  0.1237E+00  0.1344E+01  0.1344E+01
      2.548  0.9063E-01  0.9063E-01  0.1368E+01  0.1368E+01
      2.807  0.7496E-01  0.7496E-01  0.1387E+01  0.1387E+01
      3.067  0.1492E+00  0.1492E+00  0.1426E+01  0.1426E+01
      3.326  0.1086E+00  0.1086E+00  0.1454E+01  0.1454E+01
      3.585  0.1045E+00  0.1045E+00  0.1481E+01  0.1481E+01
      3.845  0.9085E-01  0.9085E-01  0.1505E+01  0.1505E+01
      4.104  0.1182E+00  0.1182E+00  0.1535E+01  0.1535E+01
      4.364  0.1058E+00  0.1058E+00  0.1563E+01  0.1563E+01
      4.623  0.1366E+00  0.1366E+00  0.1598E+01  0.1598E+01
      4.882  0.1768E+00  0.1768E+00  0.1644E+01  0.1644E+01
      5.142  0.1771E+00  0.1771E+00  0.1690E+01  0.1690E+01
      5.401  0.1979E+00  0.1979E+00  0.1741E+01  0.1741E+01
      5.661  0.1614E+00  0.1614E+00  0.1783E+01  0.1783E+01
      5.920  0.1872E+00  0.1872E+00  0.1832E+01  0.1832E+01
      6.180  0.1338E+00  0.1338E+00  0.1866E+01  0.1866E+01
      6.439  0.1307E+00  0.1307E+00  0.1900E+01  0.1900E+01
      6.698  0.7294E-01  0.7294E-01  0.1919E+01  0.1919E+01
      6.958  0.9524E-01  0.9524E-01  0.1944E+01  0.1944E+01
      7.217  0.9970E-01  0.9969E-01  0.1970E+01  0.1970E+01
      7.477  0.6163E-01  0.6163E-01  0.1986E+01  0.1986E+01
      7.736  0.4346E-01  0.4345E-01  0.1997E+01  0.1997E+01
      7.995  0.8104E-01  0.8106E-01  0.2018E+01  0.2018E+01
      8.255  0.3857E-01  0.3855E-01  0.2028E+01  0.2028E+01
      8.514  0.5102E-01  0.5103E-01  0.2041E+01  0.2041E+01
      8.774  0.6979E-01  0.6974E-01  0.2059E+01  0.2059E+01
      9.033  0.3641E-01  0.3644E-01  0.2069E+01  0.2069E+01
      9.292  0.6735E-01  0.6735E-01  0.2086E+01  0.2086E+01
      9.552  0.4159E-01  0.4158E-01  0.2097E+01  0.2097E+01
      9.811  0.5293E-01  0.5291E-01  0.2111E+01  0.2111E+01
     10.071  0.6838E-01  0.6839E-01  0.2129E+01  0.2129E+01
     10.330  0.6059E-01  0.6062E-01  0.2144E+01  0.2144E+01
     10.590  0.3035E-01  0.3032E-01  0.2152E+01  0.2152E+01
     10.849  0.8191E-01  0.8188E-01  0.2174E+01  0.2173E+01
     11.108  0.4203E-01  0.4207E-01  0.2184E+01  0.2184E+01
     11.368  0.6791E-01  0.6789E-01  0.2202E+01  0.2202E+01
     11.627  0.6228E-01  0.6228E-01  0.2218E+01  0.2218E+01
     11.887  0.5538E-01  0.5536E-01  0.2233E+01  0.2233E+01
     12.146  0.6394E-01  0.6399E-01  0.2249E+01  0.2249E+01
     12.405  0.4560E-01  0.4557E-01  0.2261E+01  0.2261E+01
     12.665  0.5141E-01  0.5193E-01  0.2274E+01  0.2274E+01
     12.924  0.4405E-01  0.4644E-01  0.2286E+01  0.2286E+01
     13.184  0.1661E-01  0.1368E-01  0.2290E+01  0.2290E+01
     13.443 -0.1348E-03 -0.7949E-04  0.2290E+01  0.2290E+01
     13.702 -0.3548E-10 -0.9249E-11  0.2290E+01  0.2290E+01
     13.962  0.0000E+00  0.0000E+00  0.2290E+01  0.2290E+01
     14.221  0.0000E+00  0.0000E+00  0.2290E+01  0.2290E+01
     14.481  0.0000E+00  0.0000E+00  0.2290E+01  0.2290E+01
     14.740  0.0000E+00  0.0000E+00  0.2290E+01  0.2290E+01
     15.000  0.0000E+00  0.0000E+00  0.2290E+01  0.2290E+01
     15.259  0.0000E+00  0.0000E+00  0.2290E+01  0.2290E+01
     15.518  0.0000E+00  0.0000E+00  0.2290E+01  0.2290E+01
     15.778  0.0000E+00  0.0000E+00  0.2290E+01  0.2290E+01
     16.037  0.0000E+00  0.0000E+00  0.2290E+01  0.2290E+01
     16.297  0.0000E+00  0.0000E+00  0.2290E+01  0.2290E+01
     16.556  0.0000E+00  0.0000E+00  0.2290E+01  0.2290E+01
