   63   63  300    2
  0.3508955E+02  0.9498400E-09  0.9498400E-09  0.2450290E-08  0.5000000E-15
  1.000000000000000E-004
  CAR 
 ni3al                                   
    882      6    687
 
  0.0000000E+00  0.0000000E+00  0.0000000E+00  0.6250000E-01
      1        -57.730452      -57.730452   1.000000   1.000000
      2        -57.660773      -57.660773   1.000000   1.000000
      3        -57.635505      -57.635505   1.000000   1.000000
      4        -57.635505      -57.635505   1.000000   1.000000
      5        -57.635480      -57.635480   1.000000   1.000000
      6        -57.635471      -57.635471   1.000000   1.000000
      7        -57.596605      -57.596605   1.000000   1.000000
      8        -57.596605      -57.596605   1.000000   1.000000
      9        -57.596597      -57.596597   1.000000   1.000000
     10        -57.596592      -57.596592   1.000000   1.000000
     11        -57.590384      -57.590384   1.000000   1.000000
     12        -57.590360      -57.590360   1.000000   1.000000
     13        -57.590360      -57.590360   1.000000   1.000000
     14        -57.590347      -57.590347   1.000000   1.000000
     15        -57.566416      -57.566416   1.000000   1.000000
     16        -57.566409      -57.566408   1.000000   1.000000
     17        -57.566409      -57.566408   1.000000   1.000000
     18        -57.566406      -57.566406   1.000000   1.000000
     19        -57.499681      -57.499681   1.000000   1.000000
     20        -57.462263      -57.462263   1.000000   1.000000
     21        -57.462249      -57.462249   1.000000   1.000000
     22        -57.462248      -57.462248   1.000000   1.000000
     23        -57.462248      -57.462248   1.000000   1.000000
     24        -57.457124      -57.457124   1.000000   1.000000
     25        -57.450098      -57.450097   1.000000   1.000000
     26        -57.450063      -57.450063   1.000000   1.000000
     27        -57.450063      -57.450063   1.000000   1.000000
     28        -57.450038      -57.450038   1.000000   1.000000
     29        -57.436051      -57.436051   1.000000   1.000000
     30        -57.436051      -57.436051   1.000000   1.000000
     31        -57.436048      -57.436048   1.000000   1.000000
     32        -57.436047      -57.436047   1.000000   1.000000
     33        -57.412696      -57.412696   1.000000   1.000000
     34        -57.412684      -57.412684   1.000000   1.000000
     35        -57.412684      -57.412684   1.000000   1.000000
     36        -57.412669      -57.412669   1.000000   1.000000
     37        -57.407605      -57.407605   1.000000   1.000000
     38        -57.407603      -57.407603   1.000000   1.000000
     39        -57.407603      -57.407603   1.000000   1.000000
     40        -57.407596      -57.407596   1.000000   1.000000
     41        -57.397157      -57.397157   1.000000   1.000000
     42        -57.397155      -57.397155   1.000000   1.000000
     43        -57.397146      -57.397146   1.000000   1.000000
     44        -57.397146      -57.397146   1.000000   1.000000
     45        -57.343305      -57.343305   1.000000   1.000000
     46        -57.252549      -57.252551   1.000000   1.000000
     47        -57.252549      -57.252551   1.000000   1.000000
     48        -57.252281      -57.252283   1.000000   1.000000
     49        -57.252131      -57.252133   1.000000   1.000000
     50        -57.248500      -57.248502   1.000000   1.000000
     51        -57.248056      -57.248058   1.000000   1.000000
     52        -57.248056      -57.248058   1.000000   1.000000
     53        -57.247765      -57.247767   1.000000   1.000000
     54        -57.229898      -57.229899   1.000000   1.000000
     55        -57.144443      -57.144441   1.000000   1.000000
     56        -57.144404      -57.144402   1.000000   1.000000
     57        -57.144404      -57.144402   1.000000   1.000000
     58        -57.144352      -57.144350   1.000000   1.000000
     59        -57.141118      -57.141115   1.000000   1.000000
     60        -57.141101      -57.141099   1.000000   1.000000
     61        -57.141045      -57.141043   1.000000   1.000000
     62        -57.141045      -57.141043   1.000000   1.000000
     63        -57.095375      -57.095373   1.000000   1.000000
     64        -32.253268      -32.253268   1.000000   1.000000
     65        -32.253268      -32.253268   1.000000   1.000000
     66        -32.253256      -32.253256   1.000000   1.000000
     67        -32.253245      -32.253245   1.000000   1.000000
     68        -32.226817      -32.226817   1.000000   1.000000
     69        -32.226817      -32.226817   1.000000   1.000000
     70        -32.226778      -32.226778   1.000000   1.000000
     71        -32.226776      -32.226776   1.000000   1.000000
     72        -32.225387      -32.225387   1.000000   1.000000
     73        -32.225361      -32.225361   1.000000   1.000000
     74        -32.225361      -32.225361   1.000000   1.000000
     75        -32.225324      -32.225324   1.000000   1.000000
     76        -32.098965      -32.098965   1.000000   1.000000
     77        -32.098911      -32.098911   1.000000   1.000000
     78        -32.098911      -32.098911   1.000000   1.000000
     79        -32.098860      -32.098860   1.000000   1.000000
     80        -32.081722      -32.081722   1.000000   1.000000
     81        -32.081705      -32.081705   1.000000   1.000000
     82        -32.081705      -32.081705   1.000000   1.000000
     83        -32.081662      -32.081662   1.000000   1.000000
     84        -32.076824      -32.076824   1.000000   1.000000
     85        -32.076752      -32.076752   1.000000   1.000000
     86        -32.076752      -32.076752   1.000000   1.000000
     87        -32.076682      -32.076682   1.000000   1.000000
     88        -32.075299      -32.075299   1.000000   1.000000
     89        -32.075287      -32.075286   1.000000   1.000000
     90        -32.075285      -32.075284   1.000000   1.000000
     91        -32.075285      -32.075284   1.000000   1.000000
     92        -32.062596      -32.062596   1.000000   1.000000
     93        -32.062579      -32.062579   1.000000   1.000000
     94        -32.062579      -32.062579   1.000000   1.000000
     95        -32.062562      -32.062562   1.000000   1.000000
     96        -32.049261      -32.049261   1.000000   1.000000
     97        -32.049261      -32.049261   1.000000   1.000000
     98        -32.049206      -32.049206   1.000000   1.000000
     99        -32.049197      -32.049197   1.000000   1.000000
    100        -31.971474      -31.971474   1.000000   1.000000
    101        -31.957848      -31.957848   1.000000   1.000000
    102        -31.957758      -31.957758   1.000000   1.000000
    103        -31.957758      -31.957758   1.000000   1.000000
    104        -31.957664      -31.957664   1.000000   1.000000
    105        -31.923243      -31.923243   1.000000   1.000000
    106        -31.923243      -31.923243   1.000000   1.000000
    107        -31.922829      -31.922829   1.000000   1.000000
    108        -31.809680      -31.809680   1.000000   1.000000
    109        -31.809667      -31.809666   1.000000   1.000000
    110        -31.809667      -31.809666   1.000000   1.000000
    111        -31.809623      -31.809623   1.000000   1.000000
    112        -31.806248      -31.806248   1.000000   1.000000
    113        -31.806248      -31.806248   1.000000   1.000000
    114        -31.798625      -31.798625   1.000000   1.000000
    115        -31.798553      -31.798553   1.000000   1.000000
    116        -31.798553      -31.798553   1.000000   1.000000
    117        -31.798465      -31.798465   1.000000   1.000000
    118        -31.793204      -31.793204   1.000000   1.000000
    119        -31.793199      -31.793199   1.000000   1.000000
    120        -31.793199      -31.793199   1.000000   1.000000
    121        -31.793198      -31.793198   1.000000   1.000000
    122        -31.748800      -31.748800   1.000000   1.000000
    123        -31.720701      -31.720701   1.000000   1.000000
    124        -31.720701      -31.720701   1.000000   1.000000
    125        -31.720646      -31.720646   1.000000   1.000000
    126        -31.720631      -31.720631   1.000000   1.000000
    127        -31.708210      -31.708210   1.000000   1.000000
    128        -31.708210      -31.708210   1.000000   1.000000
    129        -31.708138      -31.708138   1.000000   1.000000
    130        -31.708138      -31.708138   1.000000   1.000000
    131        -31.678244      -31.678244   1.000000   1.000000
    132        -31.678197      -31.678198   1.000000   1.000000
    133        -31.678197      -31.678198   1.000000   1.000000
    134        -31.678138      -31.678138   1.000000   1.000000
    135        -31.652698      -31.652698   1.000000   1.000000
    136        -31.635449      -31.635449   1.000000   1.000000
    137        -31.635448      -31.635448   1.000000   1.000000
    138        -31.635399      -31.635399   1.000000   1.000000
    139        -31.635399      -31.635399   1.000000   1.000000
    140        -31.582843      -31.582843   1.000000   1.000000
    141        -31.582843      -31.582843   1.000000   1.000000
    142        -31.580717      -31.580717   1.000000   1.000000
    143        -31.580717      -31.580717   1.000000   1.000000
    144        -31.580630      -31.580630   1.000000   1.000000
    145        -31.580602      -31.580603   1.000000   1.000000
    146        -31.573256      -31.573256   1.000000   1.000000
    147        -31.573254      -31.573254   1.000000   1.000000
    148        -31.573254      -31.573254   1.000000   1.000000
    149        -31.573214      -31.573214   1.000000   1.000000
    150        -31.520772      -31.520773   1.000000   1.000000
    151        -31.520768      -31.520768   1.000000   1.000000
    152        -31.520720      -31.520720   1.000000   1.000000
    153        -31.520720      -31.520720   1.000000   1.000000
    154        -31.477724      -31.477723   1.000000   1.000000
    155        -31.477721      -31.477721   1.000000   1.000000
    156        -31.477664      -31.477664   1.000000   1.000000
    157        -31.477664      -31.477664   1.000000   1.000000
    158        -31.424434      -31.424435   1.000000   1.000000
    159        -31.424185      -31.424187   1.000000   1.000000
    160        -31.424185      -31.424187   1.000000   1.000000
    161        -31.423994      -31.423995   1.000000   1.000000
    162        -31.416971      -31.416971   1.000000   1.000000
    163        -31.416969      -31.416969   1.000000   1.000000
    164        -31.416943      -31.416943   1.000000   1.000000
    165        -31.416943      -31.416943   1.000000   1.000000
    166        -31.414984      -31.414984   1.000000   1.000000
    167        -31.414984      -31.414984   1.000000   1.000000
    168        -31.404500      -31.404500   1.000000   1.000000
    169        -31.376545      -31.376544   1.000000   1.000000
    170        -31.376528      -31.376527   1.000000   1.000000
    171        -31.376528      -31.376527   1.000000   1.000000
    172        -31.376513      -31.376512   1.000000   1.000000
    173        -31.350769      -31.350768   1.000000   1.000000
    174        -31.350766      -31.350766   1.000000   1.000000
    175        -31.350765      -31.350765   1.000000   1.000000
    176        -31.350765      -31.350765   1.000000   1.000000
    177        -31.310001      -31.310001   1.000000   1.000000
    178        -31.309962      -31.309961   1.000000   1.000000
    179        -31.309962      -31.309961   1.000000   1.000000
    180        -31.309922      -31.309922   1.000000   1.000000
    181        -31.291042      -31.291042   1.000000   1.000000
    182        -31.291042      -31.291042   1.000000   1.000000
    183        -31.291019      -31.291019   1.000000   1.000000
    184        -31.291018      -31.291018   1.000000   1.000000
    185        -31.269128      -31.269128   1.000000   1.000000
    186        -31.269128      -31.269128   1.000000   1.000000
    187        -31.269081      -31.269082   1.000000   1.000000
    188        -31.269051      -31.269052   1.000000   1.000000
    189        -31.248881      -31.248881   1.000000   1.000000
    190        -31.248881      -31.248881   1.000000   1.000000
    191        -31.248879      -31.248879   1.000000   1.000000
    192        -31.248852      -31.248852   1.000000   1.000000
    193        -31.240261      -31.240261   1.000000   1.000000
    194        -31.240255      -31.240255   1.000000   1.000000
    195        -31.240255      -31.240255   1.000000   1.000000
    196        -31.240251      -31.240251   1.000000   1.000000
    197        -31.227886      -31.227886   1.000000   1.000000
    198        -31.227886      -31.227886   1.000000   1.000000
    199        -31.227860      -31.227860   1.000000   1.000000
    200        -31.227847      -31.227847   1.000000   1.000000
    201        -31.205009      -31.205008   1.000000   1.000000
    202        -31.204992      -31.204992   1.000000   1.000000
    203        -31.204992      -31.204992   1.000000   1.000000
    204        -31.204971      -31.204970   1.000000   1.000000
    205        -31.175931      -31.175931   1.000000   1.000000
    206        -31.162045      -31.162046   1.000000   1.000000
    207        -31.162045      -31.162046   1.000000   1.000000
    208        -31.132505      -31.132507   1.000000   1.000000
    209        -31.132503      -31.132505   1.000000   1.000000
    210        -31.132229      -31.132231   1.000000   1.000000
    211        -31.132229      -31.132231   1.000000   1.000000
    212        -31.118939      -31.118940   1.000000   1.000000
    213        -31.118939      -31.118940   1.000000   1.000000
    214        -31.118932      -31.118933   1.000000   1.000000
    215        -31.118894      -31.118895   1.000000   1.000000
    216        -31.115654      -31.115655   1.000000   1.000000
    217        -31.115654      -31.115655   1.000000   1.000000
    218        -31.115588      -31.115588   1.000000   1.000000
    219        -31.115568      -31.115568   1.000000   1.000000
    220        -31.073876      -31.073877   1.000000   1.000000
    221        -31.073876      -31.073877   1.000000   1.000000
    222        -31.073859      -31.073859   1.000000   1.000000
    223        -31.073843      -31.073843   1.000000   1.000000
    224        -31.051358      -31.051358   1.000000   1.000000
    225        -31.047770      -31.047771   1.000000   1.000000
    226        -31.047767      -31.047767   1.000000   1.000000
    227        -31.047643      -31.047643   1.000000   1.000000
    228        -31.047643      -31.047643   1.000000   1.000000
    229        -31.035409      -31.035407   1.000000   1.000000
    230        -31.035409      -31.035407   1.000000   1.000000
    231        -31.035290      -31.035288   1.000000   1.000000
    232        -31.035288      -31.035286   1.000000   1.000000
    233        -31.022451      -31.022452   1.000000   1.000000
    234        -31.022451      -31.022452   1.000000   1.000000
    235        -31.022298      -31.022297   1.000000   1.000000
    236        -31.022298      -31.022297   1.000000   1.000000
    237        -31.022290      -31.022289   1.000000   1.000000
    238        -31.022273      -31.022272   1.000000   1.000000
    239        -30.943416      -30.943414   1.000000   1.000000
    240        -30.943362      -30.943360   1.000000   1.000000
    241        -30.943362      -30.943360   1.000000   1.000000
    242        -30.943325      -30.943323   1.000000   1.000000
    243        -30.915395      -30.915394   1.000000   1.000000
    244        -30.915395      -30.915394   1.000000   1.000000
    245        -30.915358      -30.915357   1.000000   1.000000
    246        -30.915354      -30.915353   1.000000   1.000000
    247        -30.908044      -30.908043   1.000000   1.000000
    248        -30.908023      -30.908022   1.000000   1.000000
    249        -30.908011      -30.908010   1.000000   1.000000
    250        -30.908011      -30.908010   1.000000   1.000000
    251        -30.871844      -30.871842   1.000000   1.000000
    252        -30.871844      -30.871842   1.000000   1.000000
    253         -3.266791       -3.266791   1.000000   1.000000
    254         -2.298869       -2.298868   1.000000   1.000000
    255         -1.623695       -1.623695   1.000000   1.000000
    256         -1.461483       -1.461483   1.000000   1.000000
    257         -1.454952       -1.454952   1.000000   1.000000
    258         -1.454952       -1.454952   1.000000   1.000000
    259         -1.454908       -1.454908   1.000000   1.000000
    260         -1.454905       -1.454905   1.000000   1.000000
    261         -1.384552       -1.384552   1.000000   1.000000
    262         -1.384552       -1.384552   1.000000   1.000000
    263         -1.384502       -1.384502   1.000000   1.000000
    264         -1.384502       -1.384502   1.000000   1.000000
    265         -1.237385       -1.237385   1.000000   1.000000
    266         -1.237385       -1.237385   1.000000   1.000000
    267         -1.237338       -1.237338   1.000000   1.000000
    268         -1.237336       -1.237336   1.000000   1.000000
    269         -1.105752       -1.105752   1.000000   1.000000
    270         -1.043323       -1.043323   1.000000   1.000000
    271         -1.043297       -1.043296   1.000000   1.000000
    272         -1.043297       -1.043296   1.000000   1.000000
    273         -1.043277       -1.043277   1.000000   1.000000
    274         -1.021025       -1.021025   1.000000   1.000000
    275         -0.907754       -0.907754   1.000000   1.000000
    276         -0.907754       -0.907754   1.000000   1.000000
    277         -0.907671       -0.907671   1.000000   1.000000
    278         -0.907665       -0.907665   1.000000   1.000000
    279         -0.678233       -0.678233   1.000000   1.000000
    280         -0.612544       -0.612544   1.000000   1.000000
    281         -0.612440       -0.612440   1.000000   1.000000
    282         -0.612440       -0.612440   1.000000   1.000000
    283         -0.612343       -0.612343   1.000000   1.000000
    284         -0.569159       -0.569159   1.000000   1.000000
    285         -0.569159       -0.569159   1.000000   1.000000
    286         -0.568971       -0.568971   1.000000   1.000000
    287         -0.568968       -0.568968   1.000000   1.000000
    288         -0.211603       -0.211602   1.000000   1.000000
    289         -0.211603       -0.211602   1.000000   1.000000
    290         -0.211498       -0.211496   1.000000   1.000000
    291         -0.211472       -0.211470   1.000000   1.000000
    292         -0.199820       -0.199820   1.000000   1.000000
    293         -0.199748       -0.199748   1.000000   1.000000
    294         -0.199748       -0.199748   1.000000   1.000000
    295         -0.199688       -0.199688   1.000000   1.000000
    296         -0.110132       -0.110132   1.000000   1.000000
    297         -0.063308       -0.063308   1.000000   1.000000
    298         -0.063237       -0.063237   1.000000   1.000000
    299         -0.063237       -0.063237   1.000000   1.000000
    300         -0.063148       -0.063148   1.000000   1.000000
    301         -0.009044       -0.009044   1.000000   1.000000
    302         -0.008992       -0.008992   1.000000   1.000000
    303         -0.008992       -0.008992   1.000000   1.000000
    304         -0.008944       -0.008944   1.000000   1.000000
    305          0.017080        0.017080   1.000000   1.000000
    306          0.021515        0.021515   1.000000   1.000000
    307          0.021515        0.021515   1.000000   1.000000
    308          0.021675        0.021675   1.000000   1.000000
    309          0.021678        0.021678   1.000000   1.000000
    310          0.073933        0.073932   1.000000   1.000000
    311          0.073933        0.073932   1.000000   1.000000
    312          0.074139        0.074138   1.000000   1.000000
    313          0.074144        0.074143   1.000000   1.000000
    314          0.161844        0.161845   1.000000   1.000000
    315          0.407613        0.407613   1.000000   1.000000
    316          0.407693        0.407694   1.000000   1.000000
    317          0.407693        0.407694   1.000000   1.000000
    318          0.407766        0.407766   1.000000   1.000000
    319          0.541523        0.541524   1.000000   1.000000
    320          0.541598        0.541598   1.000000   1.000000
    321          0.541598        0.541598   1.000000   1.000000
    322          0.541691        0.541691   1.000000   1.000000
    323          0.574186        0.574186   1.000000   1.000000
    324          0.574276        0.574276   1.000000   1.000000
    325          0.574276        0.574276   1.000000   1.000000
    326          0.574372        0.574372   1.000000   1.000000
    327          0.693127        0.693127   1.000000   1.000000
    328          0.693202        0.693202   1.000000   1.000000
    329          0.693202        0.693202   1.000000   1.000000
    330          0.693257        0.693257   1.000000   1.000000
    331          0.698174        0.698174   1.000000   1.000000
    332          0.698184        0.698184   1.000000   1.000000
    333          0.698220        0.698220   1.000000   1.000000
    334          0.698220        0.698220   1.000000   1.000000
    335          0.790560        0.790560   1.000000   1.000000
    336          0.790567        0.790567   1.000000   1.000000
    337          0.790655        0.790655   1.000000   1.000000
    338          0.790655        0.790655   1.000000   1.000000
    339          0.839637        0.839636   1.000000   1.000000
    340          0.839713        0.839713   1.000000   1.000000
    341          0.839713        0.839713   1.000000   1.000000
    342          0.839783        0.839783   1.000000   1.000000
    343          0.864624        0.864624   1.000000   1.000000
    344          0.864707        0.864707   1.000000   1.000000
    345          0.864707        0.864707   1.000000   1.000000
    346          0.864828        0.864828   1.000000   1.000000
    347          0.971454        0.971454   1.000000   1.000000
    348          0.971454        0.971454   1.000000   1.000000
    349          0.971626        0.971626   1.000000   1.000000
    350          0.971637        0.971637   1.000000   1.000000
    351          1.121372        1.121372   1.000000   1.000000
    352          1.121547        1.121547   1.000000   1.000000
    353          1.121547        1.121547   1.000000   1.000000
    354          1.121673        1.121674   1.000000   1.000000
    355          1.174381        1.174381   1.000000   1.000000
    356          1.234491        1.234491   1.000000   1.000000
    357          1.234498        1.234498   1.000000   1.000000
    358          1.234498        1.234498   1.000000   1.000000
    359          1.234506        1.234506   1.000000   1.000000
    360          1.322804        1.322804   1.000000   1.000000
    361          1.322828        1.322828   1.000000   1.000000
    362          1.322828        1.322828   1.000000   1.000000
    363          1.322833        1.322833   1.000000   1.000000
    364          1.409016        1.409016   1.000000   1.000000
    365          1.409147        1.409146   1.000000   1.000000
    366          1.409147        1.409146   1.000000   1.000000
    367          1.409282        1.409282   1.000000   1.000000
    368          1.418360        1.418360   1.000000   1.000000
    369          1.418405        1.418405   1.000000   1.000000
    370          1.418405        1.418405   1.000000   1.000000
    371          1.418452        1.418452   1.000000   1.000000
    372          1.458776        1.458776   1.000000   1.000000
    373          1.458793        1.458793   1.000000   1.000000
    374          1.458916        1.458917   1.000000   1.000000
    375          1.458916        1.458917   1.000000   1.000000
    376          1.672735        1.672735   1.000000   1.000000
    377          1.672862        1.672862   1.000000   1.000000
    378          1.672862        1.672862   1.000000   1.000000
    379          1.672994        1.672994   1.000000   1.000000
    380          1.772944        1.772944   1.000000   1.000000
    381          1.773003        1.773003   1.000000   1.000000
    382          1.773003        1.773003   1.000000   1.000000
    383          1.773046        1.773045   1.000000   1.000000
    384          1.947769        1.947768   1.000000   1.000000
    385          1.947828        1.947828   1.000000   1.000000
    386          1.947828        1.947828   1.000000   1.000000
    387          1.947916        1.947916   1.000000   1.000000
    388          2.032648        2.032650   1.000000   1.000000
    389          2.032648        2.032650   1.000000   1.000000
    390          2.032656        2.032658   1.000000   1.000000
    391          2.032677        2.032680   1.000000   1.000000
    392          2.095904        2.095905   1.000000   1.000000
    393          2.095950        2.095951   1.000000   1.000000
    394          2.095950        2.095951   1.000000   1.000000
    395          2.095970        2.095971   1.000000   1.000000
    396          2.190874        2.190874   1.000000   1.000000
    397          2.190874        2.190874   1.000000   1.000000
    398          2.190986        2.190986   1.000000   1.000000
    399          2.190991        2.190991   1.000000   1.000000
    400          2.208630        2.208630   1.000000   1.000000
    401          2.208630        2.208630   1.000000   1.000000
    402          2.310172        2.310172   1.000000   1.000000
    403          2.341647        2.341647   1.000000   1.000000
    404          2.341690        2.341690   1.000000   1.000000
    405          2.341692        2.341692   1.000000   1.000000
    406          2.341692        2.341692   1.000000   1.000000
    407          2.345507        2.345505   1.000000   1.000000
    408          2.345507        2.345505   1.000000   1.000000
    409          2.345520        2.345518   1.000000   1.000000
    410          2.345538        2.345537   1.000000   1.000000
    411          2.349071        2.349071   1.000000   1.000000
    412          2.349071        2.349071   1.000000   1.000000
    413          2.676430        2.676430   1.000000   1.000000
    414          2.676430        2.676430   1.000000   1.000000
    415          2.676491        2.676491   1.000000   1.000000
    416          2.676494        2.676494   1.000000   1.000000
    417          2.703237        2.703237   1.000000   1.000000
    418          2.711485        2.711485   1.000000   1.000000
    419          2.711516        2.711517   1.000000   1.000000
    420          2.711629        2.711629   1.000000   1.000000
    421          2.711629        2.711629   1.000000   1.000000
    422          2.727026        2.727026   1.000000   1.000000
    423          2.761766        2.761766   1.000000   1.000000
    424          2.761766        2.761766   1.000000   1.000000
    425          2.905232        2.905231   1.000000   1.000000
    426          2.905241        2.905240   1.000000   1.000000
    427          2.905246        2.905245   1.000000   1.000000
    428          2.905246        2.905245   1.000000   1.000000
    429          3.227031        3.227031   1.001285   1.001285
    430          3.227031        3.227031   1.001285   1.001285
    431          3.227134        3.227134   1.001290   1.001291
    432          3.227140        3.227141   1.001291   1.001291
    433          3.309125        3.309126   1.020517   1.020517
    434          3.309125        3.309126   1.020517   1.020517
    435          3.422032        3.422024   0.884360   0.884401
    436          3.455088        3.455098   0.662421   0.662343
    437          3.570740        3.570740  -0.020525  -0.020525
    438          3.583352        3.583354  -0.031937  -0.031938
    439          3.583497        3.583499  -0.032017  -0.032018
    440          3.583497        3.583499  -0.032017  -0.032018
    441          3.583664        3.583666  -0.032107  -0.032109
    442          3.584501        3.584505  -0.032540  -0.032542
    443          3.584621        3.584625  -0.032600  -0.032602
    444          3.584621        3.584625  -0.032600  -0.032602
    445          3.584798        3.584801  -0.032685  -0.032687
    446          3.682127        3.682127  -0.006241  -0.006241
    447          3.682146        3.682146  -0.006237  -0.006237
    448          3.682229        3.682229  -0.006219  -0.006219
    449          3.682229        3.682229  -0.006219  -0.006219
    450          3.730537        3.730534  -0.000888  -0.000888
    451          3.730744        3.730741  -0.000880  -0.000880
    452          3.730744        3.730741  -0.000880  -0.000880
    453          3.730953        3.730949  -0.000871  -0.000872
    454          3.800132        3.800130  -0.000021  -0.000021
    455          3.800254        3.800252  -0.000021  -0.000021
    456          3.800254        3.800252  -0.000021  -0.000021
    457          3.800365        3.800363  -0.000021  -0.000021
    458          3.876354        3.876354  -0.000000  -0.000000
    459          3.876362        3.876361  -0.000000  -0.000000
    460          3.876435        3.876435  -0.000000  -0.000000
    461          3.876435        3.876435  -0.000000  -0.000000
    462          3.926540        3.926540  -0.000000  -0.000000
    463          3.926540        3.926540  -0.000000  -0.000000
    464          3.926623        3.926623  -0.000000  -0.000000
    465          3.926624        3.926624  -0.000000  -0.000000
    466          4.057412        4.057412  -0.000000  -0.000000
    467          4.100199        4.100199  -0.000000  -0.000000
    468          4.100199        4.100199  -0.000000  -0.000000
    469          4.100366        4.100366  -0.000000  -0.000000
    470          4.100377        4.100377  -0.000000  -0.000000
    471          4.141348        4.141348  -0.000000  -0.000000
    472          4.141371        4.141371  -0.000000  -0.000000
    473          4.141457        4.141456  -0.000000  -0.000000
    474          4.141457        4.141456  -0.000000  -0.000000
    475          4.271590        4.271590  -0.000000  -0.000000
    476          4.271590        4.271590  -0.000000  -0.000000
    477          4.581294        4.581294  -0.000000  -0.000000
    478          4.581478        4.581477  -0.000000  -0.000000
    479          4.581478        4.581477  -0.000000  -0.000000
    480          4.581643        4.581642  -0.000000  -0.000000
    481          4.591307        4.591306  -0.000000  -0.000000
    482          4.591307        4.591306  -0.000000  -0.000000
    483          4.591314        4.591313  -0.000000  -0.000000
    484          4.591334        4.591334  -0.000000  -0.000000
    485          4.623785        4.623785  -0.000000  -0.000000
    486          4.703769        4.703771  -0.000000  -0.000000
    487          4.704011        4.704013  -0.000000  -0.000000
    488          4.704011        4.704013  -0.000000  -0.000000
    489          4.704183        4.704184  -0.000000  -0.000000
    490          4.782685        4.782685  -0.000000  -0.000000
    491          4.782685        4.782685  -0.000000  -0.000000
    492          4.782770        4.782771  -0.000000  -0.000000
    493          4.782784        4.782784  -0.000000  -0.000000
    494          4.883248        4.883248  -0.000000  -0.000000
    495          4.883317        4.883316  -0.000000  -0.000000
    496          4.883317        4.883316  -0.000000  -0.000000
    497          4.883354        4.883354  -0.000000  -0.000000
    498          4.906437        4.906436  -0.000000  -0.000000
    499          4.906437        4.906436  -0.000000  -0.000000
    500          4.906539        4.906537  -0.000000  -0.000000
    501          4.906580        4.906579  -0.000000  -0.000000
    502          4.921804        4.921804  -0.000000  -0.000000
    503          5.069059        5.069060  -0.000000  -0.000000
    504          5.069059        5.069060  -0.000000  -0.000000
    505          5.069218        5.069219  -0.000000  -0.000000
    506          5.069279        5.069280  -0.000000  -0.000000
    507          5.212228        5.212229  -0.000000  -0.000000
    508          5.212258        5.212258  -0.000000  -0.000000
    509          5.212258        5.212258  -0.000000  -0.000000
    510          5.212295        5.212295  -0.000000  -0.000000
    511          5.285999        5.286002  -0.000000  -0.000000
    512          5.286029        5.286032  -0.000000  -0.000000
    513          5.286029        5.286032  -0.000000  -0.000000
    514          5.286051        5.286053  -0.000000  -0.000000
    515          5.359638        5.359638  -0.000000  -0.000000
    516          5.383321        5.383320  -0.000000  -0.000000
    517          5.383326        5.383325  -0.000000  -0.000000
    518          5.383474        5.383473  -0.000000  -0.000000
    519          5.383474        5.383473  -0.000000  -0.000000
    520          5.398749        5.398750  -0.000000  -0.000000
    521          5.398828        5.398829  -0.000000  -0.000000
    522          5.398828        5.398829  -0.000000  -0.000000
    523          5.398872        5.398873  -0.000000  -0.000000
    524          5.489134        5.489134  -0.000000  -0.000000
    525          5.489254        5.489254  -0.000000  -0.000000
    526          5.489254        5.489254  -0.000000  -0.000000
    527          5.489373        5.489373  -0.000000  -0.000000
    528          5.542278        5.542278  -0.000000  -0.000000
    529          5.542332        5.542331  -0.000000  -0.000000
    530          5.542332        5.542331  -0.000000  -0.000000
    531          5.542380        5.542380  -0.000000  -0.000000
    532          5.567241        5.567241  -0.000000  -0.000000
    533          5.567241        5.567241  -0.000000  -0.000000
    534          5.613454        5.613454  -0.000000  -0.000000
    535          5.613547        5.613546  -0.000000  -0.000000
    536          5.613547        5.613546  -0.000000  -0.000000
    537          5.613638        5.613638  -0.000000  -0.000000
    538          5.632782        5.632783  -0.000000  -0.000000
    539          5.632848        5.632849  -0.000000  -0.000000
    540          5.632848        5.632849  -0.000000  -0.000000
    541          5.632937        5.632937  -0.000000  -0.000000
    542          5.795481        5.795481  -0.000000  -0.000000
    543          5.795484        5.795484  -0.000000  -0.000000
    544          5.795515        5.795515  -0.000000  -0.000000
    545          5.795515        5.795515  -0.000000  -0.000000
    546          5.810839        5.810839  -0.000000  -0.000000
    547          5.810869        5.810870  -0.000000  -0.000000
    548          5.810869        5.810870  -0.000000  -0.000000
    549          5.810880        5.810880  -0.000000  -0.000000
    550          5.839883        5.839884  -0.000000  -0.000000
    551          5.839883        5.839884  -0.000000  -0.000000
    552          5.839885        5.839885  -0.000000  -0.000000
    553          5.839891        5.839892  -0.000000  -0.000000
    554          5.848683        5.848684  -0.000000  -0.000000
    555          5.848708        5.848708  -0.000000  -0.000000
    556          5.851452        5.851452  -0.000000  -0.000000
    557          5.851513        5.851513  -0.000000  -0.000000
    558          5.851513        5.851513  -0.000000  -0.000000
    559          5.851573        5.851573  -0.000000  -0.000000
    560          5.993093        5.993093  -0.000000  -0.000000
    561          5.993108        5.993108  -0.000000  -0.000000
    562          5.993148        5.993149  -0.000000  -0.000000
    563          5.993148        5.993149  -0.000000  -0.000000
    564          6.321515        6.321515   0.000000   0.000000
    565          6.321640        6.321640   0.000000   0.000000
    566          6.321640        6.321640   0.000000   0.000000
    567          6.321757        6.321757   0.000000   0.000000
    568          6.606115        6.606131   0.000000   0.000000
    569          6.789328        6.789330   0.000000   0.000000
    570          6.789328        6.789330   0.000000   0.000000
    571          6.789387        6.789390   0.000000   0.000000
    572          6.789405        6.789408   0.000000   0.000000
    573          6.793218        6.793219   0.000000   0.000000
    574          6.793223        6.793223   0.000000   0.000000
    575          6.793255        6.793255   0.000000   0.000000
    576          6.793255        6.793255   0.000000   0.000000
    577          6.829581        6.829581   0.000000   0.000000
    578          6.847986        6.847986   0.000000   0.000000
    579          6.847986        6.847986   0.000000   0.000000
    580          6.991216        6.991216   0.000000   0.000000
    581          6.991216        6.991216   0.000000   0.000000
    582          6.991226        6.991226   0.000000   0.000000
    583          6.991250        6.991250   0.000000   0.000000
    584          7.161093        7.161093   0.000000   0.000000
    585          7.161228        7.161228   0.000000   0.000000
    586          7.161228        7.161228   0.000000   0.000000
    587          7.161372        7.161371   0.000000   0.000000
    588          7.200329        7.200885   0.000000   0.000000
    589          7.204079        7.204079   0.000000   0.000000
    590          7.204187        7.204187   0.000000   0.000000
    591          7.204187        7.204187   0.000000   0.000000
    592          7.204286        7.204286   0.000000   0.000000
    593          7.263229        7.263146   0.000000   0.000000
    594          7.377971        7.377972   0.000000   0.000000
    595          7.640294        7.640294   0.000000   0.000000
    596          7.640294        7.640294   0.000000   0.000000
    597          7.640310        7.640310   0.000000   0.000000
    598          7.640321        7.640321   0.000000   0.000000
    599          7.826205        7.826205   0.000000   0.000000
    600          7.826241        7.826241   0.000000   0.000000
    601          7.826241        7.826241   0.000000   0.000000
    602          7.826251        7.826251   0.000000   0.000000
    603          8.194393        8.194411   0.000000   0.000000
    604          8.194394        8.194411   0.000000   0.000000
    605          8.194394        8.194411   0.000000   0.000000
    606          8.194419        8.194436   0.000000   0.000000
    607          8.336996        8.336910   0.000000   0.000000
    608          8.502014        8.502014   0.000000   0.000000
    609          8.502153        8.502153   0.000000   0.000000
    610          8.502153        8.502153   0.000000   0.000000
    611          8.502305        8.502305   0.000000   0.000000
    612          8.628516        8.629146   0.000000   0.000000
    613          8.730514        8.730798   0.000000   0.000000
    614          8.730514        8.730798   0.000000   0.000000
    615          8.730645        8.730923   0.000000   0.000000
    616          8.730666        8.730950   0.000000   0.000000
    617          8.858719        8.858782   0.000000   0.000000
    618          8.858719        8.858782   0.000000   0.000000
    619          8.859162        8.859223   0.000000   0.000000
    620          8.859162        8.859225   0.000000   0.000000
    621          9.350833        9.350851   0.000000   0.000000
    622          9.350969        9.350986   0.000000   0.000000
    623          9.350969        9.350986   0.000000   0.000000
    624          9.351118        9.351136   0.000000   0.000000
    625          9.475485        9.475543   0.000000   0.000000
    626          9.475485        9.475543   0.000000   0.000000
    627          9.475799        9.475856   0.000000   0.000000
    628          9.475801        9.475859   0.000000   0.000000
    629          9.680358        9.680269   0.000000   0.000000
    630          9.680358        9.680269   0.000000   0.000000
    631          9.680568        9.680479   0.000000   0.000000
    632          9.680574        9.680486   0.000000   0.000000
    633          9.748984        9.748985   0.000000   0.000000
    634          9.749182        9.749182   0.000000   0.000000
    635          9.749182        9.749182   0.000000   0.000000
    636          9.749365        9.749365   0.000000   0.000000
    637          9.829040        9.829509   0.000000   0.000000
    638          9.829040        9.829509   0.000000   0.000000
    639          9.829198        9.829665   0.000000   0.000000
    640          9.829227        9.829688   0.000000   0.000000
    641          9.969487        9.969578   0.000000   0.000000
    642          9.969568        9.969658   0.000000   0.000000
    643          9.969568        9.969658   0.000000   0.000000
    644          9.969666        9.969756   0.000000   0.000000
    645         10.243872       10.243828   0.000000   0.000000
    646         10.380607       10.381019   0.000000   0.000000
    647         10.618400       10.618589   0.000000   0.000000
    648         10.618401       10.618589   0.000000   0.000000
    649         10.618487       10.618676   0.000000   0.000000
    650         10.618496       10.618680   0.000000   0.000000
    651         10.780952       10.780836   0.000000   0.000000
    652         10.781034       10.780918   0.000000   0.000000
    653         10.781034       10.780918   0.000000   0.000000
    654         10.781128       10.781012   0.000000   0.000000
    655         10.879987       10.880625   0.000000   0.000000
    656         10.880083       10.880716   0.000000   0.000000
    657         10.880083       10.880716   0.000000   0.000000
    658         10.880167       10.880794   0.000000   0.000000
    659         11.146126       11.146126   0.000000   0.000000
    660         11.146219       11.146219   0.000000   0.000000
    661         11.146219       11.146219   0.000000   0.000000
    662         11.146294       11.146294   0.000000   0.000000
    663         11.764959       11.765286   0.000000   0.000000
    664         11.764961       11.765293   0.000000   0.000000
    665         11.764961       11.765293   0.000000   0.000000
    666         11.764994       11.765325   0.000000   0.000000
    667         11.950531       11.950649   0.000000   0.000000
    668         11.950587       11.950704   0.000000   0.000000
    669         11.950588       11.950704   0.000000   0.000000
    670         11.950608       11.950722   0.000000   0.000000
    671         11.980943       11.981171   0.000000   0.000000
    672         12.214302       12.214463   0.000000   0.000000
    673         12.214386       12.214546   0.000000   0.000000
    674         12.214386       12.214547   0.000000   0.000000
    675         12.214462       12.214621   0.000000   0.000000
    676         12.497725       12.497921   0.000000   0.000000
    677         12.497726       12.497922   0.000000   0.000000
    678         12.497728       12.497922   0.000000   0.000000
    679         12.497735       12.497930   0.000000   0.000000
    680         12.652797       12.652869   0.000000   0.000000
    681         12.653112       12.652904   0.000000   0.000000
    682         12.653367       12.652960   0.000000   0.000000
    683         12.797799       12.653201   0.000000   0.000000
    684         12.797811       12.797887   0.000000   0.000000
    685         12.797826       12.798148   0.000000   0.000000
    686         12.797946       12.798498   0.000000   0.000000
    687         12.897094       12.799292   0.000000   0.000000
 
  0.2500000E+00  0.0000000E+00  0.0000000E+00  0.2500000E+00
      1        -57.723321      -57.723321   1.000000   1.000000
      2        -57.671907      -57.671907   1.000000   1.000000
      3        -57.655533      -57.655533   1.000000   1.000000
      4        -57.631777      -57.631777   1.000000   1.000000
      5        -57.631748      -57.631748   1.000000   1.000000
      6        -57.619594      -57.619594   1.000000   1.000000
      7        -57.606366      -57.606366   1.000000   1.000000
      8        -57.606343      -57.606344   1.000000   1.000000
      9        -57.602453      -57.602453   1.000000   1.000000
     10        -57.594004      -57.594004   1.000000   1.000000
     11        -57.593994      -57.593994   1.000000   1.000000
     12        -57.577888      -57.577888   1.000000   1.000000
     13        -57.577872      -57.577872   1.000000   1.000000
     14        -57.577821      -57.577821   1.000000   1.000000
     15        -57.576809      -57.576809   1.000000   1.000000
     16        -57.576802      -57.576802   1.000000   1.000000
     17        -57.558379      -57.558379   1.000000   1.000000
     18        -57.558376      -57.558376   1.000000   1.000000
     19        -57.495814      -57.495814   1.000000   1.000000
     20        -57.471609      -57.471609   1.000000   1.000000
     21        -57.461048      -57.461048   1.000000   1.000000
     22        -57.460923      -57.460922   1.000000   1.000000
     23        -57.460913      -57.460913   1.000000   1.000000
     24        -57.455943      -57.455943   1.000000   1.000000
     25        -57.453353      -57.453353   1.000000   1.000000
     26        -57.453331      -57.453330   1.000000   1.000000
     27        -57.448577      -57.448577   1.000000   1.000000
     28        -57.448542      -57.448542   1.000000   1.000000
     29        -57.446519      -57.446519   1.000000   1.000000
     30        -57.434096      -57.434096   1.000000   1.000000
     31        -57.434093      -57.434093   1.000000   1.000000
     32        -57.424454      -57.424454   1.000000   1.000000
     33        -57.420710      -57.420710   1.000000   1.000000
     34        -57.420704      -57.420704   1.000000   1.000000
     35        -57.418268      -57.418268   1.000000   1.000000
     36        -57.411854      -57.411854   1.000000   1.000000
     37        -57.411852      -57.411852   1.000000   1.000000
     38        -57.405497      -57.405497   1.000000   1.000000
     39        -57.405488      -57.405488   1.000000   1.000000
     40        -57.403696      -57.403697   1.000000   1.000000
     41        -57.403694      -57.403694   1.000000   1.000000
     42        -57.397907      -57.397907   1.000000   1.000000
     43        -57.397899      -57.397899   1.000000   1.000000
     44        -57.374637      -57.374637   1.000000   1.000000
     45        -57.346777      -57.346777   1.000000   1.000000
     46        -57.258407      -57.258409   1.000000   1.000000
     47        -57.252160      -57.252162   1.000000   1.000000
     48        -57.251813      -57.251815   1.000000   1.000000
     49        -57.249660      -57.249662   1.000000   1.000000
     50        -57.249318      -57.249320   1.000000   1.000000
     51        -57.247286      -57.247288   1.000000   1.000000
     52        -57.246932      -57.246934   1.000000   1.000000
     53        -57.244519      -57.244521   1.000000   1.000000
     54        -57.231798      -57.231799   1.000000   1.000000
     55        -57.155143      -57.155141   1.000000   1.000000
     56        -57.145541      -57.145539   1.000000   1.000000
     57        -57.145501      -57.145499   1.000000   1.000000
     58        -57.143105      -57.143103   1.000000   1.000000
     59        -57.143053      -57.143051   1.000000   1.000000
     60        -57.141333      -57.141331   1.000000   1.000000
     61        -57.141270      -57.141268   1.000000   1.000000
     62        -57.124084      -57.124082   1.000000   1.000000
     63        -57.098904      -57.098902   1.000000   1.000000
     64        -32.308868      -32.308868   1.000000   1.000000
     65        -32.277871      -32.277871   1.000000   1.000000
     66        -32.250582      -32.250582   1.000000   1.000000
     67        -32.250551      -32.250551   1.000000   1.000000
     68        -32.237253      -32.237253   1.000000   1.000000
     69        -32.237234      -32.237234   1.000000   1.000000
     70        -32.210399      -32.210399   1.000000   1.000000
     71        -32.210359      -32.210359   1.000000   1.000000
     72        -32.172774      -32.172774   1.000000   1.000000
     73        -32.167382      -32.167382   1.000000   1.000000
     74        -32.167354      -32.167354   1.000000   1.000000
     75        -32.166017      -32.166017   1.000000   1.000000
     76        -32.165987      -32.165986   1.000000   1.000000
     77        -32.147386      -32.147386   1.000000   1.000000
     78        -32.134071      -32.134071   1.000000   1.000000
     79        -32.134035      -32.134035   1.000000   1.000000
     80        -32.131461      -32.131461   1.000000   1.000000
     81        -32.131403      -32.131403   1.000000   1.000000
     82        -32.129704      -32.129703   1.000000   1.000000
     83        -32.119501      -32.119501   1.000000   1.000000
     84        -32.119455      -32.119455   1.000000   1.000000
     85        -32.103219      -32.103219   1.000000   1.000000
     86        -32.103186      -32.103186   1.000000   1.000000
     87        -32.082922      -32.082922   1.000000   1.000000
     88        -32.077682      -32.077682   1.000000   1.000000
     89        -32.077682      -32.077681   1.000000   1.000000
     90        -32.060751      -32.060751   1.000000   1.000000
     91        -32.060673      -32.060673   1.000000   1.000000
     92        -32.049428      -32.049428   1.000000   1.000000
     93        -32.049385      -32.049385   1.000000   1.000000
     94        -32.047576      -32.047576   1.000000   1.000000
     95        -32.047523      -32.047524   1.000000   1.000000
     96        -32.026538      -32.026538   1.000000   1.000000
     97        -31.997159      -31.997159   1.000000   1.000000
     98        -31.985166      -31.985166   1.000000   1.000000
     99        -31.964195      -31.964195   1.000000   1.000000
    100        -31.962595      -31.962595   1.000000   1.000000
    101        -31.962570      -31.962570   1.000000   1.000000
    102        -31.938995      -31.938995   1.000000   1.000000
    103        -31.938915      -31.938915   1.000000   1.000000
    104        -31.917844      -31.917843   1.000000   1.000000
    105        -31.917784      -31.917784   1.000000   1.000000
    106        -31.910518      -31.910518   1.000000   1.000000
    107        -31.908121      -31.908121   1.000000   1.000000
    108        -31.853288      -31.853288   1.000000   1.000000
    109        -31.853271      -31.853270   1.000000   1.000000
    110        -31.851679      -31.851679   1.000000   1.000000
    111        -31.846769      -31.846770   1.000000   1.000000
    112        -31.834160      -31.834160   1.000000   1.000000
    113        -31.834031      -31.834032   1.000000   1.000000
    114        -31.822036      -31.822036   1.000000   1.000000
    115        -31.821981      -31.821981   1.000000   1.000000
    116        -31.795055      -31.795055   1.000000   1.000000
    117        -31.793760      -31.793760   1.000000   1.000000
    118        -31.739614      -31.739614   1.000000   1.000000
    119        -31.731455      -31.731455   1.000000   1.000000
    120        -31.731388      -31.731388   1.000000   1.000000
    121        -31.730966      -31.730966   1.000000   1.000000
    122        -31.730912      -31.730912   1.000000   1.000000
    123        -31.730183      -31.730183   1.000000   1.000000
    124        -31.713002      -31.713002   1.000000   1.000000
    125        -31.709091      -31.709091   1.000000   1.000000
    126        -31.709051      -31.709051   1.000000   1.000000
    127        -31.708083      -31.708083   1.000000   1.000000
    128        -31.707428      -31.707428   1.000000   1.000000
    129        -31.707413      -31.707413   1.000000   1.000000
    130        -31.702240      -31.702240   1.000000   1.000000
    131        -31.699059      -31.699059   1.000000   1.000000
    132        -31.699003      -31.699003   1.000000   1.000000
    133        -31.685784      -31.685785   1.000000   1.000000
    134        -31.685691      -31.685691   1.000000   1.000000
    135        -31.682365      -31.682365   1.000000   1.000000
    136        -31.667181      -31.667181   1.000000   1.000000
    137        -31.667106      -31.667106   1.000000   1.000000
    138        -31.615556      -31.615557   1.000000   1.000000
    139        -31.609957      -31.609957   1.000000   1.000000
    140        -31.582273      -31.582273   1.000000   1.000000
    141        -31.582251      -31.582251   1.000000   1.000000
    142        -31.574961      -31.574961   1.000000   1.000000
    143        -31.570308      -31.570308   1.000000   1.000000
    144        -31.566300      -31.566301   1.000000   1.000000
    145        -31.566280      -31.566280   1.000000   1.000000
    146        -31.557982      -31.557982   1.000000   1.000000
    147        -31.541190      -31.541190   1.000000   1.000000
    148        -31.541166      -31.541166   1.000000   1.000000
    149        -31.541141      -31.541141   1.000000   1.000000
    150        -31.530189      -31.530188   1.000000   1.000000
    151        -31.517866      -31.517866   1.000000   1.000000
    152        -31.514517      -31.514517   1.000000   1.000000
    153        -31.510188      -31.510188   1.000000   1.000000
    154        -31.510161      -31.510161   1.000000   1.000000
    155        -31.499574      -31.499574   1.000000   1.000000
    156        -31.499564      -31.499564   1.000000   1.000000
    157        -31.498866      -31.498867   1.000000   1.000000
    158        -31.444636      -31.444637   1.000000   1.000000
    159        -31.444574      -31.444575   1.000000   1.000000
    160        -31.443414      -31.443414   1.000000   1.000000
    161        -31.434543      -31.434543   1.000000   1.000000
    162        -31.434453      -31.434454   1.000000   1.000000
    163        -31.430426      -31.430426   1.000000   1.000000
    164        -31.422964      -31.422964   1.000000   1.000000
    165        -31.422946      -31.422946   1.000000   1.000000
    166        -31.414175      -31.414175   1.000000   1.000000
    167        -31.412118      -31.412118   1.000000   1.000000
    168        -31.409080      -31.409080   1.000000   1.000000
    169        -31.409047      -31.409047   1.000000   1.000000
    170        -31.408511      -31.408513   1.000000   1.000000
    171        -31.408345      -31.408347   1.000000   1.000000
    172        -31.389477      -31.389477   1.000000   1.000000
    173        -31.389379      -31.389379   1.000000   1.000000
    174        -31.363753      -31.363753   1.000000   1.000000
    175        -31.340627      -31.340625   1.000000   1.000000
    176        -31.340619      -31.340617   1.000000   1.000000
    177        -31.310719      -31.310720   1.000000   1.000000
    178        -31.310690      -31.310691   1.000000   1.000000
    179        -31.295592      -31.295593   1.000000   1.000000
    180        -31.294553      -31.294553   1.000000   1.000000
    181        -31.294513      -31.294514   1.000000   1.000000
    182        -31.285685      -31.285685   1.000000   1.000000
    183        -31.285635      -31.285634   1.000000   1.000000
    184        -31.273436      -31.273437   1.000000   1.000000
    185        -31.273430      -31.273431   1.000000   1.000000
    186        -31.267201      -31.267202   1.000000   1.000000
    187        -31.265052      -31.265053   1.000000   1.000000
    188        -31.255327      -31.255327   1.000000   1.000000
    189        -31.254597      -31.254597   1.000000   1.000000
    190        -31.254581      -31.254581   1.000000   1.000000
    191        -31.243040      -31.243041   1.000000   1.000000
    192        -31.242924      -31.242925   1.000000   1.000000
    193        -31.239903      -31.239904   1.000000   1.000000
    194        -31.239619      -31.239619   1.000000   1.000000
    195        -31.239595      -31.239596   1.000000   1.000000
    196        -31.231417      -31.231417   1.000000   1.000000
    197        -31.215929      -31.215929   1.000000   1.000000
    198        -31.209685      -31.209685   1.000000   1.000000
    199        -31.209678      -31.209678   1.000000   1.000000
    200        -31.197889      -31.197889   1.000000   1.000000
    201        -31.197872      -31.197872   1.000000   1.000000
    202        -31.189544      -31.189544   1.000000   1.000000
    203        -31.189536      -31.189536   1.000000   1.000000
    204        -31.179506      -31.179506   1.000000   1.000000
    205        -31.179491      -31.179490   1.000000   1.000000
    206        -31.169193      -31.169193   1.000000   1.000000
    207        -31.165042      -31.165042   1.000000   1.000000
    208        -31.164924      -31.164925   1.000000   1.000000
    209        -31.161132      -31.161134   1.000000   1.000000
    210        -31.124752      -31.124753   1.000000   1.000000
    211        -31.124641      -31.124643   1.000000   1.000000
    212        -31.118798      -31.118798   1.000000   1.000000
    213        -31.113286      -31.113286   1.000000   1.000000
    214        -31.108273      -31.108274   1.000000   1.000000
    215        -31.108160      -31.108161   1.000000   1.000000
    216        -31.102840      -31.102840   1.000000   1.000000
    217        -31.101594      -31.101593   1.000000   1.000000
    218        -31.101563      -31.101561   1.000000   1.000000
    219        -31.094413      -31.094415   1.000000   1.000000
    220        -31.091286      -31.091283   1.000000   1.000000
    221        -31.087731      -31.087732   1.000000   1.000000
    222        -31.087625      -31.087625   1.000000   1.000000
    223        -31.082167      -31.082168   1.000000   1.000000
    224        -31.082097      -31.082097   1.000000   1.000000
    225        -31.071966      -31.071966   1.000000   1.000000
    226        -31.068914      -31.068915   1.000000   1.000000
    227        -31.068805      -31.068806   1.000000   1.000000
    228        -31.057363      -31.057363   1.000000   1.000000
    229        -31.055427      -31.055428   1.000000   1.000000
    230        -31.055315      -31.055316   1.000000   1.000000
    231        -31.054443      -31.054443   1.000000   1.000000
    232        -31.031722      -31.031723   1.000000   1.000000
    233        -31.019714      -31.019714   1.000000   1.000000
    234        -31.019502      -31.019502   1.000000   1.000000
    235        -31.014568      -31.014567   1.000000   1.000000
    236        -30.973167      -30.973165   1.000000   1.000000
    237        -30.973123      -30.973122   1.000000   1.000000
    238        -30.972604      -30.972603   1.000000   1.000000
    239        -30.948721      -30.948720   1.000000   1.000000
    240        -30.948681      -30.948679   1.000000   1.000000
    241        -30.940734      -30.940733   1.000000   1.000000
    242        -30.940696      -30.940694   1.000000   1.000000
    243        -30.920563      -30.920562   1.000000   1.000000
    244        -30.920519      -30.920517   1.000000   1.000000
    245        -30.917831      -30.917830   1.000000   1.000000
    246        -30.913577      -30.913576   1.000000   1.000000
    247        -30.913573      -30.913572   1.000000   1.000000
    248        -30.909570      -30.909569   1.000000   1.000000
    249        -30.907639      -30.907638   1.000000   1.000000
    250        -30.907621      -30.907619   1.000000   1.000000
    251        -30.884052      -30.884050   1.000000   1.000000
    252        -30.880665      -30.880664   1.000000   1.000000
    253         -3.123068       -3.123068   1.000000   1.000000
    254         -2.184345       -2.184345   1.000000   1.000000
    255         -2.108234       -2.108234   1.000000   1.000000
    256         -1.541119       -1.541119   1.000000   1.000000
    257         -1.516281       -1.516281   1.000000   1.000000
    258         -1.456222       -1.456222   1.000000   1.000000
    259         -1.403079       -1.403079   1.000000   1.000000
    260         -1.364295       -1.364295   1.000000   1.000000
    261         -1.360007       -1.360007   1.000000   1.000000
    262         -1.359965       -1.359965   1.000000   1.000000
    263         -1.240695       -1.240694   1.000000   1.000000
    264         -1.240646       -1.240646   1.000000   1.000000
    265         -1.097879       -1.097879   1.000000   1.000000
    266         -1.097833       -1.097833   1.000000   1.000000
    267         -1.065105       -1.065105   1.000000   1.000000
    268         -1.065062       -1.065062   1.000000   1.000000
    269         -1.055404       -1.055404   1.000000   1.000000
    270         -1.034877       -1.034877   1.000000   1.000000
    271         -1.034861       -1.034861   1.000000   1.000000
    272         -1.018158       -1.018158   1.000000   1.000000
    273         -0.995827       -0.995827   1.000000   1.000000
    274         -0.965190       -0.965190   1.000000   1.000000
    275         -0.916748       -0.916748   1.000000   1.000000
    276         -0.885415       -0.885415   1.000000   1.000000
    277         -0.844737       -0.844737   1.000000   1.000000
    278         -0.844660       -0.844660   1.000000   1.000000
    279         -0.810044       -0.810044   1.000000   1.000000
    280         -0.766303       -0.766303   1.000000   1.000000
    281         -0.766218       -0.766218   1.000000   1.000000
    282         -0.591023       -0.591023   1.000000   1.000000
    283         -0.508550       -0.508550   1.000000   1.000000
    284         -0.427206       -0.427206   1.000000   1.000000
    285         -0.427009       -0.427009   1.000000   1.000000
    286         -0.389537       -0.389537   1.000000   1.000000
    287         -0.389459       -0.389459   1.000000   1.000000
    288         -0.385777       -0.385777   1.000000   1.000000
    289         -0.358269       -0.358267   1.000000   1.000000
    290         -0.306681       -0.306681   1.000000   1.000000
    291         -0.306599       -0.306599   1.000000   1.000000
    292         -0.305879       -0.305879   1.000000   1.000000
    293         -0.305784       -0.305784   1.000000   1.000000
    294         -0.250072       -0.250072   1.000000   1.000000
    295         -0.250003       -0.250003   1.000000   1.000000
    296         -0.141349       -0.141349   1.000000   1.000000
    297         -0.141278       -0.141278   1.000000   1.000000
    298         -0.113398       -0.113396   1.000000   1.000000
    299         -0.113287       -0.113286   1.000000   1.000000
    300         -0.098628       -0.098630   1.000000   1.000000
    301         -0.095205       -0.095205   1.000000   1.000000
    302         -0.012878       -0.012878   1.000000   1.000000
    303         -0.012824       -0.012824   1.000000   1.000000
    304          0.000384        0.000384   1.000000   1.000000
    305          0.000444        0.000444   1.000000   1.000000
    306          0.019695        0.019695   1.000000   1.000000
    307          0.026557        0.026557   1.000000   1.000000
    308          0.026700        0.026701   1.000000   1.000000
    309          0.142268        0.142269   1.000000   1.000000
    310          0.186206        0.186205   1.000000   1.000000
    311          0.186409        0.186407   1.000000   1.000000
    312          0.247134        0.247134   1.000000   1.000000
    313          0.326642        0.326641   1.000000   1.000000
    314          0.327176        0.327176   1.000000   1.000000
    315          0.327235        0.327236   1.000000   1.000000
    316          0.337404        0.337404   1.000000   1.000000
    317          0.359066        0.359067   1.000000   1.000000
    318          0.359127        0.359127   1.000000   1.000000
    319          0.399317        0.399317   1.000000   1.000000
    320          0.399365        0.399365   1.000000   1.000000
    321          0.401518        0.401518   1.000000   1.000000
    322          0.401561        0.401561   1.000000   1.000000
    323          0.478625        0.478625   1.000000   1.000000
    324          0.495375        0.495375   1.000000   1.000000
    325          0.519744        0.519744   1.000000   1.000000
    326          0.519868        0.519868   1.000000   1.000000
    327          0.560316        0.560317   1.000000   1.000000
    328          0.567703        0.567703   1.000000   1.000000
    329          0.567831        0.567831   1.000000   1.000000
    330          0.624293        0.624293   1.000000   1.000000
    331          0.624422        0.624422   1.000000   1.000000
    332          0.641031        0.641031   1.000000   1.000000
    333          0.641073        0.641073   1.000000   1.000000
    334          0.666784        0.666784   1.000000   1.000000
    335          0.666833        0.666834   1.000000   1.000000
    336          0.742740        0.742740   1.000000   1.000000
    337          0.742801        0.742800   1.000000   1.000000
    338          0.755170        0.755170   1.000000   1.000000
    339          0.755260        0.755260   1.000000   1.000000
    340          0.770978        0.770978   1.000000   1.000000
    341          0.771111        0.771111   1.000000   1.000000
    342          0.798946        0.798946   1.000000   1.000000
    343          0.799049        0.799050   1.000000   1.000000
    344          0.896219        0.896219   1.000000   1.000000
    345          0.896316        0.896315   1.000000   1.000000
    346          0.934608        0.934608   1.000000   1.000000
    347          0.934777        0.934777   1.000000   1.000000
    348          0.934778        0.934777   1.000000   1.000000
    349          0.934910        0.934909   1.000000   1.000000
    350          1.003431        1.003431   1.000000   1.000000
    351          1.003579        1.003579   1.000000   1.000000
    352          1.029332        1.029332   1.000000   1.000000
    353          1.029424        1.029424   1.000000   1.000000
    354          1.045442        1.045442   1.000000   1.000000
    355          1.108210        1.108210   1.000000   1.000000
    356          1.152553        1.152553   1.000000   1.000000
    357          1.152830        1.152830   1.000000   1.000000
    358          1.152993        1.152993   1.000000   1.000000
    359          1.161429        1.161429   1.000000   1.000000
    360          1.168377        1.168377   1.000000   1.000000
    361          1.168412        1.168412   1.000000   1.000000
    362          1.269335        1.269336   1.000000   1.000000
    363          1.362011        1.362012   1.000000   1.000000
    364          1.362133        1.362133   1.000000   1.000000
    365          1.371527        1.371528   1.000000   1.000000
    366          1.443307        1.443307   1.000000   1.000000
    367          1.443324        1.443325   1.000000   1.000000
    368          1.476299        1.476298   1.000000   1.000000
    369          1.476404        1.476403   1.000000   1.000000
    370          1.511514        1.511514   1.000000   1.000000
    371          1.617330        1.617330   1.000000   1.000000
    372          1.617367        1.617368   1.000000   1.000000
    373          1.625980        1.625980   1.000000   1.000000
    374          1.628695        1.628695   1.000000   1.000000
    375          1.628754        1.628753   1.000000   1.000000
    376          1.674511        1.674512   1.000000   1.000000
    377          1.674586        1.674586   1.000000   1.000000
    378          1.708444        1.708444   1.000000   1.000000
    379          1.716004        1.716004   1.000000   1.000000
    380          1.716018        1.716019   1.000000   1.000000
    381          1.778797        1.778797   1.000000   1.000000
    382          1.806117        1.806118   1.000000   1.000000
    383          1.806132        1.806133   1.000000   1.000000
    384          1.821922        1.821922   1.000000   1.000000
    385          1.821969        1.821969   1.000000   1.000000
    386          1.943293        1.943293   1.000000   1.000000
    387          1.943345        1.943344   1.000000   1.000000
    388          1.956376        1.956376   1.000000   1.000000
    389          1.993134        1.993134   1.000000   1.000000
    390          1.993239        1.993239   1.000000   1.000000
    391          2.000865        2.000865   1.000000   1.000000
    392          2.029307        2.029307   1.000000   1.000000
    393          2.097249        2.097249   1.000000   1.000000
    394          2.158024        2.158025   1.000000   1.000000
    395          2.162174        2.162174   1.000000   1.000000
    396          2.162657        2.162658   1.000000   1.000000
    397          2.162679        2.162679   1.000000   1.000000
    398          2.163211        2.163211   1.000000   1.000000
    399          2.166888        2.166888   1.000000   1.000000
    400          2.178039        2.178039   1.000000   1.000000
    401          2.178202        2.178202   1.000000   1.000000
    402          2.295314        2.295315   1.000000   1.000000
    403          2.295407        2.295407   1.000000   1.000000
    404          2.302638        2.302638   1.000000   1.000000
    405          2.302761        2.302761   1.000000   1.000000
    406          2.306965        2.306965   1.000000   1.000000
    407          2.315681        2.315681   1.000000   1.000000
    408          2.422942        2.422942   1.000000   1.000000
    409          2.423027        2.423027   1.000000   1.000000
    410          2.455711        2.455711   1.000000   1.000000
    411          2.455775        2.455775   1.000000   1.000000
    412          2.477738        2.477738   1.000000   1.000000
    413          2.498639        2.498639   1.000000   1.000000
    414          2.606844        2.606844   1.000000   1.000000
    415          2.606868        2.606868   1.000000   1.000000
    416          2.628084        2.628082   1.000000   1.000000
    417          2.657654        2.657654   1.000000   1.000000
    418          2.728812        2.728815   1.000000   1.000000
    419          2.728909        2.728912   1.000000   1.000000
    420          2.770544        2.770545   1.000000   1.000000
    421          2.813139        2.813139   1.000000   1.000000
    422          2.865547        2.865545   1.000000   1.000000
    423          2.884837        2.884833   1.000000   1.000000
    424          2.884848        2.884845   1.000000   1.000000
    425          2.899361        2.899361   1.000000   1.000000
    426          2.941496        2.941495   1.000000   1.000000
    427          2.967796        2.967799   1.000000   1.000000
    428          3.028109        3.028109   1.000000   1.000000
    429          3.081950        3.081950   1.000000   1.000000
    430          3.115417        3.115418   1.000002   1.000002
    431          3.115490        3.115490   1.000002   1.000002
    432          3.147561        3.147561   1.000019   1.000019
    433          3.185175        3.185176   1.000166   1.000166
    434          3.185288        3.185289   1.000167   1.000167
    435          3.201806        3.201806   1.000392   1.000392
    436          3.350942        3.350942   1.035433   1.035433
    437          3.351106        3.351106   1.035439   1.035439
    438          3.383532        3.383532   1.013356   1.013356
    439          3.413546        3.413546   0.925092   0.925092
    440          3.429389        3.429391   0.843222   0.843210
    441          3.429546        3.429548   0.842288   0.842276
    442          3.522924        3.522923   0.139772   0.139773
    443          3.522978        3.522978   0.139463   0.139465
    444          3.559961        3.559959  -0.002326  -0.002321
    445          3.559970        3.559967  -0.002344  -0.002339
    446          3.673862        3.673865  -0.008211  -0.008211
    447          3.674037        3.674040  -0.008165  -0.008165
    448          3.762247        3.762247  -0.000184  -0.000184
    449          3.797717        3.797718  -0.000024  -0.000024
    450          3.800507        3.800508  -0.000021  -0.000021
    451          3.800612        3.800612  -0.000020  -0.000020
    452          3.874111        3.874108  -0.000000  -0.000000
    453          3.874230        3.874227  -0.000000  -0.000000
    454          3.906435        3.906436  -0.000000  -0.000000
    455          3.962337        3.962337  -0.000000  -0.000000
    456          3.966052        3.966053  -0.000000  -0.000000
    457          3.973660        3.973660  -0.000000  -0.000000
    458          3.981770        3.981770  -0.000000  -0.000000
    459          3.981838        3.981838  -0.000000  -0.000000
    460          3.986032        3.986032  -0.000000  -0.000000
    461          3.995854        3.995853  -0.000000  -0.000000
    462          4.070902        4.070902  -0.000000  -0.000000
    463          4.098176        4.098175  -0.000000  -0.000000
    464          4.102351        4.102351  -0.000000  -0.000000
    465          4.233111        4.233111  -0.000000  -0.000000
    466          4.236405        4.236407  -0.000000  -0.000000
    467          4.236603        4.236605  -0.000000  -0.000000
    468          4.296370        4.296370  -0.000000  -0.000000
    469          4.296523        4.296522  -0.000000  -0.000000
    470          4.364410        4.364410  -0.000000  -0.000000
    471          4.382875        4.382874  -0.000000  -0.000000
    472          4.419650        4.419650  -0.000000  -0.000000
    473          4.427088        4.427086  -0.000000  -0.000000
    474          4.427319        4.427317  -0.000000  -0.000000
    475          4.433297        4.433297  -0.000000  -0.000000
    476          4.448598        4.448599  -0.000000  -0.000000
    477          4.448827        4.448828  -0.000000  -0.000000
    478          4.513920        4.513919  -0.000000  -0.000000
    479          4.513965        4.513964  -0.000000  -0.000000
    480          4.546477        4.546478  -0.000000  -0.000000
    481          4.592586        4.592586  -0.000000  -0.000000
    482          4.592744        4.592744  -0.000000  -0.000000
    483          4.614619        4.614620  -0.000000  -0.000000
    484          4.663535        4.663535  -0.000000  -0.000000
    485          4.699924        4.699924  -0.000000  -0.000000
    486          4.700016        4.700016  -0.000000  -0.000000
    487          4.714108        4.714108  -0.000000  -0.000000
    488          4.714199        4.714198  -0.000000  -0.000000
    489          4.739095        4.739095  -0.000000  -0.000000
    490          4.739221        4.739221  -0.000000  -0.000000
    491          4.804928        4.804928  -0.000000  -0.000000
    492          4.805036        4.805036  -0.000000  -0.000000
    493          4.848893        4.848891  -0.000000  -0.000000
    494          4.849070        4.849068  -0.000000  -0.000000
    495          4.873014        4.873014  -0.000000  -0.000000
    496          4.873240        4.873240  -0.000000  -0.000000
    497          4.890980        4.890980  -0.000000  -0.000000
    498          4.897920        4.897923  -0.000000  -0.000000
    499          4.898011        4.898014  -0.000000  -0.000000
    500          4.922524        4.922523  -0.000000  -0.000000
    501          4.924656        4.924657  -0.000000  -0.000000
    502          5.012053        5.012054  -0.000000  -0.000000
    503          5.012188        5.012189  -0.000000  -0.000000
    504          5.072899        5.072899  -0.000000  -0.000000
    505          5.072976        5.072977  -0.000000  -0.000000
    506          5.086647        5.086647  -0.000000  -0.000000
    507          5.169142        5.169143  -0.000000  -0.000000
    508          5.188575        5.188575  -0.000000  -0.000000
    509          5.198206        5.198207  -0.000000  -0.000000
    510          5.198218        5.198218  -0.000000  -0.000000
    511          5.243350        5.243350  -0.000000  -0.000000
    512          5.243445        5.243445  -0.000000  -0.000000
    513          5.244544        5.244544  -0.000000  -0.000000
    514          5.273023        5.273024  -0.000000  -0.000000
    515          5.275867        5.275869  -0.000000  -0.000000
    516          5.275890        5.275892  -0.000000  -0.000000
    517          5.291333        5.291333  -0.000000  -0.000000
    518          5.291385        5.291385  -0.000000  -0.000000
    519          5.323452        5.323454  -0.000000  -0.000000
    520          5.347417        5.347417  -0.000000  -0.000000
    521          5.347441        5.347441  -0.000000  -0.000000
    522          5.384424        5.384424  -0.000000  -0.000000
    523          5.391345        5.391346  -0.000000  -0.000000
    524          5.391368        5.391368  -0.000000  -0.000000
    525          5.490375        5.490373  -0.000000  -0.000000
    526          5.578351        5.578351  -0.000000  -0.000000
    527          5.578482        5.578483  -0.000000  -0.000000
    528          5.578710        5.578710  -0.000000  -0.000000
    529          5.583849        5.583849  -0.000000  -0.000000
    530          5.589817        5.589817  -0.000000  -0.000000
    531          5.589896        5.589895  -0.000000  -0.000000
    532          5.610600        5.610602  -0.000000  -0.000000
    533          5.627654        5.627654  -0.000000  -0.000000
    534          5.643469        5.643468  -0.000000  -0.000000
    535          5.643634        5.643633  -0.000000  -0.000000
    536          5.665257        5.665257  -0.000000  -0.000000
    537          5.665367        5.665368  -0.000000  -0.000000
    538          5.679984        5.679985  -0.000000  -0.000000
    539          5.680032        5.680033  -0.000000  -0.000000
    540          5.685076        5.685077  -0.000000  -0.000000
    541          5.738844        5.738844  -0.000000  -0.000000
    542          5.738892        5.738893  -0.000000  -0.000000
    543          5.787582        5.787583  -0.000000  -0.000000
    544          5.790540        5.790540  -0.000000  -0.000000
    545          5.791395        5.791395  -0.000000  -0.000000
    546          5.791395        5.791396  -0.000000  -0.000000
    547          5.797379        5.797378  -0.000000  -0.000000
    548          5.797528        5.797527  -0.000000  -0.000000
    549          5.832668        5.832668  -0.000000  -0.000000
    550          5.832708        5.832708  -0.000000  -0.000000
    551          5.925126        5.925126  -0.000000  -0.000000
    552          5.925165        5.925166  -0.000000  -0.000000
    553          5.949724        5.949724  -0.000000  -0.000000
    554          5.949730        5.949730  -0.000000  -0.000000
    555          5.955538        5.955538  -0.000000  -0.000000
    556          5.955545        5.955546  -0.000000  -0.000000
    557          5.996155        5.996155  -0.000000  -0.000000
    558          5.996234        5.996234  -0.000000  -0.000000
    559          6.199985        6.199985  -0.000000  -0.000000
    560          6.200012        6.200013  -0.000000  -0.000000
    561          6.201346        6.201347  -0.000000  -0.000000
    562          6.272703        6.272702   0.000000   0.000000
    563          6.276535        6.276535   0.000000   0.000000
    564          6.276650        6.276651   0.000000   0.000000
    565          6.340955        6.340956   0.000000   0.000000
    566          6.341086        6.341087   0.000000   0.000000
    567          6.391102        6.391102   0.000000   0.000000
    568          6.391144        6.391144   0.000000   0.000000
    569          6.407151        6.407151   0.000000   0.000000
    570          6.407275        6.407275   0.000000   0.000000
    571          6.407363        6.407362   0.000000   0.000000
    572          6.455315        6.455315   0.000000   0.000000
    573          6.495762        6.495763   0.000000   0.000000
    574          6.499429        6.499430   0.000000   0.000000
    575          6.657931        6.657945   0.000000   0.000000
    576          6.675869        6.675873   0.000000   0.000000
    577          6.844527        6.844528   0.000000   0.000000
    578          6.867133        6.867133   0.000000   0.000000
    579          6.955136        6.955136   0.000000   0.000000
    580          6.971118        6.971119   0.000000   0.000000
    581          6.971254        6.971254   0.000000   0.000000
    582          6.971869        6.971870   0.000000   0.000000
    583          6.971885        6.971885   0.000000   0.000000
    584          7.049956        7.049956   0.000000   0.000000
    585          7.051373        7.051374   0.000000   0.000000
    586          7.051411        7.051412   0.000000   0.000000
    587          7.096506        7.096506   0.000000   0.000000
    588          7.096568        7.096568   0.000000   0.000000
    589          7.108787        7.108787   0.000000   0.000000
    590          7.304724        7.305340   0.000000   0.000000
    591          7.317430        7.317428   0.000000   0.000000
    592          7.317487        7.317485   0.000000   0.000000
    593          7.338702        7.338702   0.000000   0.000000
    594          7.349582        7.349437   0.000000   0.000000
    595          7.457353        7.457353   0.000000   0.000000
    596          7.662085        7.662086   0.000000   0.000000
    597          7.684494        7.684493   0.000000   0.000000
    598          7.684643        7.684643   0.000000   0.000000
    599          7.748313        7.748313   0.000000   0.000000
    600          7.805668        7.805669   0.000000   0.000000
    601          7.872277        7.872298   0.000000   0.000000
    602          7.872385        7.872406   0.000000   0.000000
    603          7.914263        7.914319   0.000000   0.000000
    604          7.925190        7.925191   0.000000   0.000000
    605          7.938146        7.938147   0.000000   0.000000
    606          8.024916        8.024916   0.000000   0.000000
    607          8.025031        8.025031   0.000000   0.000000
    608          8.114628        8.115022   0.000000   0.000000
    609          8.299340        8.299339   0.000000   0.000000
    610          8.504418        8.504349   0.000000   0.000000
    611          8.570102        8.570115   0.000000   0.000000
    612          8.572091        8.572091   0.000000   0.000000
    613          8.572205        8.572205   0.000000   0.000000
    614          8.585282        8.585293   0.000000   0.000000
    615          8.585453        8.585465   0.000000   0.000000
    616          8.653096        8.653114   0.000000   0.000000
    617          8.653106        8.653124   0.000000   0.000000
    618          8.749513        8.750140   0.000000   0.000000
    619          8.958879        8.959261   0.000000   0.000000
    620          8.958954        8.959332   0.000000   0.000000
    621          9.126004        9.126014   0.000000   0.000000
    622          9.126485        9.126495   0.000000   0.000000
    623          9.173869        9.173958   0.000000   0.000000
    624          9.173946        9.174035   0.000000   0.000000
    625          9.267493        9.267550   0.000000   0.000000
    626          9.333521        9.333522   0.000000   0.000000
    627          9.333641        9.333641   0.000000   0.000000
    628          9.532015        9.532527   0.000000   0.000000
    629          9.667131        9.667385   0.000000   0.000000
    630          9.864430        9.864527   0.000000   0.000000
    631          9.864601        9.864698   0.000000   0.000000
    632          9.911124        9.911107   0.000000   0.000000
    633          9.911392        9.911375   0.000000   0.000000
    634          9.970697        9.970874   0.000000   0.000000
    635          9.976834        9.976720   0.000000   0.000000
    636          9.976905        9.976792   0.000000   0.000000
    637          9.980409        9.980415   0.000000   0.000000
    638          9.980485        9.980490   0.000000   0.000000
    639         10.058495       10.058822   0.000000   0.000000
    640         10.058705       10.059029   0.000000   0.000000
    641         10.161665       10.162035   0.000000   0.000000
    642         10.161775       10.162140   0.000000   0.000000
    643         10.175308       10.175615   0.000000   0.000000
    644         10.175503       10.175808   0.000000   0.000000
    645         10.189400       10.189410   0.000000   0.000000
    646         10.254533       10.254542   0.000000   0.000000
    647         10.254642       10.254651   0.000000   0.000000
    648         10.451530       10.451470   0.000000   0.000000
    649         10.596575       10.597032   0.000000   0.000000
    650         10.806161       10.806283   0.000000   0.000000
    651         10.806266       10.806386   0.000000   0.000000
    652         10.811252       10.811301   0.000000   0.000000
    653         10.811379       10.811427   0.000000   0.000000
    654         10.892864       10.893234   0.000000   0.000000
    655         11.080455       11.080513   0.000000   0.000000
    656         11.154781       11.154777   0.000000   0.000000
    657         11.154949       11.154945   0.000000   0.000000
    658         11.237178       11.237149   0.000000   0.000000
    659         11.337920       11.337991   0.000000   0.000000
    660         11.337960       11.338031   0.000000   0.000000
    661         11.428139       11.428174   0.000000   0.000000
    662         11.428186       11.428219   0.000000   0.000000
    663         11.476543       11.476961   0.000000   0.000000
    664         11.476581       11.476996   0.000000   0.000000
    665         11.576870       11.576944   0.000000   0.000000
    666         11.576937       11.577011   0.000000   0.000000
    667         11.579569       11.579995   0.000000   0.000000
    668         11.583203       11.583393   0.000000   0.000000
    669         11.831764       11.832057   0.000000   0.000000
    670         11.831855       11.832145   0.000000   0.000000
    671         11.889901       11.890220   0.000000   0.000000
    672         11.889919       11.890235   0.000000   0.000000
    673         11.973286       11.973538   0.000000   0.000000
    674         12.018569       12.018669   0.000000   0.000000
    675         12.018662       12.018762   0.000000   0.000000
    676         12.193367       12.193371   0.000000   0.000000
    677         12.193430       12.193435   0.000000   0.000000
    678         12.338609       12.338817   0.000000   0.000000
    679         12.478922       12.478983   0.000000   0.000000
    680         12.478991       12.479051   0.000000   0.000000
    681         12.618129       12.618281   0.000000   0.000000
    682         12.618135       12.618285   0.000000   0.000000
    683         12.729100       12.728771   0.000000   0.000000
    684         12.743548       12.743620   0.000000   0.000000
    685         12.743644       12.743670   0.000000   0.000000
    686         12.751133       12.751133   0.000000   0.000000
    687         12.915784       12.933244   0.000000   0.000000
 
  0.5000000E+00  0.0000000E+00  0.0000000E+00  0.1250000E+00
      1        -57.702872      -57.702872   1.000000   1.000000
      2        -57.702861      -57.702862   1.000000   1.000000
      3        -57.640824      -57.640824   1.000000   1.000000
      4        -57.640813      -57.640813   1.000000   1.000000
      5        -57.621351      -57.621351   1.000000   1.000000
      6        -57.621337      -57.621337   1.000000   1.000000
      7        -57.621319      -57.621319   1.000000   1.000000
      8        -57.621315      -57.621315   1.000000   1.000000
      9        -57.588062      -57.588062   1.000000   1.000000
     10        -57.586835      -57.586835   1.000000   1.000000
     11        -57.586829      -57.586828   1.000000   1.000000
     12        -57.586823      -57.586823   1.000000   1.000000
     13        -57.586823      -57.586823   1.000000   1.000000
     14        -57.573152      -57.573152   1.000000   1.000000
     15        -57.573137      -57.573137   1.000000   1.000000
     16        -57.569870      -57.569869   1.000000   1.000000
     17        -57.555273      -57.555272   1.000000   1.000000
     18        -57.555270      -57.555270   1.000000   1.000000
     19        -57.485245      -57.485245   1.000000   1.000000
     20        -57.485206      -57.485206   1.000000   1.000000
     21        -57.463152      -57.463151   1.000000   1.000000
     22        -57.457517      -57.457517   1.000000   1.000000
     23        -57.457503      -57.457503   1.000000   1.000000
     24        -57.457467      -57.457467   1.000000   1.000000
     25        -57.457451      -57.457451   1.000000   1.000000
     26        -57.452526      -57.452526   1.000000   1.000000
     27        -57.452501      -57.452501   1.000000   1.000000
     28        -57.448326      -57.448326   1.000000   1.000000
     29        -57.448290      -57.448290   1.000000   1.000000
     30        -57.428595      -57.428595   1.000000   1.000000
     31        -57.428593      -57.428593   1.000000   1.000000
     32        -57.428586      -57.428586   1.000000   1.000000
     33        -57.428583      -57.428583   1.000000   1.000000
     34        -57.428174      -57.428174   1.000000   1.000000
     35        -57.418333      -57.418333   1.000000   1.000000
     36        -57.413016      -57.413017   1.000000   1.000000
     37        -57.413015      -57.413015   1.000000   1.000000
     38        -57.403242      -57.403242   1.000000   1.000000
     39        -57.403229      -57.403229   1.000000   1.000000
     40        -57.400150      -57.400150   1.000000   1.000000
     41        -57.400146      -57.400146   1.000000   1.000000
     42        -57.400142      -57.400142   1.000000   1.000000
     43        -57.400142      -57.400142   1.000000   1.000000
     44        -57.357265      -57.357265   1.000000   1.000000
     45        -57.357262      -57.357262   1.000000   1.000000
     46        -57.260690      -57.260692   1.000000   1.000000
     47        -57.251278      -57.251280   1.000000   1.000000
     48        -57.250889      -57.250891   1.000000   1.000000
     49        -57.250877      -57.250879   1.000000   1.000000
     50        -57.250601      -57.250603   1.000000   1.000000
     51        -57.246944      -57.246946   1.000000   1.000000
     52        -57.246585      -57.246587   1.000000   1.000000
     53        -57.237223      -57.237225   1.000000   1.000000
     54        -57.236912      -57.236914   1.000000   1.000000
     55        -57.160732      -57.160730   1.000000   1.000000
     56        -57.145985      -57.145983   1.000000   1.000000
     57        -57.145948      -57.145945   1.000000   1.000000
     58        -57.142029      -57.142026   1.000000   1.000000
     59        -57.141994      -57.141991   1.000000   1.000000
     60        -57.141977      -57.141975   1.000000   1.000000
     61        -57.141928      -57.141926   1.000000   1.000000
     62        -57.109012      -57.109011   1.000000   1.000000
     63        -57.108988      -57.108986   1.000000   1.000000
     64        -32.328683      -32.328683   1.000000   1.000000
     65        -32.295357      -32.295356   1.000000   1.000000
     66        -32.231683      -32.231683   1.000000   1.000000
     67        -32.231654      -32.231654   1.000000   1.000000
     68        -32.230499      -32.230499   1.000000   1.000000
     69        -32.230469      -32.230469   1.000000   1.000000
     70        -32.193047      -32.193047   1.000000   1.000000
     71        -32.193044      -32.193044   1.000000   1.000000
     72        -32.193024      -32.193024   1.000000   1.000000
     73        -32.193021      -32.193021   1.000000   1.000000
     74        -32.164232      -32.164232   1.000000   1.000000
     75        -32.164219      -32.164219   1.000000   1.000000
     76        -32.164190      -32.164191   1.000000   1.000000
     77        -32.164180      -32.164180   1.000000   1.000000
     78        -32.152040      -32.152040   1.000000   1.000000
     79        -32.149715      -32.149715   1.000000   1.000000
     80        -32.149657      -32.149656   1.000000   1.000000
     81        -32.134037      -32.134037   1.000000   1.000000
     82        -32.133984      -32.133984   1.000000   1.000000
     83        -32.105368      -32.105368   1.000000   1.000000
     84        -32.105357      -32.105357   1.000000   1.000000
     85        -32.105344      -32.105344   1.000000   1.000000
     86        -32.105340      -32.105340   1.000000   1.000000
     87        -32.090659      -32.090659   1.000000   1.000000
     88        -32.080220      -32.080219   1.000000   1.000000
     89        -32.080215      -32.080215   1.000000   1.000000
     90        -32.058698      -32.058698   1.000000   1.000000
     91        -32.058680      -32.058680   1.000000   1.000000
     92        -32.057963      -32.057963   1.000000   1.000000
     93        -32.057879      -32.057879   1.000000   1.000000
     94        -32.042806      -32.042806   1.000000   1.000000
     95        -32.042797      -32.042797   1.000000   1.000000
     96        -32.042765      -32.042765   1.000000   1.000000
     97        -32.042762      -32.042762   1.000000   1.000000
     98        -31.963429      -31.963429   1.000000   1.000000
     99        -31.963405      -31.963405   1.000000   1.000000
    100        -31.919601      -31.919601   1.000000   1.000000
    101        -31.919588      -31.919588   1.000000   1.000000
    102        -31.919564      -31.919564   1.000000   1.000000
    103        -31.919560      -31.919559   1.000000   1.000000
    104        -31.916050      -31.916050   1.000000   1.000000
    105        -31.916003      -31.916003   1.000000   1.000000
    106        -31.889096      -31.889096   1.000000   1.000000
    107        -31.889066      -31.889066   1.000000   1.000000
    108        -31.872090      -31.872090   1.000000   1.000000
    109        -31.864044      -31.864044   1.000000   1.000000
    110        -31.864034      -31.864034   1.000000   1.000000
    111        -31.825836      -31.825836   1.000000   1.000000
    112        -31.825790      -31.825790   1.000000   1.000000
    113        -31.825785      -31.825785   1.000000   1.000000
    114        -31.825728      -31.825727   1.000000   1.000000
    115        -31.815751      -31.815751   1.000000   1.000000
    116        -31.815576      -31.815576   1.000000   1.000000
    117        -31.757668      -31.757668   1.000000   1.000000
    118        -31.757658      -31.757658   1.000000   1.000000
    119        -31.753289      -31.753289   1.000000   1.000000
    120        -31.751169      -31.751169   1.000000   1.000000
    121        -31.751127      -31.751127   1.000000   1.000000
    122        -31.751099      -31.751098   1.000000   1.000000
    123        -31.751064      -31.751063   1.000000   1.000000
    124        -31.716762      -31.716762   1.000000   1.000000
    125        -31.716717      -31.716717   1.000000   1.000000
    126        -31.716680      -31.716680   1.000000   1.000000
    127        -31.716636      -31.716636   1.000000   1.000000
    128        -31.711192      -31.711192   1.000000   1.000000
    129        -31.711141      -31.711141   1.000000   1.000000
    130        -31.686212      -31.686212   1.000000   1.000000
    131        -31.686191      -31.686191   1.000000   1.000000
    132        -31.680843      -31.680843   1.000000   1.000000
    133        -31.680802      -31.680802   1.000000   1.000000
    134        -31.641208      -31.641208   1.000000   1.000000
    135        -31.641195      -31.641195   1.000000   1.000000
    136        -31.641191      -31.641191   1.000000   1.000000
    137        -31.641161      -31.641161   1.000000   1.000000
    138        -31.624279      -31.624279   1.000000   1.000000
    139        -31.605354      -31.605354   1.000000   1.000000
    140        -31.605345      -31.605345   1.000000   1.000000
    141        -31.567535      -31.567535   1.000000   1.000000
    142        -31.567475      -31.567476   1.000000   1.000000
    143        -31.559960      -31.559960   1.000000   1.000000
    144        -31.552256      -31.552256   1.000000   1.000000
    145        -31.552252      -31.552252   1.000000   1.000000
    146        -31.550338      -31.550338   1.000000   1.000000
    147        -31.550319      -31.550319   1.000000   1.000000
    148        -31.534232      -31.534232   1.000000   1.000000
    149        -31.530500      -31.530500   1.000000   1.000000
    150        -31.530453      -31.530454   1.000000   1.000000
    151        -31.513473      -31.513473   1.000000   1.000000
    152        -31.513457      -31.513457   1.000000   1.000000
    153        -31.513414      -31.513414   1.000000   1.000000
    154        -31.513413      -31.513413   1.000000   1.000000
    155        -31.507470      -31.507470   1.000000   1.000000
    156        -31.507410      -31.507410   1.000000   1.000000
    157        -31.484681      -31.484682   1.000000   1.000000
    158        -31.480175      -31.480175   1.000000   1.000000
    159        -31.480134      -31.480133   1.000000   1.000000
    160        -31.480127      -31.480127   1.000000   1.000000
    161        -31.480101      -31.480101   1.000000   1.000000
    162        -31.459513      -31.459513   1.000000   1.000000
    163        -31.459480      -31.459480   1.000000   1.000000
    164        -31.447331      -31.447330   1.000000   1.000000
    165        -31.437176      -31.437176   1.000000   1.000000
    166        -31.412484      -31.412484   1.000000   1.000000
    167        -31.412429      -31.412429   1.000000   1.000000
    168        -31.410474      -31.410476   1.000000   1.000000
    169        -31.410233      -31.410236   1.000000   1.000000
    170        -31.402038      -31.402038   1.000000   1.000000
    171        -31.393643      -31.393643   1.000000   1.000000
    172        -31.393639      -31.393639   1.000000   1.000000
    173        -31.393570      -31.393570   1.000000   1.000000
    174        -31.393564      -31.393564   1.000000   1.000000
    175        -31.327342      -31.327339   1.000000   1.000000
    176        -31.327334      -31.327331   1.000000   1.000000
    177        -31.323308      -31.323308   1.000000   1.000000
    178        -31.323249      -31.323249   1.000000   1.000000
    179        -31.303939      -31.303940   1.000000   1.000000
    180        -31.303871      -31.303872   1.000000   1.000000
    181        -31.303865      -31.303865   1.000000   1.000000
    182        -31.303820      -31.303821   1.000000   1.000000
    183        -31.294001      -31.294001   1.000000   1.000000
    184        -31.293943      -31.293943   1.000000   1.000000
    185        -31.258829      -31.258830   1.000000   1.000000
    186        -31.250335      -31.250336   1.000000   1.000000
    187        -31.250270      -31.250271   1.000000   1.000000
    188        -31.250187      -31.250188   1.000000   1.000000
    189        -31.250136      -31.250137   1.000000   1.000000
    190        -31.224165      -31.224165   1.000000   1.000000
    191        -31.224108      -31.224109   1.000000   1.000000
    192        -31.222814      -31.222815   1.000000   1.000000
    193        -31.222751      -31.222751   1.000000   1.000000
    194        -31.219665      -31.219665   1.000000   1.000000
    195        -31.216230      -31.216230   1.000000   1.000000
    196        -31.216211      -31.216211   1.000000   1.000000
    197        -31.216196      -31.216196   1.000000   1.000000
    198        -31.216187      -31.216187   1.000000   1.000000
    199        -31.193201      -31.193202   1.000000   1.000000
    200        -31.193176      -31.193176   1.000000   1.000000
    201        -31.191490      -31.191490   1.000000   1.000000
    202        -31.191454      -31.191454   1.000000   1.000000
    203        -31.181820      -31.181819   1.000000   1.000000
    204        -31.181816      -31.181815   1.000000   1.000000
    205        -31.181807      -31.181806   1.000000   1.000000
    206        -31.181806      -31.181805   1.000000   1.000000
    207        -31.172026      -31.172028   1.000000   1.000000
    208        -31.141116      -31.141116   1.000000   1.000000
    209        -31.141103      -31.141103   1.000000   1.000000
    210        -31.141093      -31.141092   1.000000   1.000000
    211        -31.141073      -31.141072   1.000000   1.000000
    212        -31.130407      -31.130408   1.000000   1.000000
    213        -31.130345      -31.130345   1.000000   1.000000
    214        -31.118321      -31.118322   1.000000   1.000000
    215        -31.118169      -31.118169   1.000000   1.000000
    216        -31.115382      -31.115380   1.000000   1.000000
    217        -31.114923      -31.114923   1.000000   1.000000
    218        -31.089494      -31.089495   1.000000   1.000000
    219        -31.089351      -31.089351   1.000000   1.000000
    220        -31.089100      -31.089101   1.000000   1.000000
    221        -31.088911      -31.088911   1.000000   1.000000
    222        -31.088870      -31.088870   1.000000   1.000000
    223        -31.088760      -31.088761   1.000000   1.000000
    224        -31.069628      -31.069629   1.000000   1.000000
    225        -31.069531      -31.069532   1.000000   1.000000
    226        -31.069454      -31.069455   1.000000   1.000000
    227        -31.069396      -31.069397   1.000000   1.000000
    228        -31.057792      -31.057793   1.000000   1.000000
    229        -31.057565      -31.057566   1.000000   1.000000
    230        -31.050947      -31.050948   1.000000   1.000000
    231        -31.043556      -31.043556   1.000000   1.000000
    232        -31.043424      -31.043424   1.000000   1.000000
    233        -31.032175      -31.032175   1.000000   1.000000
    234        -31.032126      -31.032126   1.000000   1.000000
    235        -31.015485      -31.015483   1.000000   1.000000
    236        -30.950110      -30.950108   1.000000   1.000000
    237        -30.950069      -30.950068   1.000000   1.000000
    238        -30.950066      -30.950065   1.000000   1.000000
    239        -30.950015      -30.950014   1.000000   1.000000
    240        -30.941464      -30.941463   1.000000   1.000000
    241        -30.941435      -30.941433   1.000000   1.000000
    242        -30.919184      -30.919183   1.000000   1.000000
    243        -30.919184      -30.919183   1.000000   1.000000
    244        -30.918912      -30.918910   1.000000   1.000000
    245        -30.918896      -30.918895   1.000000   1.000000
    246        -30.918872      -30.918871   1.000000   1.000000
    247        -30.918860      -30.918859   1.000000   1.000000
    248        -30.918201      -30.918200   1.000000   1.000000
    249        -30.915758      -30.915757   1.000000   1.000000
    250        -30.915743      -30.915741   1.000000   1.000000
    251        -30.897331      -30.897330   1.000000   1.000000
    252        -30.897313      -30.897311   1.000000   1.000000
    253         -2.713559       -2.713559   1.000000   1.000000
    254         -2.713548       -2.713548   1.000000   1.000000
    255         -1.883367       -1.883367   1.000000   1.000000
    256         -1.883349       -1.883349   1.000000   1.000000
    257         -1.512112       -1.512112   1.000000   1.000000
    258         -1.450373       -1.450373   1.000000   1.000000
    259         -1.267259       -1.267258   1.000000   1.000000
    260         -1.267236       -1.267235   1.000000   1.000000
    261         -1.157299       -1.157299   1.000000   1.000000
    262         -1.157297       -1.157296   1.000000   1.000000
    263         -1.157275       -1.157275   1.000000   1.000000
    264         -1.157264       -1.157264   1.000000   1.000000
    265         -1.037326       -1.037326   1.000000   1.000000
    266         -1.037318       -1.037318   1.000000   1.000000
    267         -1.037039       -1.037039   1.000000   1.000000
    268         -1.036968       -1.036968   1.000000   1.000000
    269         -0.975934       -0.975934   1.000000   1.000000
    270         -0.972340       -0.972340   1.000000   1.000000
    271         -0.972291       -0.972291   1.000000   1.000000
    272         -0.902777       -0.902777   1.000000   1.000000
    273         -0.902731       -0.902731   1.000000   1.000000
    274         -0.845846       -0.845846   1.000000   1.000000
    275         -0.845844       -0.845843   1.000000   1.000000
    276         -0.841565       -0.841565   1.000000   1.000000
    277         -0.841548       -0.841548   1.000000   1.000000
    278         -0.841522       -0.841522   1.000000   1.000000
    279         -0.841504       -0.841503   1.000000   1.000000
    280         -0.821762       -0.821762   1.000000   1.000000
    281         -0.713146       -0.713146   1.000000   1.000000
    282         -0.713106       -0.713106   1.000000   1.000000
    283         -0.713075       -0.713075   1.000000   1.000000
    284         -0.713020       -0.713020   1.000000   1.000000
    285         -0.385361       -0.385362   1.000000   1.000000
    286         -0.385312       -0.385312   1.000000   1.000000
    287         -0.385289       -0.385289   1.000000   1.000000
    288         -0.385226       -0.385226   1.000000   1.000000
    289         -0.353912       -0.353912   1.000000   1.000000
    290         -0.353828       -0.353828   1.000000   1.000000
    291         -0.330569       -0.330568   1.000000   1.000000
    292         -0.330549       -0.330549   1.000000   1.000000
    293         -0.273909       -0.273909   1.000000   1.000000
    294         -0.203315       -0.203315   1.000000   1.000000
    295         -0.203240       -0.203239   1.000000   1.000000
    296         -0.191244       -0.191244   1.000000   1.000000
    297         -0.191231       -0.191231   1.000000   1.000000
    298         -0.191022       -0.191022   1.000000   1.000000
    299         -0.191019       -0.191019   1.000000   1.000000
    300         -0.165900       -0.165899   1.000000   1.000000
    301         -0.165883       -0.165882   1.000000   1.000000
    302         -0.047567       -0.047568   1.000000   1.000000
    303         -0.047445       -0.047446   1.000000   1.000000
    304          0.033393        0.033393   1.000000   1.000000
    305          0.033419        0.033419   1.000000   1.000000
    306          0.033442        0.033442   1.000000   1.000000
    307          0.033485        0.033485   1.000000   1.000000
    308          0.100908        0.100908   1.000000   1.000000
    309          0.100940        0.100940   1.000000   1.000000
    310          0.136496        0.136496   1.000000   1.000000
    311          0.136575        0.136575   1.000000   1.000000
    312          0.236745        0.236746   1.000000   1.000000
    313          0.236877        0.236878   1.000000   1.000000
    314          0.236877        0.236879   1.000000   1.000000
    315          0.237008        0.237009   1.000000   1.000000
    316          0.301952        0.301953   1.000000   1.000000
    317          0.404594        0.404594   1.000000   1.000000
    318          0.418508        0.418507   1.000000   1.000000
    319          0.424723        0.424723   1.000000   1.000000
    320          0.424746        0.424746   1.000000   1.000000
    321          0.444893        0.444892   1.000000   1.000000
    322          0.444908        0.444907   1.000000   1.000000
    323          0.445035        0.445034   1.000000   1.000000
    324          0.445038        0.445037   1.000000   1.000000
    325          0.480100        0.480100   1.000000   1.000000
    326          0.540078        0.540078   1.000000   1.000000
    327          0.540100        0.540100   1.000000   1.000000
    328          0.540136        0.540136   1.000000   1.000000
    329          0.540163        0.540164   1.000000   1.000000
    330          0.560509        0.560509   1.000000   1.000000
    331          0.560552        0.560552   1.000000   1.000000
    332          0.601791        0.601791   1.000000   1.000000
    333          0.601899        0.601899   1.000000   1.000000
    334          0.622485        0.622486   1.000000   1.000000
    335          0.622651        0.622652   1.000000   1.000000
    336          0.669387        0.669387   1.000000   1.000000
    337          0.669403        0.669404   1.000000   1.000000
    338          0.680061        0.680061   1.000000   1.000000
    339          0.680135        0.680135   1.000000   1.000000
    340          0.680170        0.680170   1.000000   1.000000
    341          0.680230        0.680230   1.000000   1.000000
    342          0.776475        0.776475   1.000000   1.000000
    343          0.776558        0.776558   1.000000   1.000000
    344          0.789336        0.789336   1.000000   1.000000
    345          0.789404        0.789404   1.000000   1.000000
    346          0.789477        0.789477   1.000000   1.000000
    347          0.789532        0.789532   1.000000   1.000000
    348          0.828130        0.828130   1.000000   1.000000
    349          0.828260        0.828260   1.000000   1.000000
    350          1.009516        1.009516   1.000000   1.000000
    351          1.038406        1.038406   1.000000   1.000000
    352          1.046510        1.046510   1.000000   1.000000
    353          1.046595        1.046596   1.000000   1.000000
    354          1.046633        1.046633   1.000000   1.000000
    355          1.046705        1.046705   1.000000   1.000000
    356          1.175008        1.175008   1.000000   1.000000
    357          1.175047        1.175047   1.000000   1.000000
    358          1.175105        1.175106   1.000000   1.000000
    359          1.175164        1.175165   1.000000   1.000000
    360          1.178259        1.178259   1.000000   1.000000
    361          1.197983        1.197983   1.000000   1.000000
    362          1.387237        1.387237   1.000000   1.000000
    363          1.387322        1.387322   1.000000   1.000000
    364          1.387324        1.387324   1.000000   1.000000
    365          1.387409        1.387409   1.000000   1.000000
    366          1.440695        1.440695   1.000000   1.000000
    367          1.440743        1.440743   1.000000   1.000000
    368          1.485025        1.485025   1.000000   1.000000
    369          1.485045        1.485046   1.000000   1.000000
    370          1.487657        1.487657   1.000000   1.000000
    371          1.487771        1.487771   1.000000   1.000000
    372          1.572066        1.572065   1.000000   1.000000
    373          1.572106        1.572105   1.000000   1.000000
    374          1.572145        1.572145   1.000000   1.000000
    375          1.572190        1.572190   1.000000   1.000000
    376          1.605621        1.605621   1.000000   1.000000
    377          1.605646        1.605646   1.000000   1.000000
    378          1.631455        1.631455   1.000000   1.000000
    379          1.631481        1.631482   1.000000   1.000000
    380          1.808464        1.808464   1.000000   1.000000
    381          1.880756        1.880756   1.000000   1.000000
    382          1.880764        1.880764   1.000000   1.000000
    383          1.922195        1.922195   1.000000   1.000000
    384          1.922197        1.922197   1.000000   1.000000
    385          1.922247        1.922247   1.000000   1.000000
    386          1.922267        1.922267   1.000000   1.000000
    387          1.953421        1.953422   1.000000   1.000000
    388          1.953427        1.953427   1.000000   1.000000
    389          1.996433        1.996433   1.000000   1.000000
    390          1.996441        1.996442   1.000000   1.000000
    391          2.022008        2.022008   1.000000   1.000000
    392          2.022487        2.022487   1.000000   1.000000
    393          2.022531        2.022531   1.000000   1.000000
    394          2.022560        2.022560   1.000000   1.000000
    395          2.022611        2.022611   1.000000   1.000000
    396          2.043239        2.043240   1.000000   1.000000
    397          2.043271        2.043271   1.000000   1.000000
    398          2.070480        2.070480   1.000000   1.000000
    399          2.070495        2.070496   1.000000   1.000000
    400          2.125990        2.125990   1.000000   1.000000
    401          2.205442        2.205442   1.000000   1.000000
    402          2.205556        2.205556   1.000000   1.000000
    403          2.236243        2.236243   1.000000   1.000000
    404          2.236271        2.236271   1.000000   1.000000
    405          2.236382        2.236382   1.000000   1.000000
    406          2.236411        2.236411   1.000000   1.000000
    407          2.291960        2.291960   1.000000   1.000000
    408          2.291987        2.291987   1.000000   1.000000
    409          2.404244        2.404244   1.000000   1.000000
    410          2.586045        2.586045   1.000000   1.000000
    411          2.586153        2.586153   1.000000   1.000000
    412          2.706324        2.706324   1.000000   1.000000
    413          2.706377        2.706377   1.000000   1.000000
    414          2.717724        2.717724   1.000000   1.000000
    415          2.717767        2.717768   1.000000   1.000000
    416          2.717819        2.717819   1.000000   1.000000
    417          2.717857        2.717857   1.000000   1.000000
    418          2.792315        2.792313   1.000000   1.000000
    419          2.792420        2.792417   1.000000   1.000000
    420          2.878285        2.878288   1.000000   1.000000
    421          2.878419        2.878422   1.000000   1.000000
    422          2.895948        2.895946   1.000000   1.000000
    423          2.907453        2.907453   1.000000   1.000000
    424          2.907455        2.907455   1.000000   1.000000
    425          3.037353        3.037356   1.000000   1.000000
    426          3.037435        3.037438   1.000000   1.000000
    427          3.037641        3.037644   1.000000   1.000000
    428          3.037674        3.037676   1.000000   1.000000
    429          3.043264        3.043264   1.000000   1.000000
    430          3.043297        3.043297   1.000000   1.000000
    431          3.122055        3.122056   1.000004   1.000004
    432          3.133167        3.133165   1.000008   1.000008
    433          3.133194        3.133192   1.000008   1.000008
    434          3.133277        3.133276   1.000008   1.000008
    435          3.133314        3.133312   1.000008   1.000008
    436          3.259540        3.259540   1.004754   1.004754
    437          3.293865        3.293865   1.014116   1.014115
    438          3.356880        3.356879   1.035101   1.035101
    439          3.356888        3.356886   1.035100   1.035100
    440          3.357038        3.357037   1.035076   1.035076
    441          3.357045        3.357044   1.035075   1.035075
    442          3.579716        3.579716  -0.029586  -0.029586
    443          3.579851        3.579851  -0.029685  -0.029686
    444          3.579860        3.579860  -0.029692  -0.029693
    445          3.579989        3.579989  -0.029786  -0.029787
    446          3.627499        3.627497  -0.026384  -0.026385
    447          3.627604        3.627601  -0.026336  -0.026338
    448          3.679151        3.679154  -0.006904  -0.006903
    449          3.679325        3.679327  -0.006863  -0.006863
    450          3.725903        3.725903  -0.001097  -0.001097
    451          3.748457        3.748459  -0.000375  -0.000375
    452          3.748650        3.748652  -0.000372  -0.000372
    453          3.891833        3.891833  -0.000000  -0.000000
    454          3.891872        3.891871  -0.000000  -0.000000
    455          3.914886        3.914883  -0.000000  -0.000000
    456          3.915015        3.915012  -0.000000  -0.000000
    457          4.036876        4.036876  -0.000000  -0.000000
    458          4.114381        4.114381  -0.000000  -0.000000
    459          4.114426        4.114426  -0.000000  -0.000000
    460          4.148870        4.148869  -0.000000  -0.000000
    461          4.148882        4.148881  -0.000000  -0.000000
    462          4.263934        4.263935  -0.000000  -0.000000
    463          4.264138        4.264139  -0.000000  -0.000000
    464          4.282956        4.282956  -0.000000  -0.000000
    465          4.283014        4.283014  -0.000000  -0.000000
    466          4.283064        4.283064  -0.000000  -0.000000
    467          4.283150        4.283150  -0.000000  -0.000000
    468          4.326314        4.326314  -0.000000  -0.000000
    469          4.521690        4.521690  -0.000000  -0.000000
    470          4.553172        4.553172  -0.000000  -0.000000
    471          4.553210        4.553211  -0.000000  -0.000000
    472          4.553363        4.553364  -0.000000  -0.000000
    473          4.553379        4.553380  -0.000000  -0.000000
    474          4.598969        4.598971  -0.000000  -0.000000
    475          4.598976        4.598978  -0.000000  -0.000000
    476          4.599078        4.599080  -0.000000  -0.000000
    477          4.599263        4.599266  -0.000000  -0.000000
    478          4.610758        4.610755  -0.000000  -0.000000
    479          4.610806        4.610804  -0.000000  -0.000000
    480          4.610960        4.610957  -0.000000  -0.000000
    481          4.610964        4.610961  -0.000000  -0.000000
    482          4.631756        4.631755  -0.000000  -0.000000
    483          4.631853        4.631852  -0.000000  -0.000000
    484          4.652647        4.652645  -0.000000  -0.000000
    485          4.652862        4.652860  -0.000000  -0.000000
    486          4.672455        4.672455  -0.000000  -0.000000
    487          4.805812        4.805813  -0.000000  -0.000000
    488          4.805865        4.805866  -0.000000  -0.000000
    489          4.805936        4.805938  -0.000000  -0.000000
    490          4.805970        4.805972  -0.000000  -0.000000
    491          4.885331        4.885331  -0.000000  -0.000000
    492          4.912678        4.912680  -0.000000  -0.000000
    493          4.912885        4.912887  -0.000000  -0.000000
    494          4.925567        4.925568  -0.000000  -0.000000
    495          4.925609        4.925610  -0.000000  -0.000000
    496          4.925685        4.925686  -0.000000  -0.000000
    497          4.925736        4.925737  -0.000000  -0.000000
    498          4.930563        4.930561  -0.000000  -0.000000
    499          4.930789        4.930787  -0.000000  -0.000000
    500          4.979850        4.979850  -0.000000  -0.000000
    501          4.979897        4.979897  -0.000000  -0.000000
    502          4.979964        4.979964  -0.000000  -0.000000
    503          4.980009        4.980009  -0.000000  -0.000000
    504          5.037776        5.037776  -0.000000  -0.000000
    505          5.037877        5.037876  -0.000000  -0.000000
    506          5.048725        5.048725  -0.000000  -0.000000
    507          5.048831        5.048831  -0.000000  -0.000000
    508          5.093023        5.093023  -0.000000  -0.000000
    509          5.093043        5.093043  -0.000000  -0.000000
    510          5.131170        5.131171  -0.000000  -0.000000
    511          5.179842        5.179843  -0.000000  -0.000000
    512          5.179966        5.179967  -0.000000  -0.000000
    513          5.290411        5.290412  -0.000000  -0.000000
    514          5.290415        5.290416  -0.000000  -0.000000
    515          5.290459        5.290460  -0.000000  -0.000000
    516          5.290468        5.290469  -0.000000  -0.000000
    517          5.305313        5.305313  -0.000000  -0.000000
    518          5.316832        5.316832  -0.000000  -0.000000
    519          5.316858        5.316858  -0.000000  -0.000000
    520          5.390585        5.390585  -0.000000  -0.000000
    521          5.390641        5.390641  -0.000000  -0.000000
    522          5.430744        5.430744  -0.000000  -0.000000
    523          5.444891        5.444891  -0.000000  -0.000000
    524          5.444905        5.444905  -0.000000  -0.000000
    525          5.445036        5.445036  -0.000000  -0.000000
    526          5.445064        5.445064  -0.000000  -0.000000
    527          5.481526        5.481526  -0.000000  -0.000000
    528          5.481564        5.481564  -0.000000  -0.000000
    529          5.585385        5.585385  -0.000000  -0.000000
    530          5.585495        5.585495  -0.000000  -0.000000
    531          5.592326        5.592327  -0.000000  -0.000000
    532          5.592422        5.592422  -0.000000  -0.000000
    533          5.641049        5.641049  -0.000000  -0.000000
    534          5.641159        5.641159  -0.000000  -0.000000
    535          5.677452        5.677452  -0.000000  -0.000000
    536          5.701273        5.701273  -0.000000  -0.000000
    537          5.701292        5.701292  -0.000000  -0.000000
    538          5.701357        5.701357  -0.000000  -0.000000
    539          5.701381        5.701381  -0.000000  -0.000000
    540          5.707028        5.707027  -0.000000  -0.000000
    541          5.721356        5.721356  -0.000000  -0.000000
    542          5.721363        5.721363  -0.000000  -0.000000
    543          5.721382        5.721382  -0.000000  -0.000000
    544          5.721396        5.721396  -0.000000  -0.000000
    545          5.812208        5.812208  -0.000000  -0.000000
    546          5.812210        5.812211  -0.000000  -0.000000
    547          5.825756        5.825756  -0.000000  -0.000000
    548          5.825843        5.825843  -0.000000  -0.000000
    549          5.959328        5.959328  -0.000000  -0.000000
    550          5.959379        5.959379  -0.000000  -0.000000
    551          6.003988        6.003988  -0.000000  -0.000000
    552          6.004020        6.004020  -0.000000  -0.000000
    553          6.004054        6.004053  -0.000000  -0.000000
    554          6.004091        6.004091  -0.000000  -0.000000
    555          6.033251        6.033251  -0.000000  -0.000000
    556          6.033391        6.033391  -0.000000  -0.000000
    557          6.193223        6.193223  -0.000000  -0.000000
    558          6.193266        6.193266  -0.000000  -0.000000
    559          6.290363        6.290363   0.000000   0.000000
    560          6.290371        6.290371   0.000000   0.000000
    561          6.290465        6.290465   0.000000   0.000000
    562          6.290494        6.290494   0.000000   0.000000
    563          6.317992        6.317992   0.000000   0.000000
    564          6.405884        6.405884   0.000000   0.000000
    565          6.405972        6.405973   0.000000   0.000000
    566          6.433230        6.433230   0.000000   0.000000
    567          6.433241        6.433241   0.000000   0.000000
    568          6.433242        6.433242   0.000000   0.000000
    569          6.433248        6.433249   0.000000   0.000000
    570          6.500704        6.500705   0.000000   0.000000
    571          6.523555        6.523555   0.000000   0.000000
    572          6.523761        6.523761   0.000000   0.000000
    573          6.641466        6.641466   0.000000   0.000000
    574          6.641642        6.641642   0.000000   0.000000
    575          6.649932        6.649940   0.000000   0.000000
    576          6.649944        6.649952   0.000000   0.000000
    577          6.760630        6.760630   0.000000   0.000000
    578          6.760641        6.760641   0.000000   0.000000
    579          6.760715        6.760715   0.000000   0.000000
    580          6.760720        6.760720   0.000000   0.000000
    581          6.856334        6.856334   0.000000   0.000000
    582          6.966070        6.966069   0.000000   0.000000
    583          6.968797        6.968797   0.000000   0.000000
    584          6.981656        6.981656   0.000000   0.000000
    585          7.015221        7.015221   0.000000   0.000000
    586          7.015316        7.015316   0.000000   0.000000
    587          7.015333        7.015333   0.000000   0.000000
    588          7.015415        7.015414   0.000000   0.000000
    589          7.028711        7.028711   0.000000   0.000000
    590          7.028784        7.028784   0.000000   0.000000
    591          7.122463        7.122463   0.000000   0.000000
    592          7.122614        7.122615   0.000000   0.000000
    593          7.223220        7.223220   0.000000   0.000000
    594          7.223238        7.223238   0.000000   0.000000
    595          7.371737        7.371737   0.000000   0.000000
    596          7.371841        7.371842   0.000000   0.000000
    597          7.514131        7.514131   0.000000   0.000000
    598          7.514186        7.514187   0.000000   0.000000
    599          7.573261        7.573499   0.000000   0.000000
    600          7.573287        7.573526   0.000000   0.000000
    601          7.621652        7.621883   0.000000   0.000000
    602          7.621666        7.621899   0.000000   0.000000
    603          7.801147        7.801140   0.000000   0.000000
    604          7.835254        7.835257   0.000000   0.000000
    605          7.835324        7.835327   0.000000   0.000000
    606          7.835451        7.835454   0.000000   0.000000
    607          7.835496        7.835499   0.000000   0.000000
    608          7.836246        7.836246   0.000000   0.000000
    609          7.901295        7.901305   0.000000   0.000000
    610          7.980942        7.980942   0.000000   0.000000
    611          8.452171        8.452227   0.000000   0.000000
    612          8.452263        8.452319   0.000000   0.000000
    613          8.452269        8.452325   0.000000   0.000000
    614          8.452343        8.452399   0.000000   0.000000
    615          8.872496        8.872489   0.000000   0.000000
    616          8.872514        8.872507   0.000000   0.000000
    617          8.946215        8.946215   0.000000   0.000000
    618          8.946231        8.946231   0.000000   0.000000
    619          9.033670        9.033670   0.000000   0.000000
    620          9.033814        9.033814   0.000000   0.000000
    621          9.077787        9.078366   0.000000   0.000000
    622          9.077800        9.078383   0.000000   0.000000
    623          9.268797        9.268756   0.000000   0.000000
    624          9.268835        9.268794   0.000000   0.000000
    625          9.268846        9.268805   0.000000   0.000000
    626          9.268880        9.268839   0.000000   0.000000
    627          9.431870        9.432366   0.000000   0.000000
    628          9.431876        9.432371   0.000000   0.000000
    629          9.431954        9.432448   0.000000   0.000000
    630          9.431979        9.432468   0.000000   0.000000
    631          9.709521        9.709545   0.000000   0.000000
    632          9.709523        9.709547   0.000000   0.000000
    633          9.709924        9.709948   0.000000   0.000000
    634          9.709941        9.709965   0.000000   0.000000
    635          9.999683        9.999684   0.000000   0.000000
    636          9.999745        9.999745   0.000000   0.000000
    637         10.247001       10.247031   0.000000   0.000000
    638         10.324270       10.324395   0.000000   0.000000
    639         10.487859       10.487883   0.000000   0.000000
    640         10.487938       10.487962   0.000000   0.000000
    641         10.488025       10.488049   0.000000   0.000000
    642         10.488080       10.488104   0.000000   0.000000
    643         10.599638       10.599641   0.000000   0.000000
    644         10.599761       10.599765   0.000000   0.000000
    645         10.668151       10.668299   0.000000   0.000000
    646         10.668163       10.668312   0.000000   0.000000
    647         10.668291       10.668438   0.000000   0.000000
    648         10.668312       10.668459   0.000000   0.000000
    649         10.684692       10.684698   0.000000   0.000000
    650         10.684838       10.684845   0.000000   0.000000
    651         10.798794       10.799101   0.000000   0.000000
    652         10.798794       10.799103   0.000000   0.000000
    653         10.798847       10.799154   0.000000   0.000000
    654         10.798852       10.799154   0.000000   0.000000
    655         10.883732       10.884113   0.000000   0.000000
    656         10.899200       10.899170   0.000000   0.000000
    657         10.899204       10.899175   0.000000   0.000000
    658         11.052172       11.052632   0.000000   0.000000
    659         11.052187       11.052649   0.000000   0.000000
    660         11.263131       11.263314   0.000000   0.000000
    661         11.349642       11.349655   0.000000   0.000000
    662         11.349660       11.349672   0.000000   0.000000
    663         11.411275       11.411289   0.000000   0.000000
    664         11.411288       11.411302   0.000000   0.000000
    665         11.411387       11.411402   0.000000   0.000000
    666         11.411389       11.411404   0.000000   0.000000
    667         11.618181       11.618745   0.000000   0.000000
    668         11.620839       11.620850   0.000000   0.000000
    669         11.621033       11.621043   0.000000   0.000000
    670         11.627897       11.627903   0.000000   0.000000
    671         11.628114       11.628119   0.000000   0.000000
    672         11.823176       11.823214   0.000000   0.000000
    673         11.823204       11.823242   0.000000   0.000000
    674         12.249199       12.249468   0.000000   0.000000
    675         12.249238       12.249503   0.000000   0.000000
    676         12.249264       12.249533   0.000000   0.000000
    677         12.249271       12.249538   0.000000   0.000000
    678         12.438081       12.438180   0.000000   0.000000
    679         12.438263       12.438350   0.000000   0.000000
    680         12.498574       12.499016   0.000000   0.000000
    681         12.617601       12.617913   0.000000   0.000000
    682         12.617681       12.617986   0.000000   0.000000
    683         12.624038       12.625318   0.000000   0.000000
    684         12.625249       12.625557   0.000000   0.000000
    685         12.625491       12.626624   0.000000   0.000000
    686         12.872208       12.872435   0.000000   0.000000
    687         12.872272       12.872619   0.000000   0.000000
 
  0.2500000E+00  0.2500000E+00  0.0000000E+00  0.2500000E+00
      1        -57.716423      -57.716423   1.000000   1.000000
      2        -57.666755      -57.666755   1.000000   1.000000
      3        -57.666751      -57.666751   1.000000   1.000000
      4        -57.650493      -57.650493   1.000000   1.000000
      5        -57.630554      -57.630554   1.000000   1.000000
      6        -57.615989      -57.615989   1.000000   1.000000
      7        -57.615986      -57.615986   1.000000   1.000000
      8        -57.600298      -57.600298   1.000000   1.000000
      9        -57.600293      -57.600293   1.000000   1.000000
     10        -57.591765      -57.591765   1.000000   1.000000
     11        -57.586174      -57.586174   1.000000   1.000000
     12        -57.586169      -57.586169   1.000000   1.000000
     13        -57.576112      -57.576112   1.000000   1.000000
     14        -57.576110      -57.576109   1.000000   1.000000
     15        -57.571750      -57.571750   1.000000   1.000000
     16        -57.564940      -57.564940   1.000000   1.000000
     17        -57.564938      -57.564938   1.000000   1.000000
     18        -57.553507      -57.553507   1.000000   1.000000
     19        -57.492108      -57.492108   1.000000   1.000000
     20        -57.469361      -57.469361   1.000000   1.000000
     21        -57.469354      -57.469354   1.000000   1.000000
     22        -57.459897      -57.459897   1.000000   1.000000
     23        -57.459892      -57.459892   1.000000   1.000000
     24        -57.457398      -57.457398   1.000000   1.000000
     25        -57.454721      -57.454721   1.000000   1.000000
     26        -57.452606      -57.452605   1.000000   1.000000
     27        -57.452602      -57.452601   1.000000   1.000000
     28        -57.445700      -57.445700   1.000000   1.000000
     29        -57.444806      -57.444806   1.000000   1.000000
     30        -57.444803      -57.444803   1.000000   1.000000
     31        -57.431027      -57.431027   1.000000   1.000000
     32        -57.422932      -57.422932   1.000000   1.000000
     33        -57.422930      -57.422931   1.000000   1.000000
     34        -57.417529      -57.417529   1.000000   1.000000
     35        -57.417527      -57.417527   1.000000   1.000000
     36        -57.414743      -57.414743   1.000000   1.000000
     37        -57.414741      -57.414741   1.000000   1.000000
     38        -57.411076      -57.411076   1.000000   1.000000
     39        -57.411074      -57.411074   1.000000   1.000000
     40        -57.409979      -57.409979   1.000000   1.000000
     41        -57.401156      -57.401156   1.000000   1.000000
     42        -57.392110      -57.392110   1.000000   1.000000
     43        -57.376626      -57.376626   1.000000   1.000000
     44        -57.376626      -57.376626   1.000000   1.000000
     45        -57.350087      -57.350087   1.000000   1.000000
     46        -57.257436      -57.257437   1.000000   1.000000
     47        -57.257368      -57.257369   1.000000   1.000000
     48        -57.250948      -57.250950   1.000000   1.000000
     49        -57.250852      -57.250854   1.000000   1.000000
     50        -57.247701      -57.247703   1.000000   1.000000
     51        -57.244941      -57.244943   1.000000   1.000000
     52        -57.244890      -57.244891   1.000000   1.000000
     53        -57.244372      -57.244374   1.000000   1.000000
     54        -57.233493      -57.233494   1.000000   1.000000
     55        -57.154280      -57.154278   1.000000   1.000000
     56        -57.154274      -57.154272   1.000000   1.000000
     57        -57.148712      -57.148709   1.000000   1.000000
     58        -57.148706      -57.148704   1.000000   1.000000
     59        -57.143202      -57.143200   1.000000   1.000000
     60        -57.136099      -57.136097   1.000000   1.000000
     61        -57.125571      -57.125569   1.000000   1.000000
     62        -57.125562      -57.125560   1.000000   1.000000
     63        -57.102179      -57.102177   1.000000   1.000000
     64        -32.297071      -32.297071   1.000000   1.000000
     65        -32.291286      -32.291286   1.000000   1.000000
     66        -32.291280      -32.291280   1.000000   1.000000
     67        -32.260192      -32.260192   1.000000   1.000000
     68        -32.260192      -32.260192   1.000000   1.000000
     69        -32.251981      -32.251981   1.000000   1.000000
     70        -32.177531      -32.177531   1.000000   1.000000
     71        -32.177525      -32.177525   1.000000   1.000000
     72        -32.169316      -32.169316   1.000000   1.000000
     73        -32.169311      -32.169311   1.000000   1.000000
     74        -32.159741      -32.159740   1.000000   1.000000
     75        -32.159736      -32.159736   1.000000   1.000000
     76        -32.148981      -32.148981   1.000000   1.000000
     77        -32.147490      -32.147490   1.000000   1.000000
     78        -32.143332      -32.143332   1.000000   1.000000
     79        -32.143332      -32.143332   1.000000   1.000000
     80        -32.134401      -32.134401   1.000000   1.000000
     81        -32.134399      -32.134399   1.000000   1.000000
     82        -32.126123      -32.126122   1.000000   1.000000
     83        -32.124693      -32.124693   1.000000   1.000000
     84        -32.124685      -32.124685   1.000000   1.000000
     85        -32.111415      -32.111415   1.000000   1.000000
     86        -32.099057      -32.099057   1.000000   1.000000
     87        -32.099049      -32.099050   1.000000   1.000000
     88        -32.082542      -32.082542   1.000000   1.000000
     89        -32.082540      -32.082540   1.000000   1.000000
     90        -32.067706      -32.067706   1.000000   1.000000
     91        -32.054972      -32.054972   1.000000   1.000000
     92        -32.054972      -32.054972   1.000000   1.000000
     93        -32.035143      -32.035143   1.000000   1.000000
     94        -32.035136      -32.035136   1.000000   1.000000
     95        -32.010148      -32.010148   1.000000   1.000000
     96        -31.997603      -31.997603   1.000000   1.000000
     97        -31.990890      -31.990890   1.000000   1.000000
     98        -31.989792      -31.989792   1.000000   1.000000
     99        -31.965620      -31.965619   1.000000   1.000000
    100        -31.963737      -31.963737   1.000000   1.000000
    101        -31.963735      -31.963735   1.000000   1.000000
    102        -31.950736      -31.950736   1.000000   1.000000
    103        -31.924674      -31.924673   1.000000   1.000000
    104        -31.924673      -31.924673   1.000000   1.000000
    105        -31.908648      -31.908648   1.000000   1.000000
    106        -31.893143      -31.893143   1.000000   1.000000
    107        -31.893141      -31.893141   1.000000   1.000000
    108        -31.884680      -31.884680   1.000000   1.000000
    109        -31.864108      -31.864108   1.000000   1.000000
    110        -31.854073      -31.854073   1.000000   1.000000
    111        -31.849972      -31.849972   1.000000   1.000000
    112        -31.849968      -31.849968   1.000000   1.000000
    113        -31.831194      -31.831194   1.000000   1.000000
    114        -31.820762      -31.820762   1.000000   1.000000
    115        -31.820370      -31.820371   1.000000   1.000000
    116        -31.820366      -31.820367   1.000000   1.000000
    117        -31.776063      -31.776063   1.000000   1.000000
    118        -31.776056      -31.776056   1.000000   1.000000
    119        -31.763901      -31.763901   1.000000   1.000000
    120        -31.761243      -31.761242   1.000000   1.000000
    121        -31.761240      -31.761240   1.000000   1.000000
    122        -31.734695      -31.734694   1.000000   1.000000
    123        -31.726047      -31.726047   1.000000   1.000000
    124        -31.712741      -31.712742   1.000000   1.000000
    125        -31.712728      -31.712728   1.000000   1.000000
    126        -31.711076      -31.711076   1.000000   1.000000
    127        -31.688185      -31.688185   1.000000   1.000000
    128        -31.688178      -31.688179   1.000000   1.000000
    129        -31.684792      -31.684792   1.000000   1.000000
    130        -31.680372      -31.680372   1.000000   1.000000
    131        -31.680371      -31.680371   1.000000   1.000000
    132        -31.671310      -31.671310   1.000000   1.000000
    133        -31.671309      -31.671309   1.000000   1.000000
    134        -31.662735      -31.662735   1.000000   1.000000
    135        -31.648276      -31.648276   1.000000   1.000000
    136        -31.648270      -31.648270   1.000000   1.000000
    137        -31.632019      -31.632019   1.000000   1.000000
    138        -31.612579      -31.612579   1.000000   1.000000
    139        -31.612579      -31.612579   1.000000   1.000000
    140        -31.611797      -31.611797   1.000000   1.000000
    141        -31.603348      -31.603348   1.000000   1.000000
    142        -31.570598      -31.570598   1.000000   1.000000
    143        -31.570592      -31.570592   1.000000   1.000000
    144        -31.569701      -31.569701   1.000000   1.000000
    145        -31.569699      -31.569699   1.000000   1.000000
    146        -31.553808      -31.553808   1.000000   1.000000
    147        -31.553575      -31.553575   1.000000   1.000000
    148        -31.553572      -31.553572   1.000000   1.000000
    149        -31.533007      -31.533007   1.000000   1.000000
    150        -31.532995      -31.532995   1.000000   1.000000
    151        -31.520491      -31.520492   1.000000   1.000000
    152        -31.501186      -31.501186   1.000000   1.000000
    153        -31.501186      -31.501186   1.000000   1.000000
    154        -31.497153      -31.497154   1.000000   1.000000
    155        -31.497147      -31.497147   1.000000   1.000000
    156        -31.489044      -31.489044   1.000000   1.000000
    157        -31.486694      -31.486694   1.000000   1.000000
    158        -31.469523      -31.469523   1.000000   1.000000
    159        -31.450247      -31.450247   1.000000   1.000000
    160        -31.450244      -31.450244   1.000000   1.000000
    161        -31.448816      -31.448816   1.000000   1.000000
    162        -31.448801      -31.448802   1.000000   1.000000
    163        -31.443433      -31.443434   1.000000   1.000000
    164        -31.429103      -31.429103   1.000000   1.000000
    165        -31.425918      -31.425918   1.000000   1.000000
    166        -31.425911      -31.425911   1.000000   1.000000
    167        -31.421496      -31.421496   1.000000   1.000000
    168        -31.421494      -31.421494   1.000000   1.000000
    169        -31.418782      -31.418784   1.000000   1.000000
    170        -31.411206      -31.411206   1.000000   1.000000
    171        -31.411203      -31.411203   1.000000   1.000000
    172        -31.399674      -31.399674   1.000000   1.000000
    173        -31.392124      -31.392125   1.000000   1.000000
    174        -31.354778      -31.354780   1.000000   1.000000
    175        -31.354759      -31.354761   1.000000   1.000000
    176        -31.344238      -31.344238   1.000000   1.000000
    177        -31.344234      -31.344234   1.000000   1.000000
    178        -31.324965      -31.324962   1.000000   1.000000
    179        -31.313885      -31.313883   1.000000   1.000000
    180        -31.313883      -31.313881   1.000000   1.000000
    181        -31.293817      -31.293817   1.000000   1.000000
    182        -31.285939      -31.285939   1.000000   1.000000
    183        -31.274108      -31.274108   1.000000   1.000000
    184        -31.274107      -31.274108   1.000000   1.000000
    185        -31.271050      -31.271050   1.000000   1.000000
    186        -31.252880      -31.252881   1.000000   1.000000
    187        -31.252855      -31.252856   1.000000   1.000000
    188        -31.247981      -31.247981   1.000000   1.000000
    189        -31.242745      -31.242746   1.000000   1.000000
    190        -31.242730      -31.242730   1.000000   1.000000
    191        -31.224407      -31.224407   1.000000   1.000000
    192        -31.224406      -31.224406   1.000000   1.000000
    193        -31.221543      -31.221543   1.000000   1.000000
    194        -31.219062      -31.219063   1.000000   1.000000
    195        -31.215958      -31.215958   1.000000   1.000000
    196        -31.207166      -31.207166   1.000000   1.000000
    197        -31.204389      -31.204389   1.000000   1.000000
    198        -31.204386      -31.204386   1.000000   1.000000
    199        -31.204369      -31.204369   1.000000   1.000000
    200        -31.204361      -31.204361   1.000000   1.000000
    201        -31.200548      -31.200547   1.000000   1.000000
    202        -31.200546      -31.200545   1.000000   1.000000
    203        -31.187836      -31.187836   1.000000   1.000000
    204        -31.187827      -31.187828   1.000000   1.000000
    205        -31.180806      -31.180806   1.000000   1.000000
    206        -31.180802      -31.180802   1.000000   1.000000
    207        -31.169401      -31.169401   1.000000   1.000000
    208        -31.151323      -31.151322   1.000000   1.000000
    209        -31.149757      -31.149757   1.000000   1.000000
    210        -31.149747      -31.149747   1.000000   1.000000
    211        -31.143616      -31.143614   1.000000   1.000000
    212        -31.143611      -31.143609   1.000000   1.000000
    213        -31.128749      -31.128750   1.000000   1.000000
    214        -31.128741      -31.128742   1.000000   1.000000
    215        -31.123012      -31.123012   1.000000   1.000000
    216        -31.105885      -31.105885   1.000000   1.000000
    217        -31.096293      -31.096294   1.000000   1.000000
    218        -31.096292      -31.096293   1.000000   1.000000
    219        -31.089061      -31.089062   1.000000   1.000000
    220        -31.085125      -31.085126   1.000000   1.000000
    221        -31.083040      -31.083041   1.000000   1.000000
    222        -31.083024      -31.083025   1.000000   1.000000
    223        -31.074286      -31.074286   1.000000   1.000000
    224        -31.074273      -31.074272   1.000000   1.000000
    225        -31.067289      -31.067289   1.000000   1.000000
    226        -31.067287      -31.067287   1.000000   1.000000
    227        -31.061722      -31.061722   1.000000   1.000000
    228        -31.061710      -31.061710   1.000000   1.000000
    229        -31.060726      -31.060726   1.000000   1.000000
    230        -31.057862      -31.057863   1.000000   1.000000
    231        -31.046990      -31.046991   1.000000   1.000000
    232        -31.046989      -31.046989   1.000000   1.000000
    233        -31.035804      -31.035804   1.000000   1.000000
    234        -31.027574      -31.027575   1.000000   1.000000
    235        -30.980714      -30.980712   1.000000   1.000000
    236        -30.980707      -30.980706   1.000000   1.000000
    237        -30.955374      -30.955372   1.000000   1.000000
    238        -30.955371      -30.955370   1.000000   1.000000
    239        -30.952594      -30.952592   1.000000   1.000000
    240        -30.949368      -30.949366   1.000000   1.000000
    241        -30.949365      -30.949363   1.000000   1.000000
    242        -30.929565      -30.929563   1.000000   1.000000
    243        -30.925503      -30.925502   1.000000   1.000000
    244        -30.925503      -30.925502   1.000000   1.000000
    245        -30.918569      -30.918568   1.000000   1.000000
    246        -30.918552      -30.918551   1.000000   1.000000
    247        -30.915712      -30.915711   1.000000   1.000000
    248        -30.907703      -30.907702   1.000000   1.000000
    249        -30.907690      -30.907688   1.000000   1.000000
    250        -30.905286      -30.905285   1.000000   1.000000
    251        -30.896881      -30.896879   1.000000   1.000000
    252        -30.875473      -30.875471   1.000000   1.000000
    253         -2.982404       -2.982404   1.000000   1.000000
    254         -2.066728       -2.066728   1.000000   1.000000
    255         -1.995457       -1.995457   1.000000   1.000000
    256         -1.995456       -1.995455   1.000000   1.000000
    257         -1.401858       -1.401858   1.000000   1.000000
    258         -1.401856       -1.401856   1.000000   1.000000
    259         -1.395097       -1.395097   1.000000   1.000000
    260         -1.330939       -1.330939   1.000000   1.000000
    261         -1.313251       -1.313250   1.000000   1.000000
    262         -1.313249       -1.313249   1.000000   1.000000
    263         -1.281799       -1.281799   1.000000   1.000000
    264         -1.261204       -1.261204   1.000000   1.000000
    265         -1.261201       -1.261201   1.000000   1.000000
    266         -1.222854       -1.222854   1.000000   1.000000
    267         -1.108652       -1.108652   1.000000   1.000000
    268         -0.916360       -0.916360   1.000000   1.000000
    269         -0.916356       -0.916356   1.000000   1.000000
    270         -0.913156       -0.913156   1.000000   1.000000
    271         -0.894143       -0.894143   1.000000   1.000000
    272         -0.880693       -0.880693   1.000000   1.000000
    273         -0.880689       -0.880689   1.000000   1.000000
    274         -0.839085       -0.839085   1.000000   1.000000
    275         -0.839081       -0.839081   1.000000   1.000000
    276         -0.798689       -0.798689   1.000000   1.000000
    277         -0.798686       -0.798686   1.000000   1.000000
    278         -0.755265       -0.755265   1.000000   1.000000
    279         -0.755265       -0.755265   1.000000   1.000000
    280         -0.664638       -0.664638   1.000000   1.000000
    281         -0.664636       -0.664636   1.000000   1.000000
    282         -0.551802       -0.551802   1.000000   1.000000
    283         -0.518529       -0.518529   1.000000   1.000000
    284         -0.500013       -0.500013   1.000000   1.000000
    285         -0.500010       -0.500010   1.000000   1.000000
    286         -0.455609       -0.455609   1.000000   1.000000
    287         -0.455607       -0.455607   1.000000   1.000000
    288         -0.409723       -0.409723   1.000000   1.000000
    289         -0.380195       -0.380195   1.000000   1.000000
    290         -0.380192       -0.380192   1.000000   1.000000
    291         -0.373089       -0.373089   1.000000   1.000000
    292         -0.342155       -0.342155   1.000000   1.000000
    293         -0.342152       -0.342152   1.000000   1.000000
    294         -0.276121       -0.276121   1.000000   1.000000
    295         -0.276121       -0.276121   1.000000   1.000000
    296         -0.237117       -0.237117   1.000000   1.000000
    297         -0.226882       -0.226880   1.000000   1.000000
    298         -0.226860       -0.226858   1.000000   1.000000
    299         -0.212955       -0.212955   1.000000   1.000000
    300         -0.122343       -0.122343   1.000000   1.000000
    301         -0.122339       -0.122339   1.000000   1.000000
    302         -0.003767       -0.003767   1.000000   1.000000
    303          0.026101        0.026099   1.000000   1.000000
    304          0.026101        0.026099   1.000000   1.000000
    305          0.058036        0.058036   1.000000   1.000000
    306          0.075060        0.075060   1.000000   1.000000
    307          0.123959        0.123959   1.000000   1.000000
    308          0.160924        0.160924   1.000000   1.000000
    309          0.160924        0.160924   1.000000   1.000000
    310          0.202100        0.202100   1.000000   1.000000
    311          0.202105        0.202105   1.000000   1.000000
    312          0.232377        0.232379   1.000000   1.000000
    313          0.232385        0.232386   1.000000   1.000000
    314          0.250174        0.250174   1.000000   1.000000
    315          0.304278        0.304278   1.000000   1.000000
    316          0.307415        0.307415   1.000000   1.000000
    317          0.307419        0.307419   1.000000   1.000000
    318          0.311503        0.311503   1.000000   1.000000
    319          0.365364        0.365364   1.000000   1.000000
    320          0.365364        0.365364   1.000000   1.000000
    321          0.435086        0.435086   1.000000   1.000000
    322          0.435089        0.435088   1.000000   1.000000
    323          0.435290        0.435290   1.000000   1.000000
    324          0.446687        0.446687   1.000000   1.000000
    325          0.468489        0.468489   1.000000   1.000000
    326          0.468494        0.468494   1.000000   1.000000
    327          0.512569        0.512569   1.000000   1.000000
    328          0.525395        0.525396   1.000000   1.000000
    329          0.541029        0.541029   1.000000   1.000000
    330          0.541030        0.541030   1.000000   1.000000
    331          0.548184        0.548184   1.000000   1.000000
    332          0.548191        0.548191   1.000000   1.000000
    333          0.567120        0.567120   1.000000   1.000000
    334          0.567125        0.567126   1.000000   1.000000
    335          0.574203        0.574203   1.000000   1.000000
    336          0.617660        0.617660   1.000000   1.000000
    337          0.629649        0.629649   1.000000   1.000000
    338          0.638208        0.638207   1.000000   1.000000
    339          0.691007        0.691007   1.000000   1.000000
    340          0.714514        0.714515   1.000000   1.000000
    341          0.714520        0.714521   1.000000   1.000000
    342          0.794646        0.794646   1.000000   1.000000
    343          0.848708        0.848708   1.000000   1.000000
    344          0.861598        0.861597   1.000000   1.000000
    345          0.861613        0.861612   1.000000   1.000000
    346          0.910220        0.910221   1.000000   1.000000
    347          0.910226        0.910226   1.000000   1.000000
    348          0.932376        0.932376   1.000000   1.000000
    349          0.932388        0.932388   1.000000   1.000000
    350          0.942141        0.942141   1.000000   1.000000
    351          0.942144        0.942144   1.000000   1.000000
    352          0.978832        0.978832   1.000000   1.000000
    353          1.051850        1.051850   1.000000   1.000000
    354          1.051851        1.051851   1.000000   1.000000
    355          1.071714        1.071714   1.000000   1.000000
    356          1.082958        1.082957   1.000000   1.000000
    357          1.158608        1.158607   1.000000   1.000000
    358          1.195247        1.195247   1.000000   1.000000
    359          1.195260        1.195261   1.000000   1.000000
    360          1.269866        1.269866   1.000000   1.000000
    361          1.309828        1.309828   1.000000   1.000000
    362          1.309829        1.309829   1.000000   1.000000
    363          1.349930        1.349930   1.000000   1.000000
    364          1.373787        1.373787   1.000000   1.000000
    365          1.373792        1.373792   1.000000   1.000000
    366          1.413180        1.413181   1.000000   1.000000
    367          1.413196        1.413196   1.000000   1.000000
    368          1.415645        1.415645   1.000000   1.000000
    369          1.415650        1.415651   1.000000   1.000000
    370          1.417190        1.417190   1.000000   1.000000
    371          1.508332        1.508332   1.000000   1.000000
    372          1.508333        1.508333   1.000000   1.000000
    373          1.555876        1.555876   1.000000   1.000000
    374          1.555888        1.555888   1.000000   1.000000
    375          1.559445        1.559445   1.000000   1.000000
    376          1.678780        1.678780   1.000000   1.000000
    377          1.678793        1.678794   1.000000   1.000000
    378          1.679786        1.679787   1.000000   1.000000
    379          1.713966        1.713966   1.000000   1.000000
    380          1.713969        1.713969   1.000000   1.000000
    381          1.776658        1.776658   1.000000   1.000000
    382          1.776664        1.776664   1.000000   1.000000
    383          1.797050        1.797050   1.000000   1.000000
    384          1.827790        1.827790   1.000000   1.000000
    385          1.828283        1.828283   1.000000   1.000000
    386          1.832447        1.832447   1.000000   1.000000
    387          1.926167        1.926168   1.000000   1.000000
    388          1.945754        1.945754   1.000000   1.000000
    389          1.945758        1.945758   1.000000   1.000000
    390          1.950565        1.950565   1.000000   1.000000
    391          1.950571        1.950571   1.000000   1.000000
    392          1.971842        1.971842   1.000000   1.000000
    393          1.984013        1.984013   1.000000   1.000000
    394          2.051064        2.051064   1.000000   1.000000
    395          2.061880        2.061880   1.000000   1.000000
    396          2.061882        2.061882   1.000000   1.000000
    397          2.080069        2.080069   1.000000   1.000000
    398          2.080070        2.080070   1.000000   1.000000
    399          2.095600        2.095601   1.000000   1.000000
    400          2.146551        2.146552   1.000000   1.000000
    401          2.146563        2.146564   1.000000   1.000000
    402          2.174578        2.174578   1.000000   1.000000
    403          2.294772        2.294772   1.000000   1.000000
    404          2.294785        2.294785   1.000000   1.000000
    405          2.334576        2.334575   1.000000   1.000000
    406          2.334579        2.334578   1.000000   1.000000
    407          2.342378        2.342378   1.000000   1.000000
    408          2.342381        2.342381   1.000000   1.000000
    409          2.453265        2.453265   1.000000   1.000000
    410          2.453268        2.453268   1.000000   1.000000
    411          2.570244        2.570244   1.000000   1.000000
    412          2.750377        2.750378   1.000000   1.000000
    413          2.750386        2.750387   1.000000   1.000000
    414          2.833916        2.833915   1.000000   1.000000
    415          2.833932        2.833932   1.000000   1.000000
    416          2.849319        2.849319   1.000000   1.000000
    417          2.849332        2.849332   1.000000   1.000000
    418          2.862227        2.862228   1.000000   1.000000
    419          2.862257        2.862259   1.000000   1.000000
    420          2.875277        2.875276   1.000000   1.000000
    421          2.883907        2.883906   1.000000   1.000000
    422          2.883924        2.883923   1.000000   1.000000
    423          2.916121        2.916120   1.000000   1.000000
    424          2.978660        2.978660   1.000000   1.000000
    425          2.987627        2.987628   1.000000   1.000000
    426          2.987628        2.987629   1.000000   1.000000
    427          3.007759        3.007759   1.000000   1.000000
    428          3.031732        3.031734   1.000000   1.000000
    429          3.036479        3.036480   1.000000   1.000000
    430          3.109063        3.109065   1.000001   1.000001
    431          3.109080        3.109081   1.000001   1.000001
    432          3.174569        3.174573   1.000093   1.000093
    433          3.192918        3.192917   1.000249   1.000249
    434          3.192922        3.192921   1.000250   1.000250
    435          3.228562        3.228559   1.001374   1.001374
    436          3.293286        3.293285   1.013897   1.013896
    437          3.293288        3.293287   1.013898   1.013897
    438          3.297505        3.297504   1.015536   1.015535
    439          3.347142        3.347142   1.035088   1.035088
    440          3.420609        3.420609   0.891695   0.891697
    441          3.420628        3.420628   0.891598   0.891600
    442          3.488995        3.488995   0.380322   0.380320
    443          3.509233        3.509233   0.226125   0.226124
    444          3.509235        3.509235   0.226114   0.226113
    445          3.599535        3.599535  -0.035374  -0.035374
    446          3.616444        3.616444  -0.031114  -0.031114
    447          3.661526        3.661526  -0.011946  -0.011946
    448          3.661533        3.661532  -0.011944  -0.011944
    449          3.837997        3.838000  -0.000002  -0.000002
    450          3.838007        3.838010  -0.000002  -0.000002
    451          3.908383        3.908383  -0.000000  -0.000000
    452          3.908384        3.908384  -0.000000  -0.000000
    453          3.908546        3.908546  -0.000000  -0.000000
    454          3.908552        3.908552  -0.000000  -0.000000
    455          3.962258        3.962258  -0.000000  -0.000000
    456          3.962260        3.962260  -0.000000  -0.000000
    457          3.997087        3.997084  -0.000000  -0.000000
    458          3.997087        3.997084  -0.000000  -0.000000
    459          4.026073        4.026072  -0.000000  -0.000000
    460          4.074638        4.074638  -0.000000  -0.000000
    461          4.114568        4.114570  -0.000000  -0.000000
    462          4.153000        4.152999  -0.000000  -0.000000
    463          4.153003        4.153002  -0.000000  -0.000000
    464          4.269522        4.269521  -0.000000  -0.000000
    465          4.269528        4.269527  -0.000000  -0.000000
    466          4.271348        4.271348  -0.000000  -0.000000
    467          4.293517        4.293519  -0.000000  -0.000000
    468          4.293533        4.293535  -0.000000  -0.000000
    469          4.458729        4.458729  -0.000000  -0.000000
    470          4.458736        4.458736  -0.000000  -0.000000
    471          4.508492        4.508495  -0.000000  -0.000000
    472          4.511986        4.511986  -0.000000  -0.000000
    473          4.515896        4.515896  -0.000000  -0.000000
    474          4.515903        4.515904  -0.000000  -0.000000
    475          4.520042        4.520044  -0.000000  -0.000000
    476          4.522647        4.522648  -0.000000  -0.000000
    477          4.522653        4.522653  -0.000000  -0.000000
    478          4.578308        4.578308  -0.000000  -0.000000
    479          4.578691        4.578691  -0.000000  -0.000000
    480          4.578694        4.578694  -0.000000  -0.000000
    481          4.595484        4.595483  -0.000000  -0.000000
    482          4.595491        4.595490  -0.000000  -0.000000
    483          4.641466        4.641463  -0.000000  -0.000000
    484          4.718535        4.718536  -0.000000  -0.000000
    485          4.718549        4.718549  -0.000000  -0.000000
    486          4.759456        4.759454  -0.000000  -0.000000
    487          4.777616        4.777614  -0.000000  -0.000000
    488          4.777642        4.777640  -0.000000  -0.000000
    489          4.777870        4.777871  -0.000000  -0.000000
    490          4.777873        4.777874  -0.000000  -0.000000
    491          4.826314        4.826314  -0.000000  -0.000000
    492          4.826319        4.826319  -0.000000  -0.000000
    493          4.852415        4.852415  -0.000000  -0.000000
    494          4.921471        4.921470  -0.000000  -0.000000
    495          4.921482        4.921481  -0.000000  -0.000000
    496          4.957008        4.957008  -0.000000  -0.000000
    497          4.962924        4.962924  -0.000000  -0.000000
    498          4.970224        4.970224  -0.000000  -0.000000
    499          4.970228        4.970228  -0.000000  -0.000000
    500          5.002673        5.002673  -0.000000  -0.000000
    501          5.030946        5.030947  -0.000000  -0.000000
    502          5.030950        5.030951  -0.000000  -0.000000
    503          5.069829        5.069829  -0.000000  -0.000000
    504          5.071124        5.071125  -0.000000  -0.000000
    505          5.071141        5.071142  -0.000000  -0.000000
    506          5.081523        5.081522  -0.000000  -0.000000
    507          5.110302        5.110301  -0.000000  -0.000000
    508          5.160247        5.160247  -0.000000  -0.000000
    509          5.160268        5.160268  -0.000000  -0.000000
    510          5.167905        5.167906  -0.000000  -0.000000
    511          5.254576        5.254576  -0.000000  -0.000000
    512          5.260637        5.260639  -0.000000  -0.000000
    513          5.260651        5.260652  -0.000000  -0.000000
    514          5.264490        5.264491  -0.000000  -0.000000
    515          5.276927        5.276926  -0.000000  -0.000000
    516          5.276933        5.276932  -0.000000  -0.000000
    517          5.278046        5.278048  -0.000000  -0.000000
    518          5.298621        5.298621  -0.000000  -0.000000
    519          5.357543        5.357543  -0.000000  -0.000000
    520          5.357546        5.357546  -0.000000  -0.000000
    521          5.368721        5.368721  -0.000000  -0.000000
    522          5.397335        5.397335  -0.000000  -0.000000
    523          5.397341        5.397341  -0.000000  -0.000000
    524          5.421045        5.421048  -0.000000  -0.000000
    525          5.421059        5.421061  -0.000000  -0.000000
    526          5.434845        5.434845  -0.000000  -0.000000
    527          5.434852        5.434853  -0.000000  -0.000000
    528          5.464222        5.464221  -0.000000  -0.000000
    529          5.557265        5.557265  -0.000000  -0.000000
    530          5.557265        5.557265  -0.000000  -0.000000
    531          5.559087        5.559087  -0.000000  -0.000000
    532          5.599155        5.599155  -0.000000  -0.000000
    533          5.618238        5.618239  -0.000000  -0.000000
    534          5.650991        5.650992  -0.000000  -0.000000
    535          5.650997        5.650998  -0.000000  -0.000000
    536          5.684188        5.684188  -0.000000  -0.000000
    537          5.684728        5.684728  -0.000000  -0.000000
    538          5.687580        5.687581  -0.000000  -0.000000
    539          5.737437        5.737437  -0.000000  -0.000000
    540          5.737447        5.737447  -0.000000  -0.000000
    541          5.737978        5.737978  -0.000000  -0.000000
    542          5.769296        5.769296  -0.000000  -0.000000
    543          5.780003        5.780003  -0.000000  -0.000000
    544          5.780005        5.780005  -0.000000  -0.000000
    545          5.820752        5.820752  -0.000000  -0.000000
    546          5.869125        5.869125  -0.000000  -0.000000
    547          5.869127        5.869127  -0.000000  -0.000000
    548          5.875262        5.875262  -0.000000  -0.000000
    549          5.875265        5.875265  -0.000000  -0.000000
    550          5.878866        5.878866  -0.000000  -0.000000
    551          5.891456        5.891456  -0.000000  -0.000000
    552          5.964449        5.964448  -0.000000  -0.000000
    553          5.977590        5.977590  -0.000000  -0.000000
    554          6.005269        6.005269  -0.000000  -0.000000
    555          6.005272        6.005272  -0.000000  -0.000000
    556          6.023515        6.023515  -0.000000  -0.000000
    557          6.023517        6.023518  -0.000000  -0.000000
    558          6.071865        6.071865  -0.000000  -0.000000
    559          6.100198        6.100198  -0.000000  -0.000000
    560          6.100206        6.100206  -0.000000  -0.000000
    561          6.205061        6.205062   0.000000   0.000000
    562          6.212968        6.212968   0.000000   0.000000
    563          6.255392        6.255392   0.000000   0.000000
    564          6.255404        6.255404   0.000000   0.000000
    565          6.328330        6.328330   0.000000   0.000000
    566          6.328334        6.328333   0.000000   0.000000
    567          6.347571        6.347571   0.000000   0.000000
    568          6.405609        6.405609   0.000000   0.000000
    569          6.405613        6.405613   0.000000   0.000000
    570          6.427680        6.427680   0.000000   0.000000
    571          6.427683        6.427684   0.000000   0.000000
    572          6.576373        6.576373   0.000000   0.000000
    573          6.576376        6.576377   0.000000   0.000000
    574          6.680103        6.680103   0.000000   0.000000
    575          6.680108        6.680108   0.000000   0.000000
    576          6.689004        6.689020   0.000000   0.000000
    577          6.789452        6.789451   0.000000   0.000000
    578          6.789456        6.789455   0.000000   0.000000
    579          6.807119        6.807119   0.000000   0.000000
    580          6.807138        6.807138   0.000000   0.000000
    581          6.863925        6.863925   0.000000   0.000000
    582          6.875467        6.875466   0.000000   0.000000
    583          6.893090        6.893094   0.000000   0.000000
    584          6.893093        6.893097   0.000000   0.000000
    585          6.899060        6.899060   0.000000   0.000000
    586          6.903072        6.903071   0.000000   0.000000
    587          7.113952        7.113956   0.000000   0.000000
    588          7.138701        7.138700   0.000000   0.000000
    589          7.138708        7.138708   0.000000   0.000000
    590          7.177336        7.177336   0.000000   0.000000
    591          7.192471        7.192473   0.000000   0.000000
    592          7.192478        7.192480   0.000000   0.000000
    593          7.351373        7.351373   0.000000   0.000000
    594          7.351383        7.351383   0.000000   0.000000
    595          7.420831        7.421467   0.000000   0.000000
    596          7.464360        7.464194   0.000000   0.000000
    597          7.473182        7.473210   0.000000   0.000000
    598          7.473203        7.473230   0.000000   0.000000
    599          7.797461        7.797461   0.000000   0.000000
    600          7.797483        7.797484   0.000000   0.000000
    601          7.848400        7.848406   0.000000   0.000000
    602          7.919812        7.919812   0.000000   0.000000
    603          7.956504        7.956504   0.000000   0.000000
    604          7.956510        7.956511   0.000000   0.000000
    605          8.158474        8.158528   0.000000   0.000000
    606          8.158474        8.158528   0.000000   0.000000
    607          8.219526        8.219533   0.000000   0.000000
    608          8.219531        8.219538   0.000000   0.000000
    609          8.307867        8.308272   0.000000   0.000000
    610          8.307881        8.308291   0.000000   0.000000
    611          8.449287        8.449390   0.000000   0.000000
    612          8.523493        8.523493   0.000000   0.000000
    613          8.523505        8.523505   0.000000   0.000000
    614          8.523707        8.523706   0.000000   0.000000
    615          8.523717        8.523716   0.000000   0.000000
    616          8.619485        8.619485   0.000000   0.000000
    617          8.619492        8.619492   0.000000   0.000000
    618          8.703369        8.703325   0.000000   0.000000
    619          8.737184        8.737184   0.000000   0.000000
    620          8.805742        8.805745   0.000000   0.000000
    621          8.805749        8.805751   0.000000   0.000000
    622          8.883801        8.884411   0.000000   0.000000
    623          9.112037        9.112051   0.000000   0.000000
    624          9.112057        9.112071   0.000000   0.000000
    625          9.229053        9.228975   0.000000   0.000000
    626          9.269985        9.269993   0.000000   0.000000
    627          9.269994        9.270001   0.000000   0.000000
    628          9.391910        9.392500   0.000000   0.000000
    629          9.560459        9.560545   0.000000   0.000000
    630          9.560467        9.560552   0.000000   0.000000
    631          9.732702        9.733173   0.000000   0.000000
    632          9.732711        9.733187   0.000000   0.000000
    633          9.788497        9.788743   0.000000   0.000000
    634          9.788509        9.788757   0.000000   0.000000
    635          9.804761        9.804769   0.000000   0.000000
    636          9.804765        9.804772   0.000000   0.000000
    637          9.943572        9.943611   0.000000   0.000000
    638          9.943585        9.943624   0.000000   0.000000
    639         10.003053       10.003053   0.000000   0.000000
    640         10.093444       10.093445   0.000000   0.000000
    641         10.114034       10.114218   0.000000   0.000000
    642         10.114037       10.114222   0.000000   0.000000
    643         10.529960       10.529963   0.000000   0.000000
    644         10.529962       10.529965   0.000000   0.000000
    645         10.660357       10.660342   0.000000   0.000000
    646         10.709636       10.709786   0.000000   0.000000
    647         10.709638       10.709787   0.000000   0.000000
    648         10.737618       10.737626   0.000000   0.000000
    649         10.776049       10.776065   0.000000   0.000000
    650         10.776054       10.776070   0.000000   0.000000
    651         10.782150       10.782222   0.000000   0.000000
    652         10.809646       10.810077   0.000000   0.000000
    653         10.843404       10.843832   0.000000   0.000000
    654         10.999160       10.999516   0.000000   0.000000
    655         10.999168       10.999529   0.000000   0.000000
    656         11.058444       11.058740   0.000000   0.000000
    657         11.058448       11.058743   0.000000   0.000000
    658         11.305215       11.305252   0.000000   0.000000
    659         11.305215       11.305252   0.000000   0.000000
    660         11.319250       11.319251   0.000000   0.000000
    661         11.426541       11.426587   0.000000   0.000000
    662         11.426543       11.426589   0.000000   0.000000
    663         11.536698       11.536658   0.000000   0.000000
    664         11.536702       11.536660   0.000000   0.000000
    665         11.574109       11.574116   0.000000   0.000000
    666         11.678905       11.679098   0.000000   0.000000
    667         11.678913       11.679108   0.000000   0.000000
    668         11.730082       11.730521   0.000000   0.000000
    669         11.730091       11.730527   0.000000   0.000000
    670         11.852329       11.852402   0.000000   0.000000
    671         11.868943       11.868944   0.000000   0.000000
    672         11.894121       11.894321   0.000000   0.000000
    673         11.894132       11.894332   0.000000   0.000000
    674         11.925523       11.925524   0.000000   0.000000
    675         12.082928       12.083176   0.000000   0.000000
    676         12.082938       12.083183   0.000000   0.000000
    677         12.404883       12.405150   0.000000   0.000000
    678         12.404894       12.405163   0.000000   0.000000
    679         12.503594       12.503595   0.000000   0.000000
    680         12.576623       12.576843   0.000000   0.000000
    681         12.675391       12.675748   0.000000   0.000000
    682         12.676593       12.676797   0.000000   0.000000
    683         12.753369       12.753504   0.000000   0.000000
    684         12.873484       12.834307   0.000000   0.000000
    685         12.898719       12.855900   0.000000   0.000000
    686         12.900307       12.898642   0.000000   0.000000
    687         12.997063       12.920619   0.000000   0.000000
 
  0.5000000E+00  0.2500000E+00  0.0000000E+00  0.2500000E+00
      1        -57.696640      -57.696640   1.000000   1.000000
      2        -57.696630      -57.696630   1.000000   1.000000
      3        -57.652140      -57.652140   1.000000   1.000000
      4        -57.652130      -57.652130   1.000000   1.000000
      5        -57.636353      -57.636353   1.000000   1.000000
      6        -57.636342      -57.636342   1.000000   1.000000
      7        -57.605958      -57.605958   1.000000   1.000000
      8        -57.605951      -57.605951   1.000000   1.000000
      9        -57.594365      -57.594365   1.000000   1.000000
     10        -57.594355      -57.594355   1.000000   1.000000
     11        -57.586735      -57.586735   1.000000   1.000000
     12        -57.578125      -57.578125   1.000000   1.000000
     13        -57.571416      -57.571416   1.000000   1.000000
     14        -57.571415      -57.571415   1.000000   1.000000
     15        -57.569491      -57.569491   1.000000   1.000000
     16        -57.568568      -57.568568   1.000000   1.000000
     17        -57.560145      -57.560144   1.000000   1.000000
     18        -57.551700      -57.551700   1.000000   1.000000
     19        -57.482058      -57.482058   1.000000   1.000000
     20        -57.482017      -57.482017   1.000000   1.000000
     21        -57.463699      -57.463699   1.000000   1.000000
     22        -57.463646      -57.463646   1.000000   1.000000
     23        -57.461830      -57.461830   1.000000   1.000000
     24        -57.456799      -57.456798   1.000000   1.000000
     25        -57.456754      -57.456754   1.000000   1.000000
     26        -57.453264      -57.453263   1.000000   1.000000
     27        -57.451167      -57.451167   1.000000   1.000000
     28        -57.451144      -57.451144   1.000000   1.000000
     29        -57.444674      -57.444674   1.000000   1.000000
     30        -57.439606      -57.439606   1.000000   1.000000
     31        -57.439598      -57.439598   1.000000   1.000000
     32        -57.426824      -57.426825   1.000000   1.000000
     33        -57.418965      -57.418966   1.000000   1.000000
     34        -57.418948      -57.418948   1.000000   1.000000
     35        -57.418074      -57.418074   1.000000   1.000000
     36        -57.416987      -57.416987   1.000000   1.000000
     37        -57.415320      -57.415320   1.000000   1.000000
     38        -57.415317      -57.415317   1.000000   1.000000
     39        -57.409308      -57.409308   1.000000   1.000000
     40        -57.408278      -57.408279   1.000000   1.000000
     41        -57.399539      -57.399539   1.000000   1.000000
     42        -57.382566      -57.382566   1.000000   1.000000
     43        -57.382565      -57.382565   1.000000   1.000000
     44        -57.360102      -57.360102   1.000000   1.000000
     45        -57.360099      -57.360099   1.000000   1.000000
     46        -57.259454      -57.259456   1.000000   1.000000
     47        -57.254827      -57.254829   1.000000   1.000000
     48        -57.254472      -57.254474   1.000000   1.000000
     49        -57.251433      -57.251435   1.000000   1.000000
     50        -57.246221      -57.246223   1.000000   1.000000
     51        -57.245876      -57.245878   1.000000   1.000000
     52        -57.243370      -57.243372   1.000000   1.000000
     53        -57.238381      -57.238382   1.000000   1.000000
     54        -57.238067      -57.238069   1.000000   1.000000
     55        -57.159417      -57.159415   1.000000   1.000000
     56        -57.151943      -57.151940   1.000000   1.000000
     57        -57.151894      -57.151892   1.000000   1.000000
     58        -57.150896      -57.150894   1.000000   1.000000
     59        -57.142352      -57.142350   1.000000   1.000000
     60        -57.129822      -57.129820   1.000000   1.000000
     61        -57.129787      -57.129785   1.000000   1.000000
     62        -57.111578      -57.111576   1.000000   1.000000
     63        -57.111552      -57.111550   1.000000   1.000000
     64        -32.310669      -32.310669   1.000000   1.000000
     65        -32.298732      -32.298732   1.000000   1.000000
     66        -32.298558      -32.298558   1.000000   1.000000
     67        -32.277115      -32.277115   1.000000   1.000000
     68        -32.241366      -32.241366   1.000000   1.000000
     69        -32.241359      -32.241358   1.000000   1.000000
     70        -32.210738      -32.210738   1.000000   1.000000
     71        -32.210726      -32.210726   1.000000   1.000000
     72        -32.185902      -32.185902   1.000000   1.000000
     73        -32.169158      -32.169158   1.000000   1.000000
     74        -32.163510      -32.163510   1.000000   1.000000
     75        -32.157629      -32.157629   1.000000   1.000000
     76        -32.146998      -32.146997   1.000000   1.000000
     77        -32.135847      -32.135847   1.000000   1.000000
     78        -32.135091      -32.135091   1.000000   1.000000
     79        -32.129105      -32.129105   1.000000   1.000000
     80        -32.129091      -32.129091   1.000000   1.000000
     81        -32.120029      -32.120029   1.000000   1.000000
     82        -32.120016      -32.120016   1.000000   1.000000
     83        -32.107922      -32.107923   1.000000   1.000000
     84        -32.099285      -32.099285   1.000000   1.000000
     85        -32.099281      -32.099281   1.000000   1.000000
     86        -32.093918      -32.093918   1.000000   1.000000
     87        -32.093897      -32.093897   1.000000   1.000000
     88        -32.087182      -32.087182   1.000000   1.000000
     89        -32.074319      -32.074319   1.000000   1.000000
     90        -32.074307      -32.074307   1.000000   1.000000
     91        -32.070983      -32.070983   1.000000   1.000000
     92        -32.070982      -32.070982   1.000000   1.000000
     93        -32.053145      -32.053145   1.000000   1.000000
     94        -32.053131      -32.053131   1.000000   1.000000
     95        -31.981617      -31.981617   1.000000   1.000000
     96        -31.981611      -31.981611   1.000000   1.000000
     97        -31.972420      -31.972420   1.000000   1.000000
     98        -31.972392      -31.972392   1.000000   1.000000
     99        -31.967778      -31.967778   1.000000   1.000000
    100        -31.967772      -31.967772   1.000000   1.000000
    101        -31.953252      -31.953252   1.000000   1.000000
    102        -31.927492      -31.927491   1.000000   1.000000
    103        -31.912177      -31.912177   1.000000   1.000000
    104        -31.900356      -31.900356   1.000000   1.000000
    105        -31.900336      -31.900335   1.000000   1.000000
    106        -31.899615      -31.899615   1.000000   1.000000
    107        -31.899606      -31.899606   1.000000   1.000000
    108        -31.885080      -31.885079   1.000000   1.000000
    109        -31.877850      -31.877850   1.000000   1.000000
    110        -31.877845      -31.877845   1.000000   1.000000
    111        -31.870808      -31.870808   1.000000   1.000000
    112        -31.870797      -31.870797   1.000000   1.000000
    113        -31.844019      -31.844019   1.000000   1.000000
    114        -31.843977      -31.843976   1.000000   1.000000
    115        -31.825889      -31.825889   1.000000   1.000000
    116        -31.825888      -31.825888   1.000000   1.000000
    117        -31.812791      -31.812792   1.000000   1.000000
    118        -31.779287      -31.779287   1.000000   1.000000
    119        -31.766985      -31.766986   1.000000   1.000000
    120        -31.766823      -31.766823   1.000000   1.000000
    121        -31.748141      -31.748141   1.000000   1.000000
    122        -31.726305      -31.726305   1.000000   1.000000
    123        -31.726261      -31.726261   1.000000   1.000000
    124        -31.695503      -31.695503   1.000000   1.000000
    125        -31.693587      -31.693588   1.000000   1.000000
    126        -31.687993      -31.687994   1.000000   1.000000
    127        -31.687908      -31.687908   1.000000   1.000000
    128        -31.683347      -31.683347   1.000000   1.000000
    129        -31.683314      -31.683314   1.000000   1.000000
    130        -31.667422      -31.667422   1.000000   1.000000
    131        -31.661001      -31.661001   1.000000   1.000000
    132        -31.660600      -31.660600   1.000000   1.000000
    133        -31.660580      -31.660580   1.000000   1.000000
    134        -31.660497      -31.660497   1.000000   1.000000
    135        -31.660457      -31.660457   1.000000   1.000000
    136        -31.650255      -31.650255   1.000000   1.000000
    137        -31.650216      -31.650216   1.000000   1.000000
    138        -31.605195      -31.605194   1.000000   1.000000
    139        -31.605192      -31.605192   1.000000   1.000000
    140        -31.584620      -31.584620   1.000000   1.000000
    141        -31.584579      -31.584579   1.000000   1.000000
    142        -31.584543      -31.584543   1.000000   1.000000
    143        -31.567898      -31.567898   1.000000   1.000000
    144        -31.544847      -31.544846   1.000000   1.000000
    145        -31.543107      -31.543107   1.000000   1.000000
    146        -31.540662      -31.540662   1.000000   1.000000
    147        -31.540622      -31.540622   1.000000   1.000000
    148        -31.533893      -31.533893   1.000000   1.000000
    149        -31.533881      -31.533881   1.000000   1.000000
    150        -31.529896      -31.529896   1.000000   1.000000
    151        -31.528731      -31.528731   1.000000   1.000000
    152        -31.512673      -31.512673   1.000000   1.000000
    153        -31.512640      -31.512641   1.000000   1.000000
    154        -31.494036      -31.494036   1.000000   1.000000
    155        -31.494008      -31.494008   1.000000   1.000000
    156        -31.493888      -31.493888   1.000000   1.000000
    157        -31.493867      -31.493867   1.000000   1.000000
    158        -31.493836      -31.493836   1.000000   1.000000
    159        -31.479497      -31.479498   1.000000   1.000000
    160        -31.476298      -31.476298   1.000000   1.000000
    161        -31.470144      -31.470145   1.000000   1.000000
    162        -31.459475      -31.459475   1.000000   1.000000
    163        -31.457945      -31.457945   1.000000   1.000000
    164        -31.457931      -31.457931   1.000000   1.000000
    165        -31.434059      -31.434059   1.000000   1.000000
    166        -31.434014      -31.434014   1.000000   1.000000
    167        -31.432271      -31.432271   1.000000   1.000000
    168        -31.431107      -31.431107   1.000000   1.000000
    169        -31.416180      -31.416180   1.000000   1.000000
    170        -31.416176      -31.416176   1.000000   1.000000
    171        -31.414945      -31.414947   1.000000   1.000000
    172        -31.412152      -31.412153   1.000000   1.000000
    173        -31.412104      -31.412104   1.000000   1.000000
    174        -31.371132      -31.371134   1.000000   1.000000
    175        -31.361483      -31.361483   1.000000   1.000000
    176        -31.323448      -31.323445   1.000000   1.000000
    177        -31.309784      -31.309781   1.000000   1.000000
    178        -31.296256      -31.296257   1.000000   1.000000
    179        -31.296238      -31.296238   1.000000   1.000000
    180        -31.290830      -31.290831   1.000000   1.000000
    181        -31.290721      -31.290722   1.000000   1.000000
    182        -31.287761      -31.287763   1.000000   1.000000
    183        -31.287655      -31.287656   1.000000   1.000000
    184        -31.285626      -31.285626   1.000000   1.000000
    185        -31.285600      -31.285600   1.000000   1.000000
    186        -31.261785      -31.261785   1.000000   1.000000
    187        -31.257306      -31.257307   1.000000   1.000000
    188        -31.248302      -31.248302   1.000000   1.000000
    189        -31.232455      -31.232456   1.000000   1.000000
    190        -31.232436      -31.232436   1.000000   1.000000
    191        -31.230213      -31.230211   1.000000   1.000000
    192        -31.230196      -31.230194   1.000000   1.000000
    193        -31.217229      -31.217229   1.000000   1.000000
    194        -31.217179      -31.217179   1.000000   1.000000
    195        -31.214488      -31.214488   1.000000   1.000000
    196        -31.200642      -31.200642   1.000000   1.000000
    197        -31.200576      -31.200576   1.000000   1.000000
    198        -31.199961      -31.199961   1.000000   1.000000
    199        -31.197204      -31.197205   1.000000   1.000000
    200        -31.195031      -31.195030   1.000000   1.000000
    201        -31.186253      -31.186253   1.000000   1.000000
    202        -31.186207      -31.186207   1.000000   1.000000
    203        -31.181412      -31.181412   1.000000   1.000000
    204        -31.179636      -31.179636   1.000000   1.000000
    205        -31.179627      -31.179627   1.000000   1.000000
    206        -31.171511      -31.171511   1.000000   1.000000
    207        -31.171495      -31.171495   1.000000   1.000000
    208        -31.169127      -31.169127   1.000000   1.000000
    209        -31.169099      -31.169099   1.000000   1.000000
    210        -31.167368      -31.167366   1.000000   1.000000
    211        -31.148413      -31.148413   1.000000   1.000000
    212        -31.148309      -31.148310   1.000000   1.000000
    213        -31.138128      -31.138129   1.000000   1.000000
    214        -31.114334      -31.114332   1.000000   1.000000
    215        -31.114289      -31.114288   1.000000   1.000000
    216        -31.101172      -31.101173   1.000000   1.000000
    217        -31.101040      -31.101040   1.000000   1.000000
    218        -31.099007      -31.099008   1.000000   1.000000
    219        -31.095522      -31.095522   1.000000   1.000000
    220        -31.091898      -31.091899   1.000000   1.000000
    221        -31.088554      -31.088555   1.000000   1.000000
    222        -31.083476      -31.083477   1.000000   1.000000
    223        -31.083434      -31.083435   1.000000   1.000000
    224        -31.070248      -31.070249   1.000000   1.000000
    225        -31.070093      -31.070094   1.000000   1.000000
    226        -31.066312      -31.066311   1.000000   1.000000
    227        -31.066304      -31.066304   1.000000   1.000000
    228        -31.063338      -31.063338   1.000000   1.000000
    229        -31.054518      -31.054518   1.000000   1.000000
    230        -31.054440      -31.054440   1.000000   1.000000
    231        -31.042186      -31.042187   1.000000   1.000000
    232        -31.042077      -31.042078   1.000000   1.000000
    233        -31.038556      -31.038557   1.000000   1.000000
    234        -31.038444      -31.038444   1.000000   1.000000
    235        -30.982567      -30.982565   1.000000   1.000000
    236        -30.953002      -30.953001   1.000000   1.000000
    237        -30.952950      -30.952949   1.000000   1.000000
    238        -30.951814      -30.951813   1.000000   1.000000
    239        -30.946826      -30.946825   1.000000   1.000000
    240        -30.946786      -30.946785   1.000000   1.000000
    241        -30.935592      -30.935590   1.000000   1.000000
    242        -30.935574      -30.935572   1.000000   1.000000
    243        -30.932166      -30.932165   1.000000   1.000000
    244        -30.932142      -30.932140   1.000000   1.000000
    245        -30.926617      -30.926616   1.000000   1.000000
    246        -30.925460      -30.925458   1.000000   1.000000
    247        -30.921802      -30.921801   1.000000   1.000000
    248        -30.917064      -30.917063   1.000000   1.000000
    249        -30.898028      -30.898026   1.000000   1.000000
    250        -30.898019      -30.898017   1.000000   1.000000
    251        -30.887684      -30.887682   1.000000   1.000000
    252        -30.887683      -30.887681   1.000000   1.000000
    253         -2.582795       -2.582795   1.000000   1.000000
    254         -2.582785       -2.582785   1.000000   1.000000
    255         -1.756561       -1.756561   1.000000   1.000000
    256         -1.756542       -1.756542   1.000000   1.000000
    257         -1.697112       -1.697112   1.000000   1.000000
    258         -1.697107       -1.697107   1.000000   1.000000
    259         -1.369275       -1.369275   1.000000   1.000000
    260         -1.308970       -1.308970   1.000000   1.000000
    261         -1.261331       -1.261331   1.000000   1.000000
    262         -1.219402       -1.219401   1.000000   1.000000
    263         -1.131587       -1.131587   1.000000   1.000000
    264         -1.131566       -1.131566   1.000000   1.000000
    265         -1.020837       -1.020837   1.000000   1.000000
    266         -1.020825       -1.020825   1.000000   1.000000
    267         -0.971612       -0.971612   1.000000   1.000000
    268         -0.971603       -0.971603   1.000000   1.000000
    269         -0.915897       -0.915897   1.000000   1.000000
    270         -0.915851       -0.915851   1.000000   1.000000
    271         -0.875329       -0.875329   1.000000   1.000000
    272         -0.875306       -0.875306   1.000000   1.000000
    273         -0.839000       -0.839000   1.000000   1.000000
    274         -0.788143       -0.788143   1.000000   1.000000
    275         -0.788117       -0.788117   1.000000   1.000000
    276         -0.717295       -0.717295   1.000000   1.000000
    277         -0.714087       -0.714087   1.000000   1.000000
    278         -0.714075       -0.714075   1.000000   1.000000
    279         -0.711099       -0.711098   1.000000   1.000000
    280         -0.710910       -0.710910   1.000000   1.000000
    281         -0.710902       -0.710901   1.000000   1.000000
    282         -0.617855       -0.617855   1.000000   1.000000
    283         -0.566590       -0.566590   1.000000   1.000000
    284         -0.566522       -0.566522   1.000000   1.000000
    285         -0.478063       -0.478063   1.000000   1.000000
    286         -0.478033       -0.478033   1.000000   1.000000
    287         -0.452791       -0.452791   1.000000   1.000000
    288         -0.452684       -0.452684   1.000000   1.000000
    289         -0.449268       -0.449268   1.000000   1.000000
    290         -0.426685       -0.426685   1.000000   1.000000
    291         -0.382203       -0.382203   1.000000   1.000000
    292         -0.284984       -0.284984   1.000000   1.000000
    293         -0.270464       -0.270463   1.000000   1.000000
    294         -0.270451       -0.270451   1.000000   1.000000
    295         -0.266401       -0.266401   1.000000   1.000000
    296         -0.266381       -0.266381   1.000000   1.000000
    297         -0.207145       -0.207145   1.000000   1.000000
    298         -0.207145       -0.207145   1.000000   1.000000
    299         -0.191710       -0.191710   1.000000   1.000000
    300         -0.171210       -0.171210   1.000000   1.000000
    301         -0.114293       -0.114293   1.000000   1.000000
    302         -0.114235       -0.114234   1.000000   1.000000
    303         -0.052383       -0.052382   1.000000   1.000000
    304         -0.052349       -0.052348   1.000000   1.000000
    305          0.043758        0.043758   1.000000   1.000000
    306          0.043794        0.043794   1.000000   1.000000
    307          0.060799        0.060798   1.000000   1.000000
    308          0.060892        0.060891   1.000000   1.000000
    309          0.072146        0.072146   1.000000   1.000000
    310          0.091778        0.091779   1.000000   1.000000
    311          0.091915        0.091917   1.000000   1.000000
    312          0.149827        0.149827   1.000000   1.000000
    313          0.252281        0.252281   1.000000   1.000000
    314          0.288552        0.288552   1.000000   1.000000
    315          0.301431        0.301431   1.000000   1.000000
    316          0.301503        0.301504   1.000000   1.000000
    317          0.309056        0.309056   1.000000   1.000000
    318          0.323421        0.323421   1.000000   1.000000
    319          0.333975        0.333974   1.000000   1.000000
    320          0.333984        0.333983   1.000000   1.000000
    321          0.337046        0.337046   1.000000   1.000000
    322          0.416756        0.416756   1.000000   1.000000
    323          0.426012        0.426011   1.000000   1.000000
    324          0.431043        0.431043   1.000000   1.000000
    325          0.431064        0.431064   1.000000   1.000000
    326          0.442289        0.442289   1.000000   1.000000
    327          0.442353        0.442353   1.000000   1.000000
    328          0.457155        0.457155   1.000000   1.000000
    329          0.503994        0.503994   1.000000   1.000000
    330          0.504007        0.504007   1.000000   1.000000
    331          0.513246        0.513246   1.000000   1.000000
    332          0.582994        0.582995   1.000000   1.000000
    333          0.582997        0.582997   1.000000   1.000000
    334          0.587548        0.587548   1.000000   1.000000
    335          0.614371        0.614371   1.000000   1.000000
    336          0.614405        0.614405   1.000000   1.000000
    337          0.621286        0.621288   1.000000   1.000000
    338          0.683190        0.683190   1.000000   1.000000
    339          0.683290        0.683291   1.000000   1.000000
    340          0.683473        0.683472   1.000000   1.000000
    341          0.707783        0.707783   1.000000   1.000000
    342          0.774944        0.774944   1.000000   1.000000
    343          0.793836        0.793836   1.000000   1.000000
    344          0.831647        0.831646   1.000000   1.000000
    345          0.844441        0.844441   1.000000   1.000000
    346          0.844487        0.844487   1.000000   1.000000
    347          0.872111        0.872111   1.000000   1.000000
    348          0.872211        0.872211   1.000000   1.000000
    349          0.878834        0.878834   1.000000   1.000000
    350          0.914670        0.914670   1.000000   1.000000
    351          0.977892        0.977893   1.000000   1.000000
    352          0.977953        0.977954   1.000000   1.000000
    353          1.045961        1.045961   1.000000   1.000000
    354          1.060282        1.060283   1.000000   1.000000
    355          1.060394        1.060395   1.000000   1.000000
    356          1.143953        1.143953   1.000000   1.000000
    357          1.143984        1.143984   1.000000   1.000000
    358          1.149627        1.149628   1.000000   1.000000
    359          1.162151        1.162151   1.000000   1.000000
    360          1.162235        1.162235   1.000000   1.000000
    361          1.167693        1.167693   1.000000   1.000000
    362          1.251704        1.251703   1.000000   1.000000
    363          1.251805        1.251805   1.000000   1.000000
    364          1.322327        1.322327   1.000000   1.000000
    365          1.355446        1.355446   1.000000   1.000000
    366          1.355467        1.355467   1.000000   1.000000
    367          1.429215        1.429216   1.000000   1.000000
    368          1.429239        1.429239   1.000000   1.000000
    369          1.467471        1.467471   1.000000   1.000000
    370          1.507765        1.507764   1.000000   1.000000
    371          1.507818        1.507818   1.000000   1.000000
    372          1.531677        1.531677   1.000000   1.000000
    373          1.532097        1.532096   1.000000   1.000000
    374          1.532156        1.532155   1.000000   1.000000
    375          1.540934        1.540935   1.000000   1.000000
    376          1.547806        1.547806   1.000000   1.000000
    377          1.583209        1.583209   1.000000   1.000000
    378          1.583301        1.583302   1.000000   1.000000
    379          1.625828        1.625828   1.000000   1.000000
    380          1.636217        1.636217   1.000000   1.000000
    381          1.636343        1.636343   1.000000   1.000000
    382          1.721379        1.721379   1.000000   1.000000
    383          1.721509        1.721509   1.000000   1.000000
    384          1.790306        1.790306   1.000000   1.000000
    385          1.790327        1.790327   1.000000   1.000000
    386          1.837093        1.837093   1.000000   1.000000
    387          1.837104        1.837104   1.000000   1.000000
    388          1.862516        1.862516   1.000000   1.000000
    389          1.886133        1.886134   1.000000   1.000000
    390          1.900274        1.900273   1.000000   1.000000
    391          1.900369        1.900368   1.000000   1.000000
    392          1.900579        1.900579   1.000000   1.000000
    393          1.900595        1.900595   1.000000   1.000000
    394          1.947572        1.947572   1.000000   1.000000
    395          1.947725        1.947726   1.000000   1.000000
    396          1.974358        1.974359   1.000000   1.000000
    397          1.974460        1.974461   1.000000   1.000000
    398          2.097142        2.097142   1.000000   1.000000
    399          2.111950        2.111950   1.000000   1.000000
    400          2.171480        2.171480   1.000000   1.000000
    401          2.171613        2.171613   1.000000   1.000000
    402          2.183578        2.183578   1.000000   1.000000
    403          2.350463        2.350464   1.000000   1.000000
    404          2.369393        2.369393   1.000000   1.000000
    405          2.488140        2.488140   1.000000   1.000000
    406          2.494938        2.494938   1.000000   1.000000
    407          2.495043        2.495044   1.000000   1.000000
    408          2.513904        2.513904   1.000000   1.000000
    409          2.519744        2.519744   1.000000   1.000000
    410          2.519929        2.519929   1.000000   1.000000
    411          2.716145        2.716145   1.000000   1.000000
    412          2.716198        2.716198   1.000000   1.000000
    413          2.810327        2.810327   1.000000   1.000000
    414          2.810489        2.810489   1.000000   1.000000
    415          2.892286        2.892285   1.000000   1.000000
    416          2.892358        2.892356   1.000000   1.000000
    417          2.944852        2.944854   1.000000   1.000000
    418          2.944963        2.944965   1.000000   1.000000
    419          2.997488        2.997488   1.000000   1.000000
    420          2.997628        2.997628   1.000000   1.000000
    421          3.005943        3.005943   1.000000   1.000000
    422          3.029992        3.029994   1.000000   1.000000
    423          3.031611        3.031612   1.000000   1.000000
    424          3.031664        3.031665   1.000000   1.000000
    425          3.033766        3.033767   1.000000   1.000000
    426          3.049520        3.049524   1.000000   1.000000
    427          3.049822        3.049826   1.000000   1.000000
    428          3.067560        3.067557   1.000000   1.000000
    429          3.067610        3.067608   1.000000   1.000000
    430          3.141506        3.141505   1.000013   1.000013
    431          3.141672        3.141671   1.000013   1.000013
    432          3.190776        3.190776   1.000223   1.000223
    433          3.206146        3.206146   1.000486   1.000486
    434          3.248532        3.248530   1.003141   1.003141
    435          3.276094        3.276094   1.008363   1.008363
    436          3.291837        3.291838   1.013358   1.013358
    437          3.375242        3.375242   1.024547   1.024547
    438          3.398678        3.398679   0.979136   0.979133
    439          3.398845        3.398846   0.978648   0.978645
    440          3.407387        3.407386   0.950113   0.950117
    441          3.407606        3.407605   0.949286   0.949289
    442          3.411795        3.411795   0.932590   0.932592
    443          3.501174        3.501176   0.284367   0.284355
    444          3.501277        3.501278   0.283599   0.283587
    445          3.563534        3.563534  -0.009340  -0.009339
    446          3.563579        3.563578  -0.009421  -0.009419
    447          3.647452        3.647453  -0.017361  -0.017361
    448          3.647547        3.647548  -0.017321  -0.017321
    449          3.653500        3.653501  -0.014894  -0.014894
    450          3.653598        3.653599  -0.014856  -0.014855
    451          3.673805        3.673803  -0.008226  -0.008227
    452          3.673860        3.673858  -0.008212  -0.008212
    453          3.980008        3.980007  -0.000000  -0.000000
    454          3.980203        3.980203  -0.000000  -0.000000
    455          4.028237        4.028237  -0.000000  -0.000000
    456          4.046640        4.046640  -0.000000  -0.000000
    457          4.046756        4.046756  -0.000000  -0.000000
    458          4.063903        4.063905  -0.000000  -0.000000
    459          4.145518        4.145518  -0.000000  -0.000000
    460          4.145701        4.145701  -0.000000  -0.000000
    461          4.163644        4.163642  -0.000000  -0.000000
    462          4.211371        4.211371  -0.000000  -0.000000
    463          4.262291        4.262291  -0.000000  -0.000000
    464          4.262514        4.262515  -0.000000  -0.000000
    465          4.289411        4.289411  -0.000000  -0.000000
    466          4.289459        4.289460  -0.000000  -0.000000
    467          4.332426        4.332426  -0.000000  -0.000000
    468          4.332438        4.332437  -0.000000  -0.000000
    469          4.433961        4.433961  -0.000000  -0.000000
    470          4.433969        4.433968  -0.000000  -0.000000
    471          4.550045        4.550045  -0.000000  -0.000000
    472          4.550154        4.550154  -0.000000  -0.000000
    473          4.598040        4.598039  -0.000000  -0.000000
    474          4.598341        4.598343  -0.000000  -0.000000
    475          4.645292        4.645292  -0.000000  -0.000000
    476          4.652325        4.652326  -0.000000  -0.000000
    477          4.652388        4.652389  -0.000000  -0.000000
    478          4.686257        4.686257  -0.000000  -0.000000
    479          4.686304        4.686304  -0.000000  -0.000000
    480          4.724515        4.724516  -0.000000  -0.000000
    481          4.726248        4.726248  -0.000000  -0.000000
    482          4.726393        4.726393  -0.000000  -0.000000
    483          4.747938        4.747938  -0.000000  -0.000000
    484          4.748022        4.748022  -0.000000  -0.000000
    485          4.749827        4.749827  -0.000000  -0.000000
    486          4.750019        4.750019  -0.000000  -0.000000
    487          4.792517        4.792517  -0.000000  -0.000000
    488          4.792667        4.792667  -0.000000  -0.000000
    489          4.812544        4.812542  -0.000000  -0.000000
    490          4.841548        4.841546  -0.000000  -0.000000
    491          4.841550        4.841548  -0.000000  -0.000000
    492          4.867497        4.867495  -0.000000  -0.000000
    493          4.873690        4.873689  -0.000000  -0.000000
    494          4.910773        4.910774  -0.000000  -0.000000
    495          4.987724        4.987725  -0.000000  -0.000000
    496          5.002945        5.002945  -0.000000  -0.000000
    497          5.002950        5.002950  -0.000000  -0.000000
    498          5.038237        5.038238  -0.000000  -0.000000
    499          5.054532        5.054534  -0.000000  -0.000000
    500          5.054595        5.054596  -0.000000  -0.000000
    501          5.070010        5.070012  -0.000000  -0.000000
    502          5.080900        5.080899  -0.000000  -0.000000
    503          5.091955        5.091955  -0.000000  -0.000000
    504          5.092149        5.092149  -0.000000  -0.000000
    505          5.106352        5.106353  -0.000000  -0.000000
    506          5.106362        5.106363  -0.000000  -0.000000
    507          5.132039        5.132040  -0.000000  -0.000000
    508          5.150553        5.150554  -0.000000  -0.000000
    509          5.166118        5.166117  -0.000000  -0.000000
    510          5.175069        5.175069  -0.000000  -0.000000
    511          5.175205        5.175205  -0.000000  -0.000000
    512          5.181058        5.181060  -0.000000  -0.000000
    513          5.224693        5.224694  -0.000000  -0.000000
    514          5.224703        5.224704  -0.000000  -0.000000
    515          5.268321        5.268323  -0.000000  -0.000000
    516          5.268388        5.268390  -0.000000  -0.000000
    517          5.272978        5.272978  -0.000000  -0.000000
    518          5.273024        5.273025  -0.000000  -0.000000
    519          5.294461        5.294461  -0.000000  -0.000000
    520          5.294495        5.294495  -0.000000  -0.000000
    521          5.351706        5.351706  -0.000000  -0.000000
    522          5.363806        5.363806  -0.000000  -0.000000
    523          5.376282        5.376282  -0.000000  -0.000000
    524          5.387469        5.387469  -0.000000  -0.000000
    525          5.410000        5.410001  -0.000000  -0.000000
    526          5.509237        5.509237  -0.000000  -0.000000
    527          5.509282        5.509282  -0.000000  -0.000000
    528          5.515291        5.515292  -0.000000  -0.000000
    529          5.515351        5.515352  -0.000000  -0.000000
    530          5.515572        5.515572  -0.000000  -0.000000
    531          5.569016        5.569017  -0.000000  -0.000000
    532          5.569050        5.569051  -0.000000  -0.000000
    533          5.603707        5.603707  -0.000000  -0.000000
    534          5.603778        5.603778  -0.000000  -0.000000
    535          5.624705        5.624706  -0.000000  -0.000000
    536          5.706392        5.706392  -0.000000  -0.000000
    537          5.736108        5.736108  -0.000000  -0.000000
    538          5.736162        5.736161  -0.000000  -0.000000
    539          5.817152        5.817152  -0.000000  -0.000000
    540          5.822974        5.822974  -0.000000  -0.000000
    541          5.847767        5.847767  -0.000000  -0.000000
    542          5.847776        5.847776  -0.000000  -0.000000
    543          5.859532        5.859532  -0.000000  -0.000000
    544          5.886675        5.886675  -0.000000  -0.000000
    545          5.911150        5.911151  -0.000000  -0.000000
    546          5.911180        5.911180  -0.000000  -0.000000
    547          5.914505        5.914505  -0.000000  -0.000000
    548          5.914554        5.914553  -0.000000  -0.000000
    549          5.949777        5.949777  -0.000000  -0.000000
    550          5.982723        5.982723  -0.000000  -0.000000
    551          5.996422        5.996422  -0.000000  -0.000000
    552          5.996431        5.996431  -0.000000  -0.000000
    553          6.002763        6.002763  -0.000000  -0.000000
    554          6.007460        6.007461  -0.000000  -0.000000
    555          6.009533        6.009533  -0.000000  -0.000000
    556          6.032034        6.032033  -0.000000  -0.000000
    557          6.032112        6.032111  -0.000000  -0.000000
    558          6.106490        6.106490  -0.000000  -0.000000
    559          6.133107        6.133108  -0.000000  -0.000000
    560          6.199738        6.199738  -0.000000  -0.000000
    561          6.199755        6.199755  -0.000000  -0.000000
    562          6.248856        6.248857   0.000000   0.000000
    563          6.302846        6.302846   0.000000   0.000000
    564          6.302892        6.302891   0.000000   0.000000
    565          6.343777        6.343777   0.000000   0.000000
    566          6.343802        6.343803   0.000000   0.000000
    567          6.355115        6.355115   0.000000   0.000000
    568          6.378976        6.378977   0.000000   0.000000
    569          6.378977        6.378978   0.000000   0.000000
    570          6.400186        6.400186   0.000000   0.000000
    571          6.438133        6.438133   0.000000   0.000000
    572          6.438156        6.438156   0.000000   0.000000
    573          6.531194        6.531194   0.000000   0.000000
    574          6.563291        6.563291   0.000000   0.000000
    575          6.563387        6.563387   0.000000   0.000000
    576          6.565579        6.565580   0.000000   0.000000
    577          6.565718        6.565719   0.000000   0.000000
    578          6.688419        6.688419   0.000000   0.000000
    579          6.717491        6.717498   0.000000   0.000000
    580          6.717509        6.717516   0.000000   0.000000
    581          6.860218        6.860218   0.000000   0.000000
    582          6.860322        6.860322   0.000000   0.000000
    583          6.876503        6.876503   0.000000   0.000000
    584          6.940602        6.940602   0.000000   0.000000
    585          6.940651        6.940651   0.000000   0.000000
    586          6.954574        6.954574   0.000000   0.000000
    587          7.006671        7.006672   0.000000   0.000000
    588          7.016434        7.016453   0.000000   0.000000
    589          7.016452        7.016471   0.000000   0.000000
    590          7.073290        7.073290   0.000000   0.000000
    591          7.126028        7.126028   0.000000   0.000000
    592          7.220726        7.220726   0.000000   0.000000
    593          7.220815        7.220815   0.000000   0.000000
    594          7.246966        7.246967   0.000000   0.000000
    595          7.247008        7.247009   0.000000   0.000000
    596          7.453667        7.453667   0.000000   0.000000
    597          7.672790        7.672791   0.000000   0.000000
    598          7.719660        7.719901   0.000000   0.000000
    599          7.719689        7.719931   0.000000   0.000000
    600          7.723274        7.723274   0.000000   0.000000
    601          7.723330        7.723329   0.000000   0.000000
    602          7.788479        7.788709   0.000000   0.000000
    603          7.788481        7.788714   0.000000   0.000000
    604          7.831525        7.831601   0.000000   0.000000
    605          7.831632        7.831707   0.000000   0.000000
    606          7.843303        7.843303   0.000000   0.000000
    607          7.978521        7.978515   0.000000   0.000000
    608          8.203358        8.203365   0.000000   0.000000
    609          8.298634        8.298635   0.000000   0.000000
    610          8.298652        8.298653   0.000000   0.000000
    611          8.373384        8.373384   0.000000   0.000000
    612          8.433708        8.433708   0.000000   0.000000
    613          8.456481        8.456483   0.000000   0.000000
    614          8.492944        8.492946   0.000000   0.000000
    615          8.492965        8.492967   0.000000   0.000000
    616          8.557795        8.557796   0.000000   0.000000
    617          8.610665        8.610630   0.000000   0.000000
    618          8.610723        8.610688   0.000000   0.000000
    619          8.760759        8.761286   0.000000   0.000000
    620          8.760801        8.761325   0.000000   0.000000
    621          9.048447        9.048466   0.000000   0.000000
    622          9.048523        9.048542   0.000000   0.000000
    623          9.117886        9.117908   0.000000   0.000000
    624          9.117903        9.117925   0.000000   0.000000
    625          9.138554        9.138555   0.000000   0.000000
    626          9.138574        9.138575   0.000000   0.000000
    627          9.238142        9.238687   0.000000   0.000000
    628          9.238154        9.238704   0.000000   0.000000
    629          9.264674        9.264674   0.000000   0.000000
    630          9.392114        9.392114   0.000000   0.000000
    631          9.449072        9.449072   0.000000   0.000000
    632          9.806950        9.806952   0.000000   0.000000
    633          9.811868        9.811889   0.000000   0.000000
    634          9.811886        9.811907   0.000000   0.000000
    635          9.967947        9.967953   0.000000   0.000000
    636         10.075671       10.075659   0.000000   0.000000
    637         10.075694       10.075682   0.000000   0.000000
    638         10.161992       10.161921   0.000000   0.000000
    639         10.162016       10.161945   0.000000   0.000000
    640         10.171149       10.171433   0.000000   0.000000
    641         10.171157       10.171443   0.000000   0.000000
    642         10.189102       10.189701   0.000000   0.000000
    643         10.189112       10.189717   0.000000   0.000000
    644         10.349282       10.349303   0.000000   0.000000
    645         10.426434       10.426566   0.000000   0.000000
    646         10.568172       10.568341   0.000000   0.000000
    647         10.568182       10.568352   0.000000   0.000000
    648         10.644349       10.644357   0.000000   0.000000
    649         10.663591       10.663604   0.000000   0.000000
    650         10.667622       10.667623   0.000000   0.000000
    651         10.995335       10.995713   0.000000   0.000000
    652         11.067925       11.067928   0.000000   0.000000
    653         11.119796       11.119893   0.000000   0.000000
    654         11.119819       11.119916   0.000000   0.000000
    655         11.173544       11.173549   0.000000   0.000000
    656         11.228270       11.228272   0.000000   0.000000
    657         11.228284       11.228285   0.000000   0.000000
    658         11.231861       11.231863   0.000000   0.000000
    659         11.292101       11.292444   0.000000   0.000000
    660         11.292107       11.292452   0.000000   0.000000
    661         11.324302       11.324615   0.000000   0.000000
    662         11.324339       11.324656   0.000000   0.000000
    663         11.378805       11.378999   0.000000   0.000000
    664         11.392658       11.392790   0.000000   0.000000
    665         11.715668       11.716229   0.000000   0.000000
    666         11.852410       11.852416   0.000000   0.000000
    667         11.881273       11.881609   0.000000   0.000000
    668         11.959080       11.959293   0.000000   0.000000
    669         11.959146       11.959359   0.000000   0.000000
    670         11.983694       11.983696   0.000000   0.000000
    671         11.983899       11.983900   0.000000   0.000000
    672         12.008097       12.008097   0.000000   0.000000
    673         12.057665       12.057813   0.000000   0.000000
    674         12.057728       12.057876   0.000000   0.000000
    675         12.195959       12.195968   0.000000   0.000000
    676         12.211889       12.212018   0.000000   0.000000
    677         12.211894       12.212023   0.000000   0.000000
    678         12.253748       12.254010   0.000000   0.000000
    679         12.314885       12.315025   0.000000   0.000000
    680         12.314894       12.315036   0.000000   0.000000
    681         12.404453       12.404686   0.000000   0.000000
    682         12.404517       12.404749   0.000000   0.000000
    683         12.460841       12.461340   0.000000   0.000000
    684         12.608244       12.608571   0.000000   0.000000
    685         12.720564       12.713286   0.000000   0.000000
    686         12.988837       12.988839   0.000000   0.000000
    687         12.989027       12.989071   0.000000   0.000000
 
  0.5000000E+00  0.5000000E+00  0.0000000E+00  0.6250000E-01
      1        -57.678836      -57.678836   1.000000   1.000000
      2        -57.678822      -57.678822   1.000000   1.000000
      3        -57.678822      -57.678822   1.000000   1.000000
      4        -57.678816      -57.678816   1.000000   1.000000
      5        -57.623846      -57.623846   1.000000   1.000000
      6        -57.623833      -57.623833   1.000000   1.000000
      7        -57.623833      -57.623833   1.000000   1.000000
      8        -57.623827      -57.623827   1.000000   1.000000
      9        -57.583102      -57.583102   1.000000   1.000000
     10        -57.583102      -57.583102   1.000000   1.000000
     11        -57.583099      -57.583099   1.000000   1.000000
     12        -57.583087      -57.583087   1.000000   1.000000
     13        -57.568154      -57.568155   1.000000   1.000000
     14        -57.565016      -57.565015   1.000000   1.000000
     15        -57.565011      -57.565011   1.000000   1.000000
     16        -57.565011      -57.565011   1.000000   1.000000
     17        -57.565011      -57.565011   1.000000   1.000000
     18        -57.550393      -57.550392   1.000000   1.000000
     19        -57.473642      -57.473642   1.000000   1.000000
     20        -57.473588      -57.473588   1.000000   1.000000
     21        -57.473588      -57.473588   1.000000   1.000000
     22        -57.473548      -57.473548   1.000000   1.000000
     23        -57.458236      -57.458236   1.000000   1.000000
     24        -57.458229      -57.458229   1.000000   1.000000
     25        -57.458191      -57.458191   1.000000   1.000000
     26        -57.458191      -57.458191   1.000000   1.000000
     27        -57.447060      -57.447060   1.000000   1.000000
     28        -57.447039      -57.447039   1.000000   1.000000
     29        -57.447039      -57.447039   1.000000   1.000000
     30        -57.447028      -57.447028   1.000000   1.000000
     31        -57.443344      -57.443344   1.000000   1.000000
     32        -57.423131      -57.423131   1.000000   1.000000
     33        -57.423126      -57.423126   1.000000   1.000000
     34        -57.423125      -57.423125   1.000000   1.000000
     35        -57.423125      -57.423125   1.000000   1.000000
     36        -57.413322      -57.413322   1.000000   1.000000
     37        -57.413318      -57.413318   1.000000   1.000000
     38        -57.413306      -57.413306   1.000000   1.000000
     39        -57.413306      -57.413306   1.000000   1.000000
     40        -57.407951      -57.407951   1.000000   1.000000
     41        -57.398184      -57.398184   1.000000   1.000000
     42        -57.368629      -57.368629   1.000000   1.000000
     43        -57.368628      -57.368628   1.000000   1.000000
     44        -57.368628      -57.368628   1.000000   1.000000
     45        -57.368627      -57.368627   1.000000   1.000000
     46        -57.256243      -57.256245   1.000000   1.000000
     47        -57.256243      -57.256245   1.000000   1.000000
     48        -57.255958      -57.255960   1.000000   1.000000
     49        -57.255809      -57.255811   1.000000   1.000000
     50        -57.242131      -57.242133   1.000000   1.000000
     51        -57.241808      -57.241810   1.000000   1.000000
     52        -57.241421      -57.241423   1.000000   1.000000
     53        -57.241421      -57.241423   1.000000   1.000000
     54        -57.241155      -57.241157   1.000000   1.000000
     55        -57.155850      -57.155848   1.000000   1.000000
     56        -57.155839      -57.155837   1.000000   1.000000
     57        -57.155793      -57.155791   1.000000   1.000000
     58        -57.155793      -57.155791   1.000000   1.000000
     59        -57.141029      -57.141027   1.000000   1.000000
     60        -57.118917      -57.118916   1.000000   1.000000
     61        -57.118898      -57.118896   1.000000   1.000000
     62        -57.118898      -57.118896   1.000000   1.000000
     63        -57.118859      -57.118857   1.000000   1.000000
     64        -32.323118      -32.323118   1.000000   1.000000
     65        -32.323118      -32.323118   1.000000   1.000000
     66        -32.258988      -32.258988   1.000000   1.000000
     67        -32.258974      -32.258974   1.000000   1.000000
     68        -32.258972      -32.258971   1.000000   1.000000
     69        -32.258972      -32.258971   1.000000   1.000000
     70        -32.226717      -32.226717   1.000000   1.000000
     71        -32.226714      -32.226714   1.000000   1.000000
     72        -32.226702      -32.226702   1.000000   1.000000
     73        -32.226702      -32.226702   1.000000   1.000000
     74        -32.171437      -32.171437   1.000000   1.000000
     75        -32.171437      -32.171437   1.000000   1.000000
     76        -32.135889      -32.135889   1.000000   1.000000
     77        -32.135870      -32.135870   1.000000   1.000000
     78        -32.135870      -32.135870   1.000000   1.000000
     79        -32.135870      -32.135870   1.000000   1.000000
     80        -32.090874      -32.090874   1.000000   1.000000
     81        -32.090872      -32.090872   1.000000   1.000000
     82        -32.090840      -32.090840   1.000000   1.000000
     83        -32.090840      -32.090840   1.000000   1.000000
     84        -32.080324      -32.080324   1.000000   1.000000
     85        -32.080295      -32.080295   1.000000   1.000000
     86        -32.080295      -32.080295   1.000000   1.000000
     87        -32.080273      -32.080273   1.000000   1.000000
     88        -32.051130      -32.051130   1.000000   1.000000
     89        -32.051123      -32.051124   1.000000   1.000000
     90        -32.051123      -32.051124   1.000000   1.000000
     91        -32.051121      -32.051121   1.000000   1.000000
     92        -32.025350      -32.025350   1.000000   1.000000
     93        -32.025349      -32.025349   1.000000   1.000000
     94        -32.025349      -32.025349   1.000000   1.000000
     95        -32.025339      -32.025339   1.000000   1.000000
     96        -32.008204      -32.008204   1.000000   1.000000
     97        -32.008196      -32.008196   1.000000   1.000000
     98        -32.008150      -32.008150   1.000000   1.000000
     99        -32.008150      -32.008150   1.000000   1.000000
    100        -31.917967      -31.917967   1.000000   1.000000
    101        -31.917962      -31.917962   1.000000   1.000000
    102        -31.917962      -31.917962   1.000000   1.000000
    103        -31.917960      -31.917960   1.000000   1.000000
    104        -31.899033      -31.899033   1.000000   1.000000
    105        -31.899033      -31.899032   1.000000   1.000000
    106        -31.899033      -31.899032   1.000000   1.000000
    107        -31.899011      -31.899011   1.000000   1.000000
    108        -31.886082      -31.886082   1.000000   1.000000
    109        -31.886067      -31.886067   1.000000   1.000000
    110        -31.886067      -31.886067   1.000000   1.000000
    111        -31.886055      -31.886055   1.000000   1.000000
    112        -31.883919      -31.883918   1.000000   1.000000
    113        -31.883919      -31.883918   1.000000   1.000000
    114        -31.863136      -31.863135   1.000000   1.000000
    115        -31.863133      -31.863133   1.000000   1.000000
    116        -31.863093      -31.863092   1.000000   1.000000
    117        -31.863093      -31.863092   1.000000   1.000000
    118        -31.769669      -31.769670   1.000000   1.000000
    119        -31.769668      -31.769668   1.000000   1.000000
    120        -31.769485      -31.769486   1.000000   1.000000
    121        -31.769485      -31.769486   1.000000   1.000000
    122        -31.756865      -31.756865   1.000000   1.000000
    123        -31.703697      -31.703697   1.000000   1.000000
    124        -31.703604      -31.703604   1.000000   1.000000
    125        -31.703604      -31.703604   1.000000   1.000000
    126        -31.703539      -31.703539   1.000000   1.000000
    127        -31.659093      -31.659092   1.000000   1.000000
    128        -31.659093      -31.659092   1.000000   1.000000
    129        -31.659086      -31.659085   1.000000   1.000000
    130        -31.659072      -31.659072   1.000000   1.000000
    131        -31.641859      -31.641859   1.000000   1.000000
    132        -31.625854      -31.625855   1.000000   1.000000
    133        -31.625854      -31.625855   1.000000   1.000000
    134        -31.614983      -31.614983   1.000000   1.000000
    135        -31.614966      -31.614966   1.000000   1.000000
    136        -31.614966      -31.614966   1.000000   1.000000
    137        -31.614933      -31.614933   1.000000   1.000000
    138        -31.614544      -31.614544   1.000000   1.000000
    139        -31.614542      -31.614542   1.000000   1.000000
    140        -31.614526      -31.614525   1.000000   1.000000
    141        -31.614526      -31.614525   1.000000   1.000000
    142        -31.601014      -31.601014   1.000000   1.000000
    143        -31.550918      -31.550919   1.000000   1.000000
    144        -31.550837      -31.550837   1.000000   1.000000
    145        -31.550837      -31.550837   1.000000   1.000000
    146        -31.550775      -31.550775   1.000000   1.000000
    147        -31.535372      -31.535372   1.000000   1.000000
    148        -31.535372      -31.535372   1.000000   1.000000
    149        -31.535342      -31.535342   1.000000   1.000000
    150        -31.535318      -31.535318   1.000000   1.000000
    151        -31.505961      -31.505961   1.000000   1.000000
    152        -31.481513      -31.481512   1.000000   1.000000
    153        -31.481513      -31.481512   1.000000   1.000000
    154        -31.481509      -31.481509   1.000000   1.000000
    155        -31.481509      -31.481508   1.000000   1.000000
    156        -31.478467      -31.478467   1.000000   1.000000
    157        -31.478467      -31.478467   1.000000   1.000000
    158        -31.478442      -31.478442   1.000000   1.000000
    159        -31.478416      -31.478416   1.000000   1.000000
    160        -31.476241      -31.476241   1.000000   1.000000
    161        -31.476241      -31.476241   1.000000   1.000000
    162        -31.476234      -31.476234   1.000000   1.000000
    163        -31.476232      -31.476232   1.000000   1.000000
    164        -31.467680      -31.467680   1.000000   1.000000
    165        -31.467680      -31.467680   1.000000   1.000000
    166        -31.467669      -31.467670   1.000000   1.000000
    167        -31.467653      -31.467653   1.000000   1.000000
    168        -31.463114      -31.463114   1.000000   1.000000
    169        -31.463108      -31.463108   1.000000   1.000000
    170        -31.463108      -31.463108   1.000000   1.000000
    171        -31.463080      -31.463080   1.000000   1.000000
    172        -31.430621      -31.430621   1.000000   1.000000
    173        -31.413644      -31.413647   1.000000   1.000000
    174        -31.319043      -31.319040   1.000000   1.000000
    175        -31.302032      -31.302034   1.000000   1.000000
    176        -31.301986      -31.301988   1.000000   1.000000
    177        -31.301946      -31.301948   1.000000   1.000000
    178        -31.301946      -31.301948   1.000000   1.000000
    179        -31.279208      -31.279208   1.000000   1.000000
    180        -31.279208      -31.279208   1.000000   1.000000
    181        -31.259227      -31.259227   1.000000   1.000000
    182        -31.259227      -31.259227   1.000000   1.000000
    183        -31.259199      -31.259199   1.000000   1.000000
    184        -31.259197      -31.259197   1.000000   1.000000
    185        -31.258865      -31.258865   1.000000   1.000000
    186        -31.258857      -31.258857   1.000000   1.000000
    187        -31.258857      -31.258857   1.000000   1.000000
    188        -31.258825      -31.258826   1.000000   1.000000
    189        -31.250378      -31.250375   1.000000   1.000000
    190        -31.250372      -31.250370   1.000000   1.000000
    191        -31.250345      -31.250343   1.000000   1.000000
    192        -31.250345      -31.250343   1.000000   1.000000
    193        -31.240051      -31.240052   1.000000   1.000000
    194        -31.239940      -31.239941   1.000000   1.000000
    195        -31.239940      -31.239941   1.000000   1.000000
    196        -31.239851      -31.239852   1.000000   1.000000
    197        -31.196385      -31.196385   1.000000   1.000000
    198        -31.196385      -31.196385   1.000000   1.000000
    199        -31.196379      -31.196379   1.000000   1.000000
    200        -31.196378      -31.196378   1.000000   1.000000
    201        -31.189974      -31.189975   1.000000   1.000000
    202        -31.189974      -31.189975   1.000000   1.000000
    203        -31.189964      -31.189964   1.000000   1.000000
    204        -31.189959      -31.189959   1.000000   1.000000
    205        -31.175593      -31.175593   1.000000   1.000000
    206        -31.175593      -31.175593   1.000000   1.000000
    207        -31.175583      -31.175583   1.000000   1.000000
    208        -31.175583      -31.175583   1.000000   1.000000
    209        -31.161291      -31.161291   1.000000   1.000000
    210        -31.161236      -31.161236   1.000000   1.000000
    211        -31.161236      -31.161236   1.000000   1.000000
    212        -31.161196      -31.161196   1.000000   1.000000
    213        -31.101779      -31.101779   1.000000   1.000000
    214        -31.101776      -31.101777   1.000000   1.000000
    215        -31.101623      -31.101624   1.000000   1.000000
    216        -31.101623      -31.101624   1.000000   1.000000
    217        -31.091314      -31.091315   1.000000   1.000000
    218        -31.091292      -31.091293   1.000000   1.000000
    219        -31.091248      -31.091249   1.000000   1.000000
    220        -31.091248      -31.091249   1.000000   1.000000
    221        -31.089172      -31.089172   1.000000   1.000000
    222        -31.089172      -31.089172   1.000000   1.000000
    223        -31.086708      -31.086707   1.000000   1.000000
    224        -31.086683      -31.086682   1.000000   1.000000
    225        -31.086683      -31.086682   1.000000   1.000000
    226        -31.086645      -31.086644   1.000000   1.000000
    227        -31.055028      -31.055028   1.000000   1.000000
    228        -31.055019      -31.055019   1.000000   1.000000
    229        -31.055019      -31.055019   1.000000   1.000000
    230        -31.054961      -31.054961   1.000000   1.000000
    231        -31.040901      -31.040902   1.000000   1.000000
    232        -31.040901      -31.040902   1.000000   1.000000
    233        -31.040873      -31.040874   1.000000   1.000000
    234        -31.040868      -31.040869   1.000000   1.000000
    235        -30.948284      -30.948282   1.000000   1.000000
    236        -30.948232      -30.948230   1.000000   1.000000
    237        -30.948232      -30.948230   1.000000   1.000000
    238        -30.948193      -30.948191   1.000000   1.000000
    239        -30.943962      -30.943961   1.000000   1.000000
    240        -30.943962      -30.943961   1.000000   1.000000
    241        -30.943927      -30.943925   1.000000   1.000000
    242        -30.943922      -30.943921   1.000000   1.000000
    243        -30.943307      -30.943305   1.000000   1.000000
    244        -30.943307      -30.943305   1.000000   1.000000
    245        -30.943216      -30.943214   1.000000   1.000000
    246        -30.943199      -30.943198   1.000000   1.000000
    247        -30.918437      -30.918436   1.000000   1.000000
    248        -30.918437      -30.918436   1.000000   1.000000
    249        -30.884900      -30.884899   1.000000   1.000000
    250        -30.884879      -30.884878   1.000000   1.000000
    251        -30.884871      -30.884869   1.000000   1.000000
    252        -30.884871      -30.884869   1.000000   1.000000
    253         -2.216863       -2.216863   1.000000   1.000000
    254         -2.216852       -2.216852   1.000000   1.000000
    255         -2.216852       -2.216852   1.000000   1.000000
    256         -2.216845       -2.216845   1.000000   1.000000
    257         -1.417776       -1.417776   1.000000   1.000000
    258         -1.417751       -1.417751   1.000000   1.000000
    259         -1.417751       -1.417751   1.000000   1.000000
    260         -1.417735       -1.417735   1.000000   1.000000
    261         -1.339610       -1.339610   1.000000   1.000000
    262         -1.305366       -1.305366   1.000000   1.000000
    263         -0.970094       -0.970094   1.000000   1.000000
    264         -0.970094       -0.970094   1.000000   1.000000
    265         -0.970029       -0.970029   1.000000   1.000000
    266         -0.970029       -0.970029   1.000000   1.000000
    267         -0.919393       -0.919393   1.000000   1.000000
    268         -0.919385       -0.919385   1.000000   1.000000
    269         -0.919350       -0.919350   1.000000   1.000000
    270         -0.919350       -0.919350   1.000000   1.000000
    271         -0.813318       -0.813318   1.000000   1.000000
    272         -0.813310       -0.813310   1.000000   1.000000
    273         -0.813310       -0.813310   1.000000   1.000000
    274         -0.813305       -0.813305   1.000000   1.000000
    275         -0.728479       -0.728478   1.000000   1.000000
    276         -0.728453       -0.728453   1.000000   1.000000
    277         -0.728453       -0.728453   1.000000   1.000000
    278         -0.728451       -0.728451   1.000000   1.000000
    279         -0.548797       -0.548797   1.000000   1.000000
    280         -0.548761       -0.548761   1.000000   1.000000
    281         -0.548761       -0.548761   1.000000   1.000000
    282         -0.548729       -0.548729   1.000000   1.000000
    283         -0.519391       -0.519391   1.000000   1.000000
    284         -0.519372       -0.519372   1.000000   1.000000
    285         -0.519342       -0.519341   1.000000   1.000000
    286         -0.519342       -0.519341   1.000000   1.000000
    287         -0.484342       -0.484342   1.000000   1.000000
    288         -0.482375       -0.482375   1.000000   1.000000
    289         -0.482374       -0.482374   1.000000   1.000000
    290         -0.482265       -0.482265   1.000000   1.000000
    291         -0.482265       -0.482265   1.000000   1.000000
    292         -0.362326       -0.362326   1.000000   1.000000
    293         -0.362281       -0.362281   1.000000   1.000000
    294         -0.362281       -0.362281   1.000000   1.000000
    295         -0.362278       -0.362278   1.000000   1.000000
    296         -0.313006       -0.313005   1.000000   1.000000
    297         -0.222286       -0.222286   1.000000   1.000000
    298         -0.222286       -0.222286   1.000000   1.000000
    299         -0.222269       -0.222270   1.000000   1.000000
    300         -0.222268       -0.222268   1.000000   1.000000
    301         -0.129847       -0.129847   1.000000   1.000000
    302         -0.129814       -0.129814   1.000000   1.000000
    303         -0.129814       -0.129814   1.000000   1.000000
    304         -0.129786       -0.129786   1.000000   1.000000
    305          0.066782        0.066782   1.000000   1.000000
    306          0.066782        0.066782   1.000000   1.000000
    307          0.066785        0.066786   1.000000   1.000000
    308          0.066791        0.066791   1.000000   1.000000
    309          0.187254        0.187255   1.000000   1.000000
    310          0.187328        0.187329   1.000000   1.000000
    311          0.187328        0.187329   1.000000   1.000000
    312          0.187414        0.187415   1.000000   1.000000
    313          0.223356        0.223356   1.000000   1.000000
    314          0.223356        0.223356   1.000000   1.000000
    315          0.285898        0.285898   1.000000   1.000000
    316          0.285978        0.285978   1.000000   1.000000
    317          0.285978        0.285978   1.000000   1.000000
    318          0.286019        0.286019   1.000000   1.000000
    319          0.328688        0.328688   1.000000   1.000000
    320          0.328688        0.328688   1.000000   1.000000
    321          0.328705        0.328705   1.000000   1.000000
    322          0.328707        0.328707   1.000000   1.000000
    323          0.389473        0.389473   1.000000   1.000000
    324          0.389473        0.389473   1.000000   1.000000
    325          0.421398        0.421398   1.000000   1.000000
    326          0.421398        0.421398   1.000000   1.000000
    327          0.421461        0.421461   1.000000   1.000000
    328          0.421471        0.421471   1.000000   1.000000
    329          0.435200        0.435200   1.000000   1.000000
    330          0.435200        0.435200   1.000000   1.000000
    331          0.435231        0.435231   1.000000   1.000000
    332          0.435235        0.435235   1.000000   1.000000
    333          0.487899        0.487898   1.000000   1.000000
    334          0.487932        0.487932   1.000000   1.000000
    335          0.487932        0.487932   1.000000   1.000000
    336          0.487964        0.487963   1.000000   1.000000
    337          0.534278        0.534278   1.000000   1.000000
    338          0.671859        0.671860   1.000000   1.000000
    339          0.671859        0.671860   1.000000   1.000000
    340          0.671956        0.671957   1.000000   1.000000
    341          0.671964        0.671965   1.000000   1.000000
    342          0.856033        0.856033   1.000000   1.000000
    343          0.856033        0.856033   1.000000   1.000000
    344          0.908133        0.908133   1.000000   1.000000
    345          0.908273        0.908273   1.000000   1.000000
    346          0.908273        0.908273   1.000000   1.000000
    347          0.908382        0.908382   1.000000   1.000000
    348          0.915822        0.915822   1.000000   1.000000
    349          0.915834        0.915834   1.000000   1.000000
    350          0.915842        0.915843   1.000000   1.000000
    351          0.915842        0.915843   1.000000   1.000000
    352          0.933290        0.933290   1.000000   1.000000
    353          1.009044        1.009044   1.000000   1.000000
    354          1.009044        1.009044   1.000000   1.000000
    355          1.009129        1.009130   1.000000   1.000000
    356          1.009160        1.009161   1.000000   1.000000
    357          1.188172        1.188171   1.000000   1.000000
    358          1.188172        1.188171   1.000000   1.000000
    359          1.188237        1.188235   1.000000   1.000000
    360          1.188268        1.188267   1.000000   1.000000
    361          1.227551        1.227552   1.000000   1.000000
    362          1.227631        1.227632   1.000000   1.000000
    363          1.227631        1.227632   1.000000   1.000000
    364          1.227692        1.227693   1.000000   1.000000
    365          1.250266        1.250267   1.000000   1.000000
    366          1.296281        1.296281   1.000000   1.000000
    367          1.296324        1.296324   1.000000   1.000000
    368          1.296324        1.296324   1.000000   1.000000
    369          1.296358        1.296358   1.000000   1.000000
    370          1.428936        1.428937   1.000000   1.000000
    371          1.428936        1.428937   1.000000   1.000000
    372          1.487596        1.487596   1.000000   1.000000
    373          1.487596        1.487596   1.000000   1.000000
    374          1.487626        1.487626   1.000000   1.000000
    375          1.487635        1.487634   1.000000   1.000000
    376          1.517601        1.517600   1.000000   1.000000
    377          1.517696        1.517696   1.000000   1.000000
    378          1.517696        1.517696   1.000000   1.000000
    379          1.517788        1.517787   1.000000   1.000000
    380          1.519612        1.519612   1.000000   1.000000
    381          1.519627        1.519627   1.000000   1.000000
    382          1.519627        1.519627   1.000000   1.000000
    383          1.519645        1.519645   1.000000   1.000000
    384          1.743810        1.743810   1.000000   1.000000
    385          1.743828        1.743828   1.000000   1.000000
    386          1.743828        1.743828   1.000000   1.000000
    387          1.743839        1.743839   1.000000   1.000000
    388          1.835150        1.835151   1.000000   1.000000
    389          1.835152        1.835152   1.000000   1.000000
    390          1.835250        1.835250   1.000000   1.000000
    391          1.835250        1.835250   1.000000   1.000000
    392          1.946627        1.946627   1.000000   1.000000
    393          1.946736        1.946736   1.000000   1.000000
    394          1.946736        1.946736   1.000000   1.000000
    395          1.946855        1.946855   1.000000   1.000000
    396          2.035768        2.035768   1.000000   1.000000
    397          2.035775        2.035775   1.000000   1.000000
    398          2.035963        2.035962   1.000000   1.000000
    399          2.035963        2.035962   1.000000   1.000000
    400          2.280325        2.280325   1.000000   1.000000
    401          2.280325        2.280325   1.000000   1.000000
    402          2.385135        2.385135   1.000000   1.000000
    403          2.385277        2.385277   1.000000   1.000000
    404          2.385277        2.385277   1.000000   1.000000
    405          2.385393        2.385393   1.000000   1.000000
    406          2.646024        2.646024   1.000000   1.000000
    407          2.646031        2.646032   1.000000   1.000000
    408          2.646204        2.646204   1.000000   1.000000
    409          2.646204        2.646204   1.000000   1.000000
    410          2.878026        2.878027   1.000000   1.000000
    411          2.878221        2.878221   1.000000   1.000000
    412          2.878221        2.878221   1.000000   1.000000
    413          2.878379        2.878379   1.000000   1.000000
    414          2.926927        2.926927   1.000000   1.000000
    415          2.926942        2.926942   1.000000   1.000000
    416          2.926958        2.926959   1.000000   1.000000
    417          2.926958        2.926959   1.000000   1.000000
    418          3.024892        3.024890   1.000000   1.000000
    419          3.024904        3.024902   1.000000   1.000000
    420          3.024904        3.024902   1.000000   1.000000
    421          3.024928        3.024925   1.000000   1.000000
    422          3.078439        3.078442   1.000000   1.000000
    423          3.078680        3.078683   1.000000   1.000000
    424          3.078680        3.078683   1.000000   1.000000
    425          3.079017        3.079020   1.000000   1.000000
    426          3.085087        3.085087   1.000000   1.000000
    427          3.085087        3.085087   1.000000   1.000000
    428          3.085138        3.085138   1.000000   1.000000
    429          3.085149        3.085148   1.000000   1.000000
    430          3.095365        3.095365   1.000001   1.000001
    431          3.095366        3.095365   1.000001   1.000001
    432          3.095601        3.095601   1.000001   1.000001
    433          3.095601        3.095601   1.000001   1.000001
    434          3.383393        3.383393   1.013583   1.013583
    435          3.383500        3.383499   1.013409   1.013409
    436          3.383500        3.383499   1.013409   1.013409
    437          3.383571        3.383571   1.013291   1.013292
    438          3.461260        3.461261   0.612547   0.612537
    439          3.461260        3.461261   0.612547   0.612537
    440          3.461394        3.461395   0.611446   0.611436
    441          3.461413        3.461414   0.611288   0.611279
    442          3.590121        3.590121  -0.034617  -0.034617
    443          3.590121        3.590121  -0.034617  -0.034617
    444          3.614508        3.614508  -0.031840  -0.031839
    445          3.614513        3.614513  -0.031838  -0.031837
    446          3.614522        3.614522  -0.031834  -0.031834
    447          3.614522        3.614522  -0.031834  -0.031834
    448          3.722375        3.722376  -0.001283  -0.001283
    449          3.722464        3.722465  -0.001278  -0.001278
    450          3.722464        3.722465  -0.001278  -0.001278
    451          3.722521        3.722522  -0.001275  -0.001275
    452          3.963773        3.963773  -0.000000  -0.000000
    453          3.963781        3.963781  -0.000000  -0.000000
    454          3.963799        3.963799  -0.000000  -0.000000
    455          3.963799        3.963799  -0.000000  -0.000000
    456          4.043393        4.043393  -0.000000  -0.000000
    457          4.043400        4.043400  -0.000000  -0.000000
    458          4.043409        4.043409  -0.000000  -0.000000
    459          4.043409        4.043409  -0.000000  -0.000000
    460          4.220082        4.220081  -0.000000  -0.000000
    461          4.220088        4.220087  -0.000000  -0.000000
    462          4.220211        4.220211  -0.000000  -0.000000
    463          4.220211        4.220211  -0.000000  -0.000000
    464          4.339795        4.339794  -0.000000  -0.000000
    465          4.339808        4.339807  -0.000000  -0.000000
    466          4.339808        4.339807  -0.000000  -0.000000
    467          4.339810        4.339809  -0.000000  -0.000000
    468          4.357820        4.357820  -0.000000  -0.000000
    469          4.357991        4.357991  -0.000000  -0.000000
    470          4.357991        4.357991  -0.000000  -0.000000
    471          4.358168        4.358168  -0.000000  -0.000000
    472          4.432937        4.432937  -0.000000  -0.000000
    473          4.433094        4.433094  -0.000000  -0.000000
    474          4.433094        4.433094  -0.000000  -0.000000
    475          4.433274        4.433274  -0.000000  -0.000000
    476          4.575909        4.575909  -0.000000  -0.000000
    477          4.575921        4.575921  -0.000000  -0.000000
    478          4.576148        4.576148  -0.000000  -0.000000
    479          4.576148        4.576148  -0.000000  -0.000000
    480          4.681054        4.681054  -0.000000  -0.000000
    481          4.681057        4.681058  -0.000000  -0.000000
    482          4.681215        4.681215  -0.000000  -0.000000
    483          4.681215        4.681215  -0.000000  -0.000000
    484          4.856431        4.856434  -0.000000  -0.000000
    485          4.884301        4.884302  -0.000000  -0.000000
    486          4.884301        4.884302  -0.000000  -0.000000
    487          4.884301        4.884302  -0.000000  -0.000000
    488          4.884304        4.884305  -0.000000  -0.000000
    489          4.925279        4.925277  -0.000000  -0.000000
    490          4.925313        4.925311  -0.000000  -0.000000
    491          4.925334        4.925332  -0.000000  -0.000000
    492          4.925334        4.925332  -0.000000  -0.000000
    493          4.997193        4.997190  -0.000000  -0.000000
    494          5.018390        5.018390  -0.000000  -0.000000
    495          5.018459        5.018459  -0.000000  -0.000000
    496          5.018459        5.018459  -0.000000  -0.000000
    497          5.018531        5.018531  -0.000000  -0.000000
    498          5.136017        5.136017  -0.000000  -0.000000
    499          5.136025        5.136025  -0.000000  -0.000000
    500          5.136087        5.136087  -0.000000  -0.000000
    501          5.136087        5.136087  -0.000000  -0.000000
    502          5.137403        5.137404  -0.000000  -0.000000
    503          5.137412        5.137413  -0.000000  -0.000000
    504          5.137412        5.137413  -0.000000  -0.000000
    505          5.137426        5.137426  -0.000000  -0.000000
    506          5.170330        5.170330  -0.000000  -0.000000
    507          5.170353        5.170353  -0.000000  -0.000000
    508          5.170353        5.170353  -0.000000  -0.000000
    509          5.170401        5.170401  -0.000000  -0.000000
    510          5.177894        5.177894  -0.000000  -0.000000
    511          5.177913        5.177912  -0.000000  -0.000000
    512          5.177961        5.177961  -0.000000  -0.000000
    513          5.177961        5.177961  -0.000000  -0.000000
    514          5.305804        5.305807  -0.000000  -0.000000
    515          5.305835        5.305838  -0.000000  -0.000000
    516          5.305953        5.305957  -0.000000  -0.000000
    517          5.305953        5.305957  -0.000000  -0.000000
    518          5.331363        5.331363  -0.000000  -0.000000
    519          5.403572        5.403572  -0.000000  -0.000000
    520          5.403657        5.403656  -0.000000  -0.000000
    521          5.403657        5.403656  -0.000000  -0.000000
    522          5.403728        5.403728  -0.000000  -0.000000
    523          5.406789        5.406789  -0.000000  -0.000000
    524          5.498800        5.498800  -0.000000  -0.000000
    525          5.498812        5.498812  -0.000000  -0.000000
    526          5.498812        5.498812  -0.000000  -0.000000
    527          5.498819        5.498820  -0.000000  -0.000000
    528          5.566429        5.566429  -0.000000  -0.000000
    529          5.586584        5.586585  -0.000000  -0.000000
    530          5.586584        5.586585  -0.000000  -0.000000
    531          5.738142        5.738143  -0.000000  -0.000000
    532          5.779183        5.779183  -0.000000  -0.000000
    533          5.802147        5.802146  -0.000000  -0.000000
    534          5.802147        5.802146  -0.000000  -0.000000
    535          5.802198        5.802198  -0.000000  -0.000000
    536          5.802216        5.802215  -0.000000  -0.000000
    537          5.841390        5.841390  -0.000000  -0.000000
    538          5.847408        5.847408  -0.000000  -0.000000
    539          5.865086        5.865086  -0.000000  -0.000000
    540          5.895952        5.895952  -0.000000  -0.000000
    541          5.944063        5.944064  -0.000000  -0.000000
    542          5.944070        5.944071  -0.000000  -0.000000
    543          5.944070        5.944071  -0.000000  -0.000000
    544          5.944105        5.944105  -0.000000  -0.000000
    545          5.951652        5.951652  -0.000000  -0.000000
    546          5.951652        5.951652  -0.000000  -0.000000
    547          5.951687        5.951688  -0.000000  -0.000000
    548          5.951698        5.951698  -0.000000  -0.000000
    549          5.964326        5.964326  -0.000000  -0.000000
    550          6.013241        6.013241  -0.000000  -0.000000
    551          6.013241        6.013241  -0.000000  -0.000000
    552          6.013315        6.013314  -0.000000  -0.000000
    553          6.013315        6.013315  -0.000000  -0.000000
    554          6.020127        6.020127  -0.000000  -0.000000
    555          6.020139        6.020139  -0.000000  -0.000000
    556          6.020139        6.020139  -0.000000  -0.000000
    557          6.020140        6.020140  -0.000000  -0.000000
    558          6.022707        6.022707  -0.000000  -0.000000
    559          6.022707        6.022707  -0.000000  -0.000000
    560          6.022801        6.022801  -0.000000  -0.000000
    561          6.022802        6.022802  -0.000000  -0.000000
    562          6.062348        6.062349  -0.000000  -0.000000
    563          6.062348        6.062349  -0.000000  -0.000000
    564          6.062404        6.062404  -0.000000  -0.000000
    565          6.062412        6.062412  -0.000000  -0.000000
    566          6.179893        6.179893  -0.000000  -0.000000
    567          6.179893        6.179893  -0.000000  -0.000000
    568          6.209008        6.209010   0.000000   0.000000
    569          6.236258        6.236256   0.000000   0.000000
    570          6.278171        6.278171   0.000000   0.000000
    571          6.278180        6.278181   0.000000   0.000000
    572          6.278184        6.278184   0.000000   0.000000
    573          6.278184        6.278184   0.000000   0.000000
    574          6.374841        6.374841   0.000000   0.000000
    575          6.374912        6.374912   0.000000   0.000000
    576          6.374912        6.374912   0.000000   0.000000
    577          6.375014        6.375013   0.000000   0.000000
    578          6.707443        6.707442   0.000000   0.000000
    579          6.707525        6.707524   0.000000   0.000000
    580          6.707525        6.707524   0.000000   0.000000
    581          6.707633        6.707632   0.000000   0.000000
    582          6.972464        6.972465   0.000000   0.000000
    583          6.972464        6.972465   0.000000   0.000000
    584          6.972486        6.972486   0.000000   0.000000
    585          6.972488        6.972488   0.000000   0.000000
    586          7.031950        7.031950   0.000000   0.000000
    587          7.032013        7.032013   0.000000   0.000000
    588          7.032013        7.032013   0.000000   0.000000
    589          7.032093        7.032093   0.000000   0.000000
    590          7.311460        7.311520   0.000000   0.000000
    591          7.311552        7.311612   0.000000   0.000000
    592          7.311552        7.311612   0.000000   0.000000
    593          7.311680        7.311739   0.000000   0.000000
    594          7.343545        7.343546   0.000000   0.000000
    595          7.343545        7.343546   0.000000   0.000000
    596          7.343590        7.343591   0.000000   0.000000
    597          7.343613        7.343613   0.000000   0.000000
    598          7.611489        7.611490   0.000000   0.000000
    599          7.611489        7.611490   0.000000   0.000000
    600          7.611629        7.611629   0.000000   0.000000
    601          7.611630        7.611630   0.000000   0.000000
    602          8.006299        8.006300   0.000000   0.000000
    603          8.006299        8.006300   0.000000   0.000000
    604          8.006394        8.006394   0.000000   0.000000
    605          8.006434        8.006434   0.000000   0.000000
    606          8.076734        8.076775   0.000000   0.000000
    607          8.076791        8.076832   0.000000   0.000000
    608          8.076791        8.076832   0.000000   0.000000
    609          8.076840        8.076880   0.000000   0.000000
    610          8.186789        8.187231   0.000000   0.000000
    611          8.186834        8.187277   0.000000   0.000000
    612          8.186834        8.187277   0.000000   0.000000
    613          8.186855        8.187291   0.000000   0.000000
    614          8.530342        8.530341   0.000000   0.000000
    615          8.530342        8.530341   0.000000   0.000000
    616          8.530410        8.530408   0.000000   0.000000
    617          8.530429        8.530428   0.000000   0.000000
    618          8.845164        8.845164   0.000000   0.000000
    619          8.845164        8.845164   0.000000   0.000000
    620          8.845332        8.845333   0.000000   0.000000
    621          8.845347        8.845348   0.000000   0.000000
    622          9.070267        9.070271   0.000000   0.000000
    623          9.070279        9.070283   0.000000   0.000000
    624          9.070279        9.070283   0.000000   0.000000
    625          9.070288        9.070293   0.000000   0.000000
    626          9.527065        9.527069   0.000000   0.000000
    627          9.527067        9.527071   0.000000   0.000000
    628          9.527097        9.527101   0.000000   0.000000
    629          9.527097        9.527101   0.000000   0.000000
    630          9.580018        9.580018   0.000000   0.000000
    631          9.580018        9.580018   0.000000   0.000000
    632          9.617551        9.617487   0.000000   0.000000
    633          9.617561        9.617498   0.000000   0.000000
    634          9.617561        9.617498   0.000000   0.000000
    635          9.617587        9.617523   0.000000   0.000000
    636          9.636735        9.636737   0.000000   0.000000
    637          9.636735        9.636737   0.000000   0.000000
    638          9.636833        9.636835   0.000000   0.000000
    639          9.636855        9.636857   0.000000   0.000000
    640          9.638931        9.639541   0.000000   0.000000
    641          9.638951        9.639571   0.000000   0.000000
    642          9.638951        9.639571   0.000000   0.000000
    643          9.638956        9.639577   0.000000   0.000000
    644         10.657338       10.657330   0.000000   0.000000
    645         10.657339       10.657332   0.000000   0.000000
    646         10.657404       10.657396   0.000000   0.000000
    647         10.657404       10.657396   0.000000   0.000000
    648         10.747497       10.747655   0.000000   0.000000
    649         10.747518       10.747676   0.000000   0.000000
    650         10.747528       10.747686   0.000000   0.000000
    651         10.747528       10.747686   0.000000   0.000000
    652         11.117338       11.117348   0.000000   0.000000
    653         11.200941       11.200933   0.000000   0.000000
    654         11.329093       11.329451   0.000000   0.000000
    655         11.329093       11.329451   0.000000   0.000000
    656         11.329095       11.329461   0.000000   0.000000
    657         11.329121       11.329488   0.000000   0.000000
    658         11.584054       11.584289   0.000000   0.000000
    659         11.584103       11.584341   0.000000   0.000000
    660         11.584103       11.584341   0.000000   0.000000
    661         11.584122       11.584358   0.000000   0.000000
    662         11.597651       11.597652   0.000000   0.000000
    663         11.597651       11.597652   0.000000   0.000000
    664         11.719737       11.719962   0.000000   0.000000
    665         11.719737       11.719962   0.000000   0.000000
    666         11.719780       11.720006   0.000000   0.000000
    667         11.719786       11.720012   0.000000   0.000000
    668         11.845032       11.845240   0.000000   0.000000
    669         11.845032       11.845240   0.000000   0.000000
    670         11.845040       11.845245   0.000000   0.000000
    671         11.845060       11.845269   0.000000   0.000000
    672         12.004066       12.004606   0.000000   0.000000
    673         12.004069       12.004619   0.000000   0.000000
    674         12.004152       12.004698   0.000000   0.000000
    675         12.004155       12.004699   0.000000   0.000000
    676         12.101924       12.101940   0.000000   0.000000
    677         12.112380       12.112368   0.000000   0.000000
    678         12.438580       12.438580   0.000000   0.000000
    679         12.438692       12.438693   0.000000   0.000000
    680         12.438692       12.438693   0.000000   0.000000
    681         12.438803       12.438804   0.000000   0.000000
    682         12.929390       12.929681   0.000000   0.000000
    683         12.929561       12.929685   0.000000   0.000000
    684         12.930862       12.929702   0.000000   0.000000
    685         12.933760       12.929902   0.000000   0.000000
    686         13.005100       12.972512   0.000000   0.000000
    687         13.018581       12.974131   0.000000   0.000000
