Generated by VASPKIT code
 1.000000
    9.4983997344999995    0.0000000000000000    0.0000000000000000
    0.0000000000000000    9.4983997344999995    0.0000000000000000
    0.0000000000000000    0.0000000000000000   24.5028991699000009
   Mo
    63
Selective Dynamics
Direct
    0.0000000000000000    0.0000000000000000    0.0000000000000000    F  F  F            Mo1
    0.0000000000000000    0.0000000000000000    0.3878300000000000    T  T  T            Mo2
    0.1666700000000000    0.1666700000000000    0.0646400000000000    F  F  F            Mo3
    0.3333300000000000    0.0000000000000000    0.0000000000000000    F  F  F            Mo4
    0.3333300000000000    0.0000000000000000    0.3878300000000000    T  T  T            Mo5
    0.5000000000000000    0.1666700000000000    0.0646400000000000    F  F  F            Mo6
    0.6666700000000000    0.0000000000000000    0.0000000000000000    F  F  F            Mo7
    0.6666700000000000    0.0000000000000000    0.3878300000000000    T  T  T            Mo8
    0.8333300000000000    0.1666700000000000    0.0646400000000000    F  F  F            Mo9
    0.0000000000000000    0.3333300000000000    0.0000000000000000    F  F  F           Mo10
    0.0000000000000000    0.3333300000000000    0.3878300000000000    T  T  T           Mo11
    0.1666700000000000    0.5000000000000000    0.0646400000000000    F  F  F           Mo12
    0.3333300000000000    0.3333300000000000    0.0000000000000000    F  F  F           Mo13
    0.3333300000000000    0.3333300000000000    0.3878300000000000    T  T  T           Mo14
    0.5000000000000000    0.5000000000000000    0.0646400000000000    F  F  F           Mo15
    0.6666700000000000    0.3333300000000000    0.0000000000000000    F  F  F           Mo16
    0.6666700000000000    0.3333300000000000    0.3878300000000000    T  T  T           Mo17
    0.8333300000000000    0.5000000000000000    0.0646400000000000    F  F  F           Mo18
    0.0000000000000000    0.6666700000000000    0.0000000000000000    F  F  F           Mo19
    0.0000000000000000    0.6666700000000000    0.3878300000000000    T  T  T           Mo20
    0.1666700000000000    0.8333300000000000    0.0646400000000000    F  F  F           Mo21
    0.3333300000000000    0.6666700000000000    0.0000000000000000    F  F  F           Mo22
    0.3333300000000000    0.6666700000000000    0.3878300000000000    T  T  T           Mo23
    0.5000000000000000    0.8333300000000000    0.0646400000000000    F  F  F           Mo24
    0.6666700000000000    0.6666700000000000    0.0000000000000000    F  F  F           Mo25
    0.6666700000000000    0.6666700000000000    0.3878300000000000    T  T  T           Mo26
    0.8333300000000000    0.8333300000000000    0.0646400000000000    F  F  F           Mo27
    0.0000000000000000    0.0000000000000000    0.1292800000000000    F  F  F           Mo28
    0.1666700000000000    0.1666700000000000    0.1939100000000000    F  F  F           Mo29
    0.3333300000000000    0.0000000000000000    0.1292800000000000    F  F  F           Mo30
    0.5000000000000000    0.1666700000000000    0.1939100000000000    F  F  F           Mo31
    0.6666700000000000    0.0000000000000000    0.1292800000000000    F  F  F           Mo32
    0.8333300000000000    0.1666700000000000    0.1939100000000000    F  F  F           Mo33
    0.0000000000000000    0.3333300000000000    0.1292800000000000    F  F  F           Mo34
    0.1666700000000000    0.5000000000000000    0.1939100000000000    F  F  F           Mo35
    0.3333300000000000    0.3333300000000000    0.1292800000000000    F  F  F           Mo36
    0.5000000000000000    0.5000000000000000    0.1939100000000000    F  F  F           Mo37
    0.6666700000000000    0.3333300000000000    0.1292800000000000    F  F  F           Mo38
    0.8333300000000000    0.5000000000000000    0.1939100000000000    F  F  F           Mo39
    0.0000000000000000    0.6666700000000000    0.1292800000000000    F  F  F           Mo40
    0.1666700000000000    0.8333300000000000    0.1939100000000000    F  F  F           Mo41
    0.3333300000000000    0.6666700000000000    0.1292800000000000    F  F  F           Mo42
    0.5000000000000000    0.8333300000000000    0.1939100000000000    F  F  F           Mo43
    0.6666700000000000    0.6666700000000000    0.1292800000000000    F  F  F           Mo44
    0.8333300000000000    0.8333300000000000    0.1939100000000000    F  F  F           Mo45
    0.0000000000000000    0.0000000000000000    0.2585500000000000    F  F  F           Mo46
    0.1666700000000000    0.1666700000000000    0.3231900000000000    T  T  T           Mo47
    0.3333300000000000    0.0000000000000000    0.2585500000000000    F  F  F           Mo48
    0.5000000000000000    0.1666700000000000    0.3231900000000000    T  T  T           Mo49
    0.6666700000000000    0.0000000000000000    0.2585500000000000    F  F  F           Mo50
    0.8333300000000000    0.1666700000000000    0.3231900000000000    T  T  T           Mo51
    0.0000000000000000    0.3333300000000000    0.2585500000000000    F  F  F           Mo52
    0.1666700000000000    0.5000000000000000    0.3231900000000000    T  T  T           Mo53
    0.3333300000000000    0.3333300000000000    0.2585500000000000    F  F  F           Mo54
    0.5000000000000000    0.5000000000000000    0.3231900000000000    T  T  T           Mo55
    0.6666700000000000    0.3333300000000000    0.2585500000000000    F  F  F           Mo56
    0.8333300000000000    0.5000000000000000    0.3231900000000000    T  T  T           Mo57
    0.0000000000000000    0.6666700000000000    0.2585500000000000    F  F  F           Mo58
    0.1666700000000000    0.8333300000000000    0.3231900000000000    T  T  T           Mo59
    0.3333300000000000    0.6666700000000000    0.2585500000000000    F  F  F           Mo60
    0.5000000000000000    0.8333300000000000    0.3231900000000000    T  T  T           Mo61
    0.6666700000000000    0.6666700000000000    0.2585500000000000    F  F  F           Mo62
    0.8333300000000000    0.8333300000000000    0.3231900000000000    T  T  T           Mo63
