ni3al                                   
           1
     9.498400    0.000000    0.000000
     0.000000    9.498400    0.000000
     0.000000    0.000000   24.502899
   Mo
    63
Direct configuration=     1
   0.00000000  0.00000000  0.00000000
   0.00000000  0.00000000  0.38783000
   0.16667000  0.16667000  0.06464000
   0.33333000  0.00000000  0.00000000
   0.33333000  0.00000000  0.38783000
   0.50000000  0.16667000  0.06464000
   0.66667000  0.00000000  0.00000000
   0.66667000  0.00000000  0.38783000
   0.83333000  0.16667000  0.06464000
   0.00000000  0.33333000  0.00000000
   0.00000000  0.33333000  0.38783000
   0.16667000  0.50000000  0.06464000
   0.33333000  0.33333000  0.00000000
   0.33333000  0.33333000  0.38783000
   0.50000000  0.50000000  0.06464000
   0.66667000  0.33333000  0.00000000
   0.66667000  0.33333000  0.38783000
   0.83333000  0.50000000  0.06464000
   0.00000000  0.66667000  0.00000000
   0.00000000  0.66667000  0.38783000
   0.16667000  0.83333000  0.06464000
   0.33333000  0.66667000  0.00000000
   0.33333000  0.66667000  0.38783000
   0.50000000  0.83333000  0.06464000
   0.66667000  0.66667000  0.00000000
   0.66667000  0.66667000  0.38783000
   0.83333000  0.83333000  0.06464000
   0.00000000  0.00000000  0.12928000
   0.16667000  0.16667000  0.19391000
   0.33333000  0.00000000  0.12928000
   0.50000000  0.16667000  0.19391000
   0.66667000  0.00000000  0.12928000
   0.83333000  0.16667000  0.19391000
   0.00000000  0.33333000  0.12928000
   0.16667000  0.50000000  0.19391000
   0.33333000  0.33333000  0.12928000
   0.50000000  0.50000000  0.19391000
   0.66667000  0.33333000  0.12928000
   0.83333000  0.50000000  0.19391000
   0.00000000  0.66667000  0.12928000
   0.16667000  0.83333000  0.19391000
   0.33333000  0.66667000  0.12928000
   0.50000000  0.83333000  0.19391000
   0.66667000  0.66667000  0.12928000
   0.83333000  0.83333000  0.19391000
   0.00000000  0.00000000  0.25855000
   0.16667000  0.16667000  0.32319000
   0.33333000  0.00000000  0.25855000
   0.50000000  0.16667000  0.32319000
   0.66667000  0.00000000  0.25855000
   0.83333000  0.16667000  0.32319000
   0.00000000  0.33333000  0.25855000
   0.16667000  0.50000000  0.32319000
   0.33333000  0.33333000  0.25855000
   0.50000000  0.50000000  0.32319000
   0.66667000  0.33333000  0.25855000
   0.83333000  0.50000000  0.32319000
   0.00000000  0.66667000  0.25855000
   0.16667000  0.83333000  0.32319000
   0.33333000  0.66667000  0.25855000
   0.50000000  0.83333000  0.32319000
   0.66667000  0.66667000  0.25855000
   0.83333000  0.83333000  0.32319000
Direct configuration=     2
   0.00000000  0.00000000  0.00000000
   0.00000000  0.00000000  0.38470278
   0.16667000  0.16667000  0.06464000
   0.33333000  0.00000000  0.00000000
   0.33333040  0.00000000  0.38470227
   0.50000000  0.16667000  0.06464000
   0.66667000  0.00000000  0.00000000
   0.66666960  0.00000000  0.38470227
   0.83333000  0.16667000  0.06464000
   0.00000000  0.33333000  0.00000000
   0.00000000  0.33333040  0.38470227
   0.16667000  0.50000000  0.06464000
   0.33333000  0.33333000  0.00000000
   0.33332849  0.33332849  0.38470323
   0.50000000  0.50000000  0.06464000
   0.66667000  0.33333000  0.00000000
   0.66667151  0.33332849  0.38470323
   0.83333000  0.50000000  0.06464000
   0.00000000  0.66667000  0.00000000
   0.00000000  0.66666960  0.38470227
   0.16667000  0.83333000  0.06464000
   0.33333000  0.66667000  0.00000000
   0.33332849  0.66667151  0.38470323
   0.50000000  0.83333000  0.06464000
   0.66667000  0.66667000  0.00000000
   0.66667151  0.66667151  0.38470323
   0.83333000  0.83333000  0.06464000
   0.00000000  0.00000000  0.12928000
   0.16667000  0.16667000  0.19391000
   0.33333000  0.00000000  0.12928000
   0.50000000  0.16667000  0.19391000
   0.66667000  0.00000000  0.12928000
   0.83333000  0.16667000  0.19391000
   0.00000000  0.33333000  0.12928000
   0.16667000  0.50000000  0.19391000
   0.33333000  0.33333000  0.12928000
   0.50000000  0.50000000  0.19391000
   0.66667000  0.33333000  0.12928000
   0.83333000  0.50000000  0.19391000
   0.00000000  0.66667000  0.12928000
   0.16667000  0.83333000  0.19391000
   0.33333000  0.66667000  0.12928000
   0.50000000  0.83333000  0.19391000
   0.66667000  0.66667000  0.12928000
   0.83333000  0.83333000  0.19391000
   0.00000000  0.00000000  0.25855000
   0.16666894  0.16666894  0.32581362
   0.33333000  0.00000000  0.25855000
   0.50000000  0.16666623  0.32581559
   0.66667000  0.00000000  0.25855000
   0.83333106  0.16666894  0.32581362
   0.00000000  0.33333000  0.25855000
   0.16666623  0.50000000  0.32581559
   0.33333000  0.33333000  0.25855000
   0.50000000  0.50000000  0.32581649
   0.66667000  0.33333000  0.25855000
   0.83333377  0.50000000  0.32581559
   0.00000000  0.66667000  0.25855000
   0.16666894  0.83333106  0.32581362
   0.33333000  0.66667000  0.25855000
   0.50000000  0.83333377  0.32581559
   0.66667000  0.66667000  0.25855000
   0.83333106  0.83333106  0.32581362
Direct configuration=     3
   0.00000000  0.00000000  0.00000000
   0.00000000  0.00000000  0.38364365
   0.16667000  0.16667000  0.06464000
   0.33333000  0.00000000  0.00000000
   0.33333053  0.00000000  0.38364297
   0.50000000  0.16667000  0.06464000
   0.66667000  0.00000000  0.00000000
   0.66666947  0.00000000  0.38364297
   0.83333000  0.16667000  0.06464000
   0.00000000  0.33333000  0.00000000
   0.00000000  0.33333053  0.38364297
   0.16667000  0.50000000  0.06464000
   0.33333000  0.33333000  0.00000000
   0.33332798  0.33332798  0.38364425
   0.50000000  0.50000000  0.06464000
   0.66667000  0.33333000  0.00000000
   0.66667202  0.33332798  0.38364425
   0.83333000  0.50000000  0.06464000
   0.00000000  0.66667000  0.00000000
   0.00000000  0.66666947  0.38364297
   0.16667000  0.83333000  0.06464000
   0.33333000  0.66667000  0.00000000
   0.33332798  0.66667202  0.38364425
   0.50000000  0.83333000  0.06464000
   0.66667000  0.66667000  0.00000000
   0.66667202  0.66667202  0.38364425
   0.83333000  0.83333000  0.06464000
   0.00000000  0.00000000  0.12928000
   0.16667000  0.16667000  0.19391000
   0.33333000  0.00000000  0.12928000
   0.50000000  0.16667000  0.19391000
   0.66667000  0.00000000  0.12928000
   0.83333000  0.16667000  0.19391000
   0.00000000  0.33333000  0.12928000
   0.16667000  0.50000000  0.19391000
   0.33333000  0.33333000  0.12928000
   0.50000000  0.50000000  0.19391000
   0.66667000  0.33333000  0.12928000
   0.83333000  0.50000000  0.19391000
   0.00000000  0.66667000  0.12928000
   0.16667000  0.83333000  0.19391000
   0.33333000  0.66667000  0.12928000
   0.50000000  0.83333000  0.19391000
   0.66667000  0.66667000  0.12928000
   0.83333000  0.83333000  0.19391000
   0.00000000  0.00000000  0.25855000
   0.16666858  0.16666858  0.32670219
   0.33333000  0.00000000  0.25855000
   0.50000000  0.16666495  0.32670482
   0.66667000  0.00000000  0.25855000
   0.83333142  0.16666858  0.32670219
   0.00000000  0.33333000  0.25855000
   0.16666495  0.50000000  0.32670482
   0.33333000  0.33333000  0.25855000
   0.50000000  0.50000000  0.32670603
   0.66667000  0.33333000  0.25855000
   0.83333505  0.50000000  0.32670482
   0.00000000  0.66667000  0.25855000
   0.16666858  0.83333142  0.32670219
   0.33333000  0.66667000  0.25855000
   0.50000000  0.83333505  0.32670482
   0.66667000  0.66667000  0.25855000
   0.83333142  0.83333142  0.32670219
Direct configuration=     4
   0.00000000  0.00000000  0.00000000
   0.00000000  0.00000000  0.38300159
   0.16667000  0.16667000  0.06464000
   0.33333000  0.00000000  0.00000000
   0.33332924  0.00000000  0.38300160
   0.50000000  0.16667000  0.06464000
   0.66667000  0.00000000  0.00000000
   0.66667076  0.00000000  0.38300160
   0.83333000  0.16667000  0.06464000
   0.00000000  0.33333000  0.00000000
   0.00000000  0.33332924  0.38300160
   0.16667000  0.50000000  0.06464000
   0.33333000  0.33333000  0.00000000
   0.33332680  0.33332680  0.38300136
   0.50000000  0.50000000  0.06464000
   0.66667000  0.33333000  0.00000000
   0.66667320  0.33332680  0.38300136
   0.83333000  0.50000000  0.06464000
   0.00000000  0.66667000  0.00000000
   0.00000000  0.66667076  0.38300160
   0.16667000  0.83333000  0.06464000
   0.33333000  0.66667000  0.00000000
   0.33332680  0.66667320  0.38300136
   0.50000000  0.83333000  0.06464000
   0.66667000  0.66667000  0.00000000
   0.66667320  0.66667320  0.38300136
   0.83333000  0.83333000  0.06464000
   0.00000000  0.00000000  0.12928000
   0.16667000  0.16667000  0.19391000
   0.33333000  0.00000000  0.12928000
   0.50000000  0.16667000  0.19391000
   0.66667000  0.00000000  0.12928000
   0.83333000  0.16667000  0.19391000
   0.00000000  0.33333000  0.12928000
   0.16667000  0.50000000  0.19391000
   0.33333000  0.33333000  0.12928000
   0.50000000  0.50000000  0.19391000
   0.66667000  0.33333000  0.12928000
   0.83333000  0.50000000  0.19391000
   0.00000000  0.66667000  0.12928000
   0.16667000  0.83333000  0.19391000
   0.33333000  0.66667000  0.12928000
   0.50000000  0.83333000  0.19391000
   0.66667000  0.66667000  0.12928000
   0.83333000  0.83333000  0.19391000
   0.00000000  0.00000000  0.25855000
   0.16666823  0.16666823  0.32617652
   0.33333000  0.00000000  0.25855000
   0.50000000  0.16666461  0.32617707
   0.66667000  0.00000000  0.25855000
   0.83333177  0.16666823  0.32617652
   0.00000000  0.33333000  0.25855000
   0.16666461  0.50000000  0.32617707
   0.33333000  0.33333000  0.25855000
   0.50000000  0.50000000  0.32617754
   0.66667000  0.33333000  0.25855000
   0.83333539  0.50000000  0.32617707
   0.00000000  0.66667000  0.25855000
   0.16666823  0.83333177  0.32617652
   0.33333000  0.66667000  0.25855000
   0.50000000  0.83333539  0.32617707
   0.66667000  0.66667000  0.25855000
   0.83333177  0.83333177  0.32617652
Direct configuration=     5
   0.00000000  0.00000000  0.00000000
   0.00000000  0.00000000  0.38107543
   0.16667000  0.16667000  0.06464000
   0.33333000  0.00000000  0.00000000
   0.33332538  0.00000000  0.38107749
   0.50000000  0.16667000  0.06464000
   0.66667000  0.00000000  0.00000000
   0.66667462  0.00000000  0.38107749
   0.83333000  0.16667000  0.06464000
   0.00000000  0.33333000  0.00000000
   0.00000000  0.33332538  0.38107749
   0.16667000  0.50000000  0.06464000
   0.33333000  0.33333000  0.00000000
   0.33332327  0.33332327  0.38107268
   0.50000000  0.50000000  0.06464000
   0.66667000  0.33333000  0.00000000
   0.66667673  0.33332327  0.38107268
   0.83333000  0.50000000  0.06464000
   0.00000000  0.66667000  0.00000000
   0.00000000  0.66667462  0.38107749
   0.16667000  0.83333000  0.06464000
   0.33333000  0.66667000  0.00000000
   0.33332327  0.66667673  0.38107268
   0.50000000  0.83333000  0.06464000
   0.66667000  0.66667000  0.00000000
   0.66667673  0.66667673  0.38107268
   0.83333000  0.83333000  0.06464000
   0.00000000  0.00000000  0.12928000
   0.16667000  0.16667000  0.19391000
   0.33333000  0.00000000  0.12928000
   0.50000000  0.16667000  0.19391000
   0.66667000  0.00000000  0.12928000
   0.83333000  0.16667000  0.19391000
   0.00000000  0.33333000  0.12928000
   0.16667000  0.50000000  0.19391000
   0.33333000  0.33333000  0.12928000
   0.50000000  0.50000000  0.19391000
   0.66667000  0.33333000  0.12928000
   0.83333000  0.50000000  0.19391000
   0.00000000  0.66667000  0.12928000
   0.16667000  0.83333000  0.19391000
   0.33333000  0.66667000  0.12928000
   0.50000000  0.83333000  0.19391000
   0.66667000  0.66667000  0.12928000
   0.83333000  0.83333000  0.19391000
   0.00000000  0.00000000  0.25855000
   0.16666717  0.16666717  0.32459951
   0.33333000  0.00000000  0.25855000
   0.50000000  0.16666358  0.32459380
   0.66667000  0.00000000  0.25855000
   0.83333283  0.16666717  0.32459951
   0.00000000  0.33333000  0.25855000
   0.16666358  0.50000000  0.32459380
   0.33333000  0.33333000  0.25855000
   0.50000000  0.50000000  0.32459209
   0.66667000  0.33333000  0.25855000
   0.83333642  0.50000000  0.32459380
   0.00000000  0.66667000  0.25855000
   0.16666717  0.83333283  0.32459951
   0.33333000  0.66667000  0.25855000
   0.50000000  0.83333642  0.32459380
   0.66667000  0.66667000  0.25855000
   0.83333283  0.83333283  0.32459951
Direct configuration=     6
   0.00000000  0.00000000  0.00000000
   0.00000000  0.00000000  0.38110352
   0.16667000  0.16667000  0.06464000
   0.33333000  0.00000000  0.00000000
   0.33332544  0.00000000  0.38110555
   0.50000000  0.16667000  0.06464000
   0.66667000  0.00000000  0.00000000
   0.66667456  0.00000000  0.38110555
   0.83333000  0.16667000  0.06464000
   0.00000000  0.33333000  0.00000000
   0.00000000  0.33332544  0.38110555
   0.16667000  0.50000000  0.06464000
   0.33333000  0.33333000  0.00000000
   0.33332332  0.33332332  0.38110080
   0.50000000  0.50000000  0.06464000
   0.66667000  0.33333000  0.00000000
   0.66667668  0.33332332  0.38110080
   0.83333000  0.50000000  0.06464000
   0.00000000  0.66667000  0.00000000
   0.00000000  0.66667456  0.38110555
   0.16667000  0.83333000  0.06464000
   0.33333000  0.66667000  0.00000000
   0.33332332  0.66667668  0.38110080
   0.50000000  0.83333000  0.06464000
   0.66667000  0.66667000  0.00000000
   0.66667668  0.66667668  0.38110080
   0.83333000  0.83333000  0.06464000
   0.00000000  0.00000000  0.12928000
   0.16667000  0.16667000  0.19391000
   0.33333000  0.00000000  0.12928000
   0.50000000  0.16667000  0.19391000
   0.66667000  0.00000000  0.12928000
   0.83333000  0.16667000  0.19391000
   0.00000000  0.33333000  0.12928000
   0.16667000  0.50000000  0.19391000
   0.33333000  0.33333000  0.12928000
   0.50000000  0.50000000  0.19391000
   0.66667000  0.33333000  0.12928000
   0.83333000  0.50000000  0.19391000
   0.00000000  0.66667000  0.12928000
   0.16667000  0.83333000  0.19391000
   0.33333000  0.66667000  0.12928000
   0.50000000  0.83333000  0.19391000
   0.66667000  0.66667000  0.12928000
   0.83333000  0.83333000  0.19391000
   0.00000000  0.00000000  0.25855000
   0.16666718  0.16666718  0.32462250
   0.33333000  0.00000000  0.25855000
   0.50000000  0.16666360  0.32461689
   0.66667000  0.00000000  0.25855000
   0.83333282  0.16666718  0.32462250
   0.00000000  0.33333000  0.25855000
   0.16666360  0.50000000  0.32461689
   0.33333000  0.33333000  0.25855000
   0.50000000  0.50000000  0.32461520
   0.66667000  0.33333000  0.25855000
   0.83333640  0.50000000  0.32461689
   0.00000000  0.66667000  0.25855000
   0.16666718  0.83333282  0.32462250
   0.33333000  0.66667000  0.25855000
   0.50000000  0.83333640  0.32461689
   0.66667000  0.66667000  0.25855000
   0.83333282  0.83333282  0.32462250
Direct configuration=     7
   0.00000000  0.00000000  0.00000000
   0.00000000  0.00000000  0.38122769
   0.16667000  0.16667000  0.06464000
   0.33333000  0.00000000  0.00000000
   0.33332476  0.00000000  0.38122658
   0.50000000  0.16667000  0.06464000
   0.66667000  0.00000000  0.00000000
   0.66667524  0.00000000  0.38122658
   0.83333000  0.16667000  0.06464000
   0.00000000  0.33333000  0.00000000
   0.00000000  0.33332476  0.38122658
   0.16667000  0.50000000  0.06464000
   0.33333000  0.33333000  0.00000000
   0.33332505  0.33332505  0.38122368
   0.50000000  0.50000000  0.06464000
   0.66667000  0.33333000  0.00000000
   0.66667495  0.33332505  0.38122368
   0.83333000  0.50000000  0.06464000
   0.00000000  0.66667000  0.00000000
   0.00000000  0.66667524  0.38122658
   0.16667000  0.83333000  0.06464000
   0.33333000  0.66667000  0.00000000
   0.33332505  0.66667495  0.38122368
   0.50000000  0.83333000  0.06464000
   0.66667000  0.66667000  0.00000000
   0.66667495  0.66667495  0.38122368
   0.83333000  0.83333000  0.06464000
   0.00000000  0.00000000  0.12928000
   0.16667000  0.16667000  0.19391000
   0.33333000  0.00000000  0.12928000
   0.50000000  0.16667000  0.19391000
   0.66667000  0.00000000  0.12928000
   0.83333000  0.16667000  0.19391000
   0.00000000  0.33333000  0.12928000
   0.16667000  0.50000000  0.19391000
   0.33333000  0.33333000  0.12928000
   0.50000000  0.50000000  0.19391000
   0.66667000  0.33333000  0.12928000
   0.83333000  0.50000000  0.19391000
   0.00000000  0.66667000  0.12928000
   0.16667000  0.83333000  0.19391000
   0.33333000  0.66667000  0.12928000
   0.50000000  0.83333000  0.19391000
   0.66667000  0.66667000  0.12928000
   0.83333000  0.83333000  0.19391000
   0.00000000  0.00000000  0.25855000
   0.16666713  0.16666713  0.32447112
   0.33333000  0.00000000  0.25855000
   0.50000000  0.16666982  0.32447057
   0.66667000  0.00000000  0.25855000
   0.83333287  0.16666713  0.32447112
   0.00000000  0.33333000  0.25855000
   0.16666982  0.50000000  0.32447057
   0.33333000  0.33333000  0.25855000
   0.50000000  0.50000000  0.32446890
   0.66667000  0.33333000  0.25855000
   0.83333018  0.50000000  0.32447057
   0.00000000  0.66667000  0.25855000
   0.16666713  0.83333287  0.32447112
   0.33333000  0.66667000  0.25855000
   0.50000000  0.83333018  0.32447057
   0.66667000  0.66667000  0.25855000
   0.83333287  0.83333287  0.32447112
Direct configuration=     8
   0.00000000  0.00000000  0.00000000
   0.00000000  0.00000000  0.38117778
   0.16667000  0.16667000  0.06464000
   0.33333000  0.00000000  0.00000000
   0.33332503  0.00000000  0.38117794
   0.50000000  0.16667000  0.06464000
   0.66667000  0.00000000  0.00000000
   0.66667497  0.00000000  0.38117794
   0.83333000  0.16667000  0.06464000
   0.00000000  0.33333000  0.00000000
   0.00000000  0.33332503  0.38117794
   0.16667000  0.50000000  0.06464000
   0.33333000  0.33333000  0.00000000
   0.33332435  0.33332435  0.38117429
   0.50000000  0.50000000  0.06464000
   0.66667000  0.33333000  0.00000000
   0.66667565  0.33332435  0.38117429
   0.83333000  0.50000000  0.06464000
   0.00000000  0.66667000  0.00000000
   0.00000000  0.66667497  0.38117794
   0.16667000  0.83333000  0.06464000
   0.33333000  0.66667000  0.00000000
   0.33332435  0.66667565  0.38117429
   0.50000000  0.83333000  0.06464000
   0.66667000  0.66667000  0.00000000
   0.66667565  0.66667565  0.38117429
   0.83333000  0.83333000  0.06464000
   0.00000000  0.00000000  0.12928000
   0.16667000  0.16667000  0.19391000
   0.33333000  0.00000000  0.12928000
   0.50000000  0.16667000  0.19391000
   0.66667000  0.00000000  0.12928000
   0.83333000  0.16667000  0.19391000
   0.00000000  0.33333000  0.12928000
   0.16667000  0.50000000  0.19391000
   0.33333000  0.33333000  0.12928000
   0.50000000  0.50000000  0.19391000
   0.66667000  0.33333000  0.12928000
   0.83333000  0.50000000  0.19391000
   0.00000000  0.66667000  0.12928000
   0.16667000  0.83333000  0.19391000
   0.33333000  0.66667000  0.12928000
   0.50000000  0.83333000  0.19391000
   0.66667000  0.66667000  0.12928000
   0.83333000  0.83333000  0.19391000
   0.00000000  0.00000000  0.25855000
   0.16666715  0.16666715  0.32453196
   0.33333000  0.00000000  0.25855000
   0.50000000  0.16666732  0.32452938
   0.66667000  0.00000000  0.25855000
   0.83333285  0.16666715  0.32453196
   0.00000000  0.33333000  0.25855000
   0.16666732  0.50000000  0.32452938
   0.33333000  0.33333000  0.25855000
   0.50000000  0.50000000  0.32452770
   0.66667000  0.33333000  0.25855000
   0.83333268  0.50000000  0.32452938
   0.00000000  0.66667000  0.25855000
   0.16666715  0.83333285  0.32453196
   0.33333000  0.66667000  0.25855000
   0.50000000  0.83333268  0.32452938
   0.66667000  0.66667000  0.25855000
   0.83333285  0.83333285  0.32453196
