  64  64   0   0
  0.3454128E+02  0.9498400E-09  0.9498400E-09  0.2450290E-08  0.5000000E-15
  1.000000000000000E-004
  CAR 
 ni3al                                   
      8.89930707    -60.88139911  301      3.50957704      1.00000000
    -60.881  0.0000E+00  0.0000E+00
    -60.649  0.0000E+00  0.0000E+00
    -60.416  0.0000E+00  0.0000E+00
    -60.184  0.0000E+00  0.0000E+00
    -59.951  0.0000E+00  0.0000E+00
    -59.718  0.0000E+00  0.0000E+00
    -59.486  0.0000E+00  0.0000E+00
    -59.253  0.0000E+00  0.0000E+00
    -59.021  0.0000E+00  0.0000E+00
    -58.788  0.0000E+00  0.0000E+00
    -58.555  0.0000E+00  0.0000E+00
    -58.323  0.0000E+00  0.0000E+00
    -58.090  0.1137E-06  0.2646E-07
    -57.858  0.1285E+00  0.2990E-01
    -57.625  0.4569E+02  0.1066E+02
    -57.392  0.2656E+03  0.7243E+02
    -57.160  0.1917E+03  0.1170E+03
    -56.927  0.3859E+02  0.1260E+03
    -56.695  0.2703E-01  0.1260E+03
    -56.462  0.2536E-08  0.1260E+03
    -56.229  0.0000E+00  0.1260E+03
    -55.997  0.0000E+00  0.1260E+03
    -55.764  0.0000E+00  0.1260E+03
    -55.532  0.0000E+00  0.1260E+03
    -55.299  0.0000E+00  0.1260E+03
    -55.066  0.0000E+00  0.1260E+03
    -54.834  0.0000E+00  0.1260E+03
    -54.601  0.0000E+00  0.1260E+03
    -54.369  0.0000E+00  0.1260E+03
    -54.136  0.0000E+00  0.1260E+03
    -53.903  0.0000E+00  0.1260E+03
    -53.671  0.0000E+00  0.1260E+03
    -53.438  0.0000E+00  0.1260E+03
    -53.206  0.0000E+00  0.1260E+03
    -52.973  0.0000E+00  0.1260E+03
    -52.740  0.0000E+00  0.1260E+03
    -52.508  0.0000E+00  0.1260E+03
    -52.275  0.0000E+00  0.1260E+03
    -52.043  0.0000E+00  0.1260E+03
    -51.810  0.0000E+00  0.1260E+03
    -51.577  0.0000E+00  0.1260E+03
    -51.345  0.0000E+00  0.1260E+03
    -51.112  0.0000E+00  0.1260E+03
    -50.879  0.0000E+00  0.1260E+03
    -50.647  0.0000E+00  0.1260E+03
    -50.414  0.0000E+00  0.1260E+03
    -50.182  0.0000E+00  0.1260E+03
    -49.949  0.0000E+00  0.1260E+03
    -49.716  0.0000E+00  0.1260E+03
    -49.484  0.0000E+00  0.1260E+03
    -49.251  0.0000E+00  0.1260E+03
    -49.019  0.0000E+00  0.1260E+03
    -48.786  0.0000E+00  0.1260E+03
    -48.553  0.0000E+00  0.1260E+03
    -48.321  0.0000E+00  0.1260E+03
    -48.088  0.0000E+00  0.1260E+03
    -47.856  0.0000E+00  0.1260E+03
    -47.623  0.0000E+00  0.1260E+03
    -47.390  0.0000E+00  0.1260E+03
    -47.158  0.0000E+00  0.1260E+03
    -46.925  0.0000E+00  0.1260E+03
    -46.693  0.0000E+00  0.1260E+03
    -46.460  0.0000E+00  0.1260E+03
    -46.227  0.0000E+00  0.1260E+03
    -45.995  0.0000E+00  0.1260E+03
    -45.762  0.0000E+00  0.1260E+03
    -45.530  0.0000E+00  0.1260E+03
    -45.297  0.0000E+00  0.1260E+03
    -45.064  0.0000E+00  0.1260E+03
    -44.832  0.0000E+00  0.1260E+03
    -44.599  0.0000E+00  0.1260E+03
    -44.367  0.0000E+00  0.1260E+03
    -44.134  0.0000E+00  0.1260E+03
    -43.901  0.0000E+00  0.1260E+03
    -43.669  0.0000E+00  0.1260E+03
    -43.436  0.0000E+00  0.1260E+03
    -43.204  0.0000E+00  0.1260E+03
    -42.971  0.0000E+00  0.1260E+03
    -42.738  0.0000E+00  0.1260E+03
    -42.506  0.0000E+00  0.1260E+03
    -42.273  0.0000E+00  0.1260E+03
    -42.041  0.0000E+00  0.1260E+03
    -41.808  0.0000E+00  0.1260E+03
    -41.575  0.0000E+00  0.1260E+03
    -41.343  0.0000E+00  0.1260E+03
    -41.110  0.0000E+00  0.1260E+03
    -40.878  0.0000E+00  0.1260E+03
    -40.645  0.0000E+00  0.1260E+03
    -40.412  0.0000E+00  0.1260E+03
    -40.180  0.0000E+00  0.1260E+03
    -39.947  0.0000E+00  0.1260E+03
    -39.715  0.0000E+00  0.1260E+03
    -39.482  0.0000E+00  0.1260E+03
    -39.249  0.0000E+00  0.1260E+03
    -39.017  0.0000E+00  0.1260E+03
    -38.784  0.0000E+00  0.1260E+03
    -38.552  0.0000E+00  0.1260E+03
    -38.319  0.0000E+00  0.1260E+03
    -38.086  0.0000E+00  0.1260E+03
    -37.854  0.0000E+00  0.1260E+03
    -37.621  0.0000E+00  0.1260E+03
    -37.389  0.0000E+00  0.1260E+03
    -37.156  0.0000E+00  0.1260E+03
    -36.923  0.0000E+00  0.1260E+03
    -36.691  0.0000E+00  0.1260E+03
    -36.458  0.0000E+00  0.1260E+03
    -36.226  0.0000E+00  0.1260E+03
    -35.993  0.0000E+00  0.1260E+03
    -35.760  0.0000E+00  0.1260E+03
    -35.528  0.0000E+00  0.1260E+03
    -35.295  0.0000E+00  0.1260E+03
    -35.063  0.0000E+00  0.1260E+03
    -34.830  0.0000E+00  0.1260E+03
    -34.597  0.0000E+00  0.1260E+03
    -34.365  0.0000E+00  0.1260E+03
    -34.132  0.0000E+00  0.1260E+03
    -33.900  0.0000E+00  0.1260E+03
    -33.667  0.0000E+00  0.1260E+03
    -33.434  0.0000E+00  0.1260E+03
    -33.202  0.0000E+00  0.1260E+03
    -32.969  0.4475E-15  0.1260E+03
    -32.737  0.1936E-05  0.1260E+03
    -32.504  0.4663E+00  0.1261E+03
    -32.271  0.3714E+02  0.1347E+03
    -32.039  0.1926E+03  0.1795E+03
    -31.806  0.2125E+03  0.2290E+03
    -31.574  0.2397E+03  0.2847E+03
    -31.341  0.2926E+03  0.3528E+03
    -31.108  0.3389E+03  0.4316E+03
    -30.876  0.2867E+03  0.4983E+03
    -30.643  0.2451E+02  0.5040E+03
    -30.410  0.6253E-02  0.5040E+03
    -30.178  0.1053E-09  0.5040E+03
    -29.945  0.0000E+00  0.5040E+03
    -29.713  0.0000E+00  0.5040E+03
    -29.480  0.0000E+00  0.5040E+03
    -29.247  0.0000E+00  0.5040E+03
    -29.015  0.0000E+00  0.5040E+03
    -28.782  0.0000E+00  0.5040E+03
    -28.550  0.0000E+00  0.5040E+03
    -28.317  0.0000E+00  0.5040E+03
    -28.084  0.0000E+00  0.5040E+03
    -27.852  0.0000E+00  0.5040E+03
    -27.619  0.0000E+00  0.5040E+03
    -27.387  0.0000E+00  0.5040E+03
    -27.154  0.0000E+00  0.5040E+03
    -26.921  0.0000E+00  0.5040E+03
    -26.689  0.0000E+00  0.5040E+03
    -26.456  0.0000E+00  0.5040E+03
    -26.224  0.0000E+00  0.5040E+03
    -25.991  0.0000E+00  0.5040E+03
    -25.758  0.0000E+00  0.5040E+03
    -25.526  0.0000E+00  0.5040E+03
    -25.293  0.0000E+00  0.5040E+03
    -25.061  0.0000E+00  0.5040E+03
    -24.828  0.0000E+00  0.5040E+03
    -24.595  0.0000E+00  0.5040E+03
    -24.363  0.0000E+00  0.5040E+03
    -24.130  0.0000E+00  0.5040E+03
    -23.898  0.0000E+00  0.5040E+03
    -23.665  0.0000E+00  0.5040E+03
    -23.432  0.0000E+00  0.5040E+03
    -23.200  0.0000E+00  0.5040E+03
    -22.967  0.0000E+00  0.5040E+03
    -22.735  0.0000E+00  0.5040E+03
    -22.502  0.0000E+00  0.5040E+03
    -22.269  0.0000E+00  0.5040E+03
    -22.037  0.0000E+00  0.5040E+03
    -21.804  0.0000E+00  0.5040E+03
    -21.572  0.0000E+00  0.5040E+03
    -21.339  0.0000E+00  0.5040E+03
    -21.106  0.0000E+00  0.5040E+03
    -20.874  0.0000E+00  0.5040E+03
    -20.641  0.0000E+00  0.5040E+03
    -20.409  0.0000E+00  0.5040E+03
    -20.176  0.0000E+00  0.5040E+03
    -19.943  0.0000E+00  0.5040E+03
    -19.711  0.0000E+00  0.5040E+03
    -19.478  0.0000E+00  0.5040E+03
    -19.246  0.0000E+00  0.5040E+03
    -19.013  0.0000E+00  0.5040E+03
    -18.780  0.0000E+00  0.5040E+03
    -18.548  0.0000E+00  0.5040E+03
    -18.315  0.0000E+00  0.5040E+03
    -18.083  0.0000E+00  0.5040E+03
    -17.850  0.0000E+00  0.5040E+03
    -17.617  0.0000E+00  0.5040E+03
    -17.385  0.0000E+00  0.5040E+03
    -17.152  0.0000E+00  0.5040E+03
    -16.920  0.0000E+00  0.5040E+03
    -16.687  0.0000E+00  0.5040E+03
    -16.454  0.0000E+00  0.5040E+03
    -16.222  0.2406E-09  0.5040E+03
    -15.989  0.4712E-02  0.5040E+03
    -15.757  0.4380E+01  0.5050E+03
    -15.524  0.4210E+01  0.5060E+03
    -15.291  0.3949E-02  0.5060E+03
    -15.059  0.1722E-09  0.5060E+03
    -14.826  0.0000E+00  0.5060E+03
    -14.594  0.0000E+00  0.5060E+03
    -14.361  0.0000E+00  0.5060E+03
    -14.128  0.0000E+00  0.5060E+03
    -13.896  0.0000E+00  0.5060E+03
    -13.663  0.0000E+00  0.5060E+03
    -13.431  0.0000E+00  0.5060E+03
    -13.198  0.0000E+00  0.5060E+03
    -12.965  0.0000E+00  0.5060E+03
    -12.733  0.0000E+00  0.5060E+03
    -12.500  0.0000E+00  0.5060E+03
    -12.268  0.0000E+00  0.5060E+03
    -12.035  0.0000E+00  0.5060E+03
    -11.802  0.0000E+00  0.5060E+03
    -11.570  0.0000E+00  0.5060E+03
    -11.337  0.0000E+00  0.5060E+03
    -11.104  0.0000E+00  0.5060E+03
    -10.872  0.0000E+00  0.5060E+03
    -10.639  0.0000E+00  0.5060E+03
    -10.407  0.0000E+00  0.5060E+03
    -10.174  0.0000E+00  0.5060E+03
     -9.941  0.0000E+00  0.5060E+03
     -9.709  0.0000E+00  0.5060E+03
     -9.476  0.0000E+00  0.5060E+03
     -9.244  0.0000E+00  0.5060E+03
     -9.011  0.0000E+00  0.5060E+03
     -8.778  0.0000E+00  0.5060E+03
     -8.546  0.0000E+00  0.5060E+03
     -8.313  0.0000E+00  0.5060E+03
     -8.081  0.0000E+00  0.5060E+03
     -7.848  0.0000E+00  0.5060E+03
     -7.615  0.0000E+00  0.5060E+03
     -7.383  0.0000E+00  0.5060E+03
     -7.150  0.0000E+00  0.5060E+03
     -6.918  0.0000E+00  0.5060E+03
     -6.685  0.0000E+00  0.5060E+03
     -6.452  0.0000E+00  0.5060E+03
     -6.220  0.0000E+00  0.5060E+03
     -5.987  0.0000E+00  0.5060E+03
     -5.755  0.0000E+00  0.5060E+03
     -5.522  0.0000E+00  0.5060E+03
     -5.289  0.0000E+00  0.5060E+03
     -5.057  0.0000E+00  0.5060E+03
     -4.824  0.0000E+00  0.5060E+03
     -4.592  0.0000E+00  0.5060E+03
     -4.359  0.0000E+00  0.5060E+03
     -4.126  0.0000E+00  0.5060E+03
     -3.894  0.0000E+00  0.5060E+03
     -3.661  0.7126E-09  0.5060E+03
     -3.429  0.2089E-02  0.5060E+03
     -3.196  0.5763E+00  0.5061E+03
     -2.963  0.3093E+01  0.5069E+03
     -2.731  0.1989E+01  0.5073E+03
     -2.498  0.6794E+01  0.5089E+03
     -2.266  0.2081E+02  0.5137E+03
     -2.033  0.1077E+02  0.5162E+03
     -1.800  0.8259E+01  0.5182E+03
     -1.568  0.1014E+02  0.5205E+03
     -1.335  0.2678E+02  0.5268E+03
     -1.103  0.4534E+02  0.5373E+03
     -0.870  0.6173E+02  0.5517E+03
     -0.637  0.7111E+02  0.5682E+03
     -0.405  0.5771E+02  0.5816E+03
     -0.172  0.7930E+02  0.6001E+03
      0.060  0.7277E+02  0.6170E+03
      0.293  0.7260E+02  0.6339E+03
      0.526  0.1109E+03  0.6597E+03
      0.758  0.1047E+03  0.6840E+03
      0.991  0.9145E+02  0.7053E+03
      1.223  0.8069E+02  0.7241E+03
      1.456  0.7257E+02  0.7409E+03
      1.689  0.9101E+02  0.7621E+03
      1.921  0.8209E+02  0.7812E+03
      2.154  0.9024E+02  0.8022E+03
      2.386  0.6947E+02  0.8184E+03
      2.619  0.5740E+02  0.8317E+03
      2.852  0.5183E+02  0.8438E+03
      3.084  0.7406E+02  0.8610E+03
      3.317  0.6699E+02  0.8766E+03
      3.549  0.5833E+02  0.8901E+03
      3.782  0.5712E+02  0.9034E+03
      4.015  0.6585E+02  0.9187E+03
      4.247  0.6752E+02  0.9345E+03
      4.480  0.6731E+02  0.9501E+03
      4.712  0.9153E+02  0.9714E+03
      4.945  0.1063E+03  0.9961E+03
      5.178  0.1135E+03  0.1023E+04
      5.410  0.1093E+03  0.1048E+04
      5.643  0.6322E+02  0.1063E+04
      5.875  0.5790E+01  0.1064E+04
      6.108  0.1111E-01  0.1064E+04
      6.341  0.1977E-07  0.1064E+04
      6.573  0.0000E+00  0.1064E+04
      6.806  0.0000E+00  0.1064E+04
      7.038  0.0000E+00  0.1064E+04
      7.271  0.0000E+00  0.1064E+04
      7.504  0.0000E+00  0.1064E+04
      7.736  0.0000E+00  0.1064E+04
      7.969  0.0000E+00  0.1064E+04
      8.202  0.0000E+00  0.1064E+04
      8.434  0.0000E+00  0.1064E+04
      8.667  0.0000E+00  0.1064E+04
      8.899  0.0000E+00  0.1064E+04
