   64   64    1    1
  0.3454128E+02  0.9498400E-09  0.9498400E-09  0.2450290E-08  0.5000000E-15
  1.000000000000000E-004
  CAR 
 ni3al                                   
    888      6    532
 
  0.0000000E+00  0.0000000E+00  0.0000000E+00  0.6250000E-01
      1        -57.709549   1.000000
      2        -57.652130   1.000000
      3        -57.614427   1.000000
      4        -57.604504   1.000000
      5        -57.604504   1.000000
      6        -57.603359   1.000000
      7        -57.579530   1.000000
      8        -57.567846   1.000000
      9        -57.565865   1.000000
     10        -57.565865   1.000000
     11        -57.559719   1.000000
     12        -57.556679   1.000000
     13        -57.555649   1.000000
     14        -57.555649   1.000000
     15        -57.540032   1.000000
     16        -57.535273   1.000000
     17        -57.534852   1.000000
     18        -57.534852   1.000000
     19        -57.529876   1.000000
     20        -57.471897   1.000000
     21        -57.462846   1.000000
     22        -57.462846   1.000000
     23        -57.448123   1.000000
     24        -57.436368   1.000000
     25        -57.430766   1.000000
     26        -57.430766   1.000000
     27        -57.428159   1.000000
     28        -57.427682   1.000000
     29        -57.423971   1.000000
     30        -57.417126   1.000000
     31        -57.417126   1.000000
     32        -57.416651   1.000000
     33        -57.415071   1.000000
     34        -57.415071   1.000000
     35        -57.414923   1.000000
     36        -57.407106   1.000000
     37        -57.398421   1.000000
     38        -57.398421   1.000000
     39        -57.397417   1.000000
     40        -57.392004   1.000000
     41        -57.383102   1.000000
     42        -57.383102   1.000000
     43        -57.381398   1.000000
     44        -57.376236   1.000000
     45        -57.376236   1.000000
     46        -57.375998   1.000000
     47        -57.362992   1.000000
     48        -57.344940   1.000000
     49        -57.311831   1.000000
     50        -57.217590   1.000000
     51        -57.217590   1.000000
     52        -57.215282   1.000000
     53        -57.215022   1.000000
     54        -57.213965   1.000000
     55        -57.211272   1.000000
     56        -57.211272   1.000000
     57        -57.204750   1.000000
     58        -57.192725   1.000000
     59        -57.176973   1.000000
     60        -57.175438   1.000000
     61        -57.175438   1.000000
     62        -57.167861   1.000000
     63        -57.131139   1.000000
     64        -32.376205   1.000000
     65        -32.312423   1.000000
     66        -32.312423   1.000000
     67        -32.244329   1.000000
     68        -32.225137   1.000000
     69        -32.210174   1.000000
     70        -32.205606   1.000000
     71        -32.205606   1.000000
     72        -32.201561   1.000000
     73        -32.195522   1.000000
     74        -32.195522   1.000000
     75        -32.191307   1.000000
     76        -32.157657   1.000000
     77        -32.133461   1.000000
     78        -32.133461   1.000000
     79        -32.091906   1.000000
     80        -32.082275   1.000000
     81        -32.072999   1.000000
     82        -32.072999   1.000000
     83        -32.070262   1.000000
     84        -32.059366   1.000000
     85        -32.054820   1.000000
     86        -32.049768   1.000000
     87        -32.046602   1.000000
     88        -32.046602   1.000000
     89        -32.044021   1.000000
     90        -32.044021   1.000000
     91        -32.043569   1.000000
     92        -32.043291   1.000000
     93        -32.035310   1.000000
     94        -32.035310   1.000000
     95        -32.034713   1.000000
     96        -32.034298   1.000000
     97        -32.017267   1.000000
     98        -32.017267   1.000000
     99        -32.009982   1.000000
    100        -31.980287   1.000000
    101        -31.944344   1.000000
    102        -31.942207   1.000000
    103        -31.942207   1.000000
    104        -31.917051   1.000000
    105        -31.900228   1.000000
    106        -31.900228   1.000000
    107        -31.900086   1.000000
    108        -31.891692   1.000000
    109        -31.842154   1.000000
    110        -31.831164   1.000000
    111        -31.831164   1.000000
    112        -31.797053   1.000000
    113        -31.791978   1.000000
    114        -31.791978   1.000000
    115        -31.790640   1.000000
    116        -31.786236   1.000000
    117        -31.786236   1.000000
    118        -31.784970   1.000000
    119        -31.782645   1.000000
    120        -31.766395   1.000000
    121        -31.765898   1.000000
    122        -31.765898   1.000000
    123        -31.729358   1.000000
    124        -31.720139   1.000000
    125        -31.720139   1.000000
    126        -31.716610   1.000000
    127        -31.689590   1.000000
    128        -31.689590   1.000000
    129        -31.681121   1.000000
    130        -31.677273   1.000000
    131        -31.676736   1.000000
    132        -31.669362   1.000000
    133        -31.669362   1.000000
    134        -31.660195   1.000000
    135        -31.652315   1.000000
    136        -31.627168   1.000000
    137        -31.627168   1.000000
    138        -31.602087   1.000000
    139        -31.593513   1.000000
    140        -31.593513   1.000000
    141        -31.592601   1.000000
    142        -31.584776   1.000000
    143        -31.583719   1.000000
    144        -31.567898   1.000000
    145        -31.567898   1.000000
    146        -31.562435   1.000000
    147        -31.562435   1.000000
    148        -31.554324   1.000000
    149        -31.551174   1.000000
    150        -31.539482   1.000000
    151        -31.513932   1.000000
    152        -31.496845   1.000000
    153        -31.496845   1.000000
    154        -31.490957   1.000000
    155        -31.490957   1.000000
    156        -31.484562   1.000000
    157        -31.468782   1.000000
    158        -31.465876   1.000000
    159        -31.465876   1.000000
    160        -31.452009   1.000000
    161        -31.431860   1.000000
    162        -31.402452   1.000000
    163        -31.395230   1.000000
    164        -31.395230   1.000000
    165        -31.387697   1.000000
    166        -31.387640   1.000000
    167        -31.387640   1.000000
    168        -31.386453   1.000000
    169        -31.385742   1.000000
    170        -31.385742   1.000000
    171        -31.379976   1.000000
    172        -31.378247   1.000000
    173        -31.351636   1.000000
    174        -31.347231   1.000000
    175        -31.347231   1.000000
    176        -31.333937   1.000000
    177        -31.315188   1.000000
    178        -31.315188   1.000000
    179        -31.303387   1.000000
    180        -31.298211   1.000000
    181        -31.294119   1.000000
    182        -31.287459   1.000000
    183        -31.273230   1.000000
    184        -31.272489   1.000000
    185        -31.270347   1.000000
    186        -31.270347   1.000000
    187        -31.262517   1.000000
    188        -31.261058   1.000000
    189        -31.261058   1.000000
    190        -31.246225   1.000000
    191        -31.246065   1.000000
    192        -31.246065   1.000000
    193        -31.236853   1.000000
    194        -31.236853   1.000000
    195        -31.230558   1.000000
    196        -31.222650   1.000000
    197        -31.221444   1.000000
    198        -31.217835   1.000000
    199        -31.217835   1.000000
    200        -31.211173   1.000000
    201        -31.208299   1.000000
    202        -31.206514   1.000000
    203        -31.204160   1.000000
    204        -31.204160   1.000000
    205        -31.202555   1.000000
    206        -31.166778   1.000000
    207        -31.150939   1.000000
    208        -31.150939   1.000000
    209        -31.120243   1.000000
    210        -31.120243   1.000000
    211        -31.119239   1.000000
    212        -31.113129   1.000000
    213        -31.108735   1.000000
    214        -31.098789   1.000000
    215        -31.096018   1.000000
    216        -31.095017   1.000000
    217        -31.095017   1.000000
    218        -31.094376   1.000000
    219        -31.094376   1.000000
    220        -31.088047   1.000000
    221        -31.086114   1.000000
    222        -31.083924   1.000000
    223        -31.083924   1.000000
    224        -31.083687   1.000000
    225        -31.082310   1.000000
    226        -31.073496   1.000000
    227        -31.073496   1.000000
    228        -31.043168   1.000000
    229        -31.043168   1.000000
    230        -31.041087   1.000000
    231        -31.039532   1.000000
    232        -31.036017   1.000000
    233        -31.023827   1.000000
    234        -31.023827   1.000000
    235        -31.023354   1.000000
    236        -31.022782   1.000000
    237        -31.013653   1.000000
    238        -31.013653   1.000000
    239        -31.009908   1.000000
    240        -31.005193   1.000000
    241        -31.004073   1.000000
    242        -30.988316   1.000000
    243        -30.988316   1.000000
    244        -30.965660   1.000000
    245        -30.965660   1.000000
    246        -30.927971   1.000000
    247        -30.919576   1.000000
    248        -30.903913   1.000000
    249        -30.903913   1.000000
    250        -30.893710   1.000000
    251        -30.893643   1.000000
    252        -30.893643   1.000000
    253        -15.758347   1.000000
    254         -3.240363   1.000000
    255         -2.409597   1.000000
    256         -2.409597   1.000000
    257         -2.338391   1.000000
    258         -2.180952   1.000000
    259         -1.619759   1.000000
    260         -1.443735   1.000000
    261         -1.425616   1.000000
    262         -1.425104   1.000000
    263         -1.425104   1.000000
    264         -1.413231   1.000000
    265         -1.366098   1.000000
    266         -1.365506   1.000000
    267         -1.344742   1.000000
    268         -1.344742   1.000000
    269         -1.246704   1.000000
    270         -1.209178   1.000000
    271         -1.176004   1.000000
    272         -1.176004   1.000000
    273         -1.059622   1.000000
    274         -1.033963   1.000000
    275         -1.004650   1.000000
    276         -1.003198   1.000000
    277         -1.003198   1.000000
    278         -0.951850   1.000000
    279         -0.895425   1.000000
    280         -0.869999   1.000000
    281         -0.855426   1.000000
    282         -0.855426   1.000000
    283         -0.627750   1.000000
    284         -0.594825   1.000000
    285         -0.580196   1.000000
    286         -0.580196   1.000000
    287         -0.558946   1.000000
    288         -0.558147   1.000000
    289         -0.551645   1.000000
    290         -0.551645   1.000000
    291         -0.539558   1.000000
    292         -0.212712   1.000000
    293         -0.193152   1.000000
    294         -0.187135   1.000000
    295         -0.183999   1.000000
    296         -0.183999   1.000000
    297         -0.091022   1.000000
    298         -0.077894   1.000000
    299         -0.069454   1.000000
    300         -0.058320   1.000000
    301         -0.058320   1.000000
    302         -0.032324   1.000000
    303          0.017830   1.000000
    304          0.017830   1.000000
    305          0.018901   1.000000
    306          0.020391   1.000000
    307          0.035942   1.000000
    308          0.042918   1.000000
    309          0.053057   1.000000
    310          0.053057   1.000000
    311          0.099525   1.000000
    312          0.102784   1.000000
    313          0.102784   1.000000
    314          0.105355   1.000000
    315          0.108328   1.000000
    316          0.124389   1.000000
    317          0.124389   1.000000
    318          0.218242   1.000000
    319          0.431326   1.000000
    320          0.434839   1.000000
    321          0.434839   1.000000
    322          0.537647   1.000000
    323          0.564785   1.000000
    324          0.570716   1.000000
    325          0.570716   1.000000
    326          0.573336   1.000000
    327          0.584998   1.000000
    328          0.584998   1.000000
    329          0.600956   1.000000
    330          0.609382   1.000000
    331          0.650712   1.000000
    332          0.650712   1.000000
    333          0.659151   1.000000
    334          0.735517   1.000000
    335          0.735517   1.000000
    336          0.754803   1.000000
    337          0.763218   1.000000
    338          0.766289   1.000000
    339          0.791509   1.000000
    340          0.791509   1.000000
    341          0.824430   1.000000
    342          0.833466   1.000000
    343          0.848956   1.000000
    344          0.878222   1.000000
    345          0.878222   1.000000
    346          0.890765   1.000000
    347          0.892553   1.000000
    348          0.940912   1.000000
    349          0.940912   1.000000
    350          0.953392   1.000000
    351          0.968817   1.000000
    352          1.036647   1.000000
    353          1.036647   1.000000
    354          1.088356   1.000000
    355          1.101695   1.000000
    356          1.101695   1.000000
    357          1.102271   1.000000
    358          1.169488   1.000000
    359          1.241752   1.000000
    360          1.258444   1.000000
    361          1.262441   1.000000
    362          1.262441   1.000000
    363          1.294647   1.000000
    364          1.326439   1.000000
    365          1.375229   1.000000
    366          1.381743   1.000000
    367          1.381743   1.000000
    368          1.397048   1.000000
    369          1.417965   1.000000
    370          1.417965   1.000000
    371          1.428038   1.000000
    372          1.428038   1.000000
    373          1.449759   1.000000
    374          1.464691   1.000000
    375          1.464691   1.000000
    376          1.471971   1.000000
    377          1.495980   1.000000
    378          1.563461   1.000000
    379          1.592891   1.000000
    380          1.685404   1.000000
    381          1.693452   1.000000
    382          1.693452   1.000000
    383          1.770863   1.000000
    384          1.788663   1.000000
    385          1.788663   1.000000
    386          1.853483   1.000000
    387          1.859804   1.000000
    388          1.948120   1.000000
    389          1.993194   1.000000
    390          2.006518   1.000000
    391          2.006518   1.000000
    392          2.015021   1.000000
    393          2.028884   1.000000
    394          2.028884   1.000000
    395          2.113468   1.000000
    396          2.113468   1.000000
    397          2.117546   1.000000
    398          2.137881   1.000000
    399          2.161689   1.000000
    400          2.225194   1.000000
    401          2.235849   1.000000
    402          2.235849   1.000000
    403          2.264682   1.000000
    404          2.264682   1.000000
    405          2.310187   1.000000
    406          2.310187   1.000000
    407          2.335829   1.000000
    408          2.337411   1.000000
    409          2.337910   1.000000
    410          2.352143   1.000000
    411          2.382395   1.000000
    412          2.382395   1.000000
    413          2.407662   1.000000
    414          2.407662   1.000000
    415          2.449628   1.000000
    416          2.485553   1.000000
    417          2.492542   1.000000
    418          2.672797   1.000000
    419          2.672797   1.000000
    420          2.696797   1.000000
    421          2.707667   1.000000
    422          2.707667   1.000000
    423          2.712456   1.000000
    424          2.737481   1.000000
    425          2.774561   1.000000
    426          2.774561   1.000000
    427          2.811891   1.000000
    428          2.918731   1.000000
    429          2.945473   1.000000
    430          2.945473   1.000000
    431          2.951173   1.000000
    432          3.115221   1.000000
    433          3.211348   0.999988
    434          3.243186   0.999918
    435          3.243186   0.999918
    436          3.263519   0.999749
    437          3.304126   0.998167
    438          3.304126   0.998167
    439          3.314165   0.997141
    440          3.446084   0.815386
    441          3.549048   0.288351
    442          3.590719   0.125582
    443          3.590719   0.125582
    444          3.614724   0.068507
    445          3.650437   0.023182
    446          3.666110   0.013424
    447          3.667266   0.012872
    448          3.667266   0.012872
    449          3.759540   0.000204
    450          3.761793   0.000181
    451          3.761793   0.000181
    452          3.763561   0.000164
    453          3.769624   0.000118
    454          3.786550   0.000045
    455          3.786550   0.000045
    456          3.821398   0.000005
    457          3.828462   0.000003
    458          3.836998   0.000002
    459          3.856997   0.000000
    460          3.856997   0.000000
    461          3.920188   0.000000
    462          3.920188   0.000000
    463          3.937585   0.000000
    464          3.954535   0.000000
    465          3.954535   0.000000
    466          3.981054   0.000000
    467          4.013996   0.000000
    468          4.070866   0.000000
    469          4.086986   0.000000
    470          4.086986   0.000000
    471          4.110528   0.000000
    472          4.115209   0.000000
    473          4.155788   0.000000
    474          4.170933   0.000000
    475          4.170933   0.000000
    476          4.193952   0.000000
    477          4.225277   0.000000
    478          4.227438   0.000000
    479          4.295252   0.000000
    480          4.295252   0.000000
    481          4.559940   0.000000
    482          4.578744   0.000000
    483          4.583781   0.000000
    484          4.583781   0.000000
    485          4.612311   0.000000
    486          4.649346   0.000000
    487          4.649346   0.000000
    488          4.656516   0.000000
    489          4.662943   0.000000
    490          4.710451   0.000000
    491          4.769870   0.000000
    492          4.803609   0.000000
    493          4.803609   0.000000
    494          4.845833   0.000000
    495          4.849960   0.000000
    496          4.849960   0.000000
    497          4.855877   0.000000
    498          4.873127   0.000000
    499          4.915409   0.000000
    500          4.938041   0.000000
    501          4.946152   0.000000
    502          4.946152   0.000000
    503          4.973065   0.000000
    504          5.029033   0.000000
    505          5.029033   0.000000
    506          5.030190   0.000000
    507          5.063765   0.000000
    508          5.128322   0.000000
    509          5.128322   0.000000
    510          5.158731   0.000000
    511          5.182995   0.000000
    512          5.182995   0.000000
    513          5.216307   0.000000
    514          5.218936   0.000000
    515          5.240566   0.000000
    516          5.299524   0.000000
    517          5.299524   0.000000
    518          5.323882   0.000000
    519          5.373768   0.000000
    520          5.387675   0.000000
    521          5.408723   0.000000
    522          5.419340   0.000000
    523          5.419350   0.000000
    524          5.490695   0.000000
    525          5.500526   0.000000
    526          5.508225   0.000000
    527          5.509060   0.000000
    528          5.535676   0.000000
    529          5.568165   0.000000
    530          5.569344   0.000000
    531          5.574486   0.000000
    532          5.596727   0.000000
 
  0.2500000E+00  0.0000000E+00  0.0000000E+00  0.2500000E+00
      1        -57.702477   1.000000
      2        -57.654004   1.000000
      3        -57.638075   1.000000
      4        -57.607401   1.000000
      5        -57.600618   1.000000
      6        -57.594444   1.000000
      7        -57.575485   1.000000
      8        -57.573761   1.000000
      9        -57.572769   1.000000
     10        -57.566716   1.000000
     11        -57.563121   1.000000
     12        -57.552119   1.000000
     13        -57.547947   1.000000
     14        -57.545509   1.000000
     15        -57.542015   1.000000
     16        -57.539682   1.000000
     17        -57.529977   1.000000
     18        -57.527833   1.000000
     19        -57.527032   1.000000
     20        -57.477981   1.000000
     21        -57.462497   1.000000
     22        -57.459739   1.000000
     23        -57.444293   1.000000
     24        -57.435793   1.000000
     25        -57.434678   1.000000
     26        -57.429770   1.000000
     27        -57.427981   1.000000
     28        -57.427651   1.000000
     29        -57.425346   1.000000
     30        -57.421369   1.000000
     31        -57.419425   1.000000
     32        -57.416467   1.000000
     33        -57.416142   1.000000
     34        -57.414963   1.000000
     35        -57.411128   1.000000
     36        -57.409887   1.000000
     37        -57.406869   1.000000
     38        -57.397708   1.000000
     39        -57.394988   1.000000
     40        -57.392092   1.000000
     41        -57.388519   1.000000
     42        -57.384618   1.000000
     43        -57.383170   1.000000
     44        -57.379527   1.000000
     45        -57.375713   1.000000
     46        -57.363803   1.000000
     47        -57.358817   1.000000
     48        -57.343090   1.000000
     49        -57.313412   1.000000
     50        -57.222030   1.000000
     51        -57.217269   1.000000
     52        -57.214943   1.000000
     53        -57.214550   1.000000
     54        -57.212454   1.000000
     55        -57.211012   1.000000
     56        -57.208665   1.000000
     57        -57.204256   1.000000
     58        -57.194374   1.000000
     59        -57.184989   1.000000
     60        -57.175439   1.000000
     61        -57.170180   1.000000
     62        -57.163812   1.000000
     63        -57.132627   1.000000
     64        -32.378460   1.000000
     65        -32.331598   1.000000
     66        -32.309584   1.000000
     67        -32.255171   1.000000
     68        -32.236817   1.000000
     69        -32.219639   1.000000
     70        -32.208255   1.000000
     71        -32.193672   1.000000
     72        -32.184844   1.000000
     73        -32.170144   1.000000
     74        -32.165804   1.000000
     75        -32.151350   1.000000
     76        -32.143140   1.000000
     77        -32.136239   1.000000
     78        -32.124819   1.000000
     79        -32.120543   1.000000
     80        -32.119887   1.000000
     81        -32.114896   1.000000
     82        -32.103581   1.000000
     83        -32.100085   1.000000
     84        -32.093994   1.000000
     85        -32.082780   1.000000
     86        -32.074730   1.000000
     87        -32.074189   1.000000
     88        -32.062003   1.000000
     89        -32.058045   1.000000
     90        -32.050504   1.000000
     91        -32.034235   1.000000
     92        -32.033101   1.000000
     93        -32.020648   1.000000
     94        -32.017634   1.000000
     95        -32.013889   1.000000
     96        -32.012455   1.000000
     97        -32.000607   1.000000
     98        -31.974150   1.000000
     99        -31.960598   1.000000
    100        -31.955436   1.000000
    101        -31.936589   1.000000
    102        -31.934887   1.000000
    103        -31.933597   1.000000
    104        -31.926307   1.000000
    105        -31.906099   1.000000
    106        -31.894716   1.000000
    107        -31.888990   1.000000
    108        -31.884629   1.000000
    109        -31.856781   1.000000
    110        -31.839974   1.000000
    111        -31.830601   1.000000
    112        -31.820002   1.000000
    113        -31.812487   1.000000
    114        -31.809029   1.000000
    115        -31.800471   1.000000
    116        -31.790746   1.000000
    117        -31.777096   1.000000
    118        -31.764106   1.000000
    119        -31.757357   1.000000
    120        -31.747887   1.000000
    121        -31.738398   1.000000
    122        -31.731354   1.000000
    123        -31.723528   1.000000
    124        -31.719350   1.000000
    125        -31.715058   1.000000
    126        -31.706220   1.000000
    127        -31.695771   1.000000
    128        -31.695666   1.000000
    129        -31.690514   1.000000
    130        -31.687944   1.000000
    131        -31.675691   1.000000
    132        -31.673546   1.000000
    133        -31.667580   1.000000
    134        -31.666591   1.000000
    135        -31.653625   1.000000
    136        -31.648852   1.000000
    137        -31.642878   1.000000
    138        -31.610212   1.000000
    139        -31.598233   1.000000
    140        -31.587596   1.000000
    141        -31.581925   1.000000
    142        -31.571846   1.000000
    143        -31.564328   1.000000
    144        -31.559282   1.000000
    145        -31.549052   1.000000
    146        -31.543156   1.000000
    147        -31.539942   1.000000
    148        -31.530819   1.000000
    149        -31.530267   1.000000
    150        -31.518569   1.000000
    151        -31.513643   1.000000
    152        -31.508501   1.000000
    153        -31.504958   1.000000
    154        -31.493315   1.000000
    155        -31.493286   1.000000
    156        -31.483199   1.000000
    157        -31.479919   1.000000
    158        -31.474799   1.000000
    159        -31.471426   1.000000
    160        -31.458533   1.000000
    161        -31.448084   1.000000
    162        -31.425308   1.000000
    163        -31.424068   1.000000
    164        -31.420438   1.000000
    165        -31.406201   1.000000
    166        -31.402306   1.000000
    167        -31.400137   1.000000
    168        -31.393100   1.000000
    169        -31.391416   1.000000
    170        -31.388335   1.000000
    171        -31.382807   1.000000
    172        -31.382303   1.000000
    173        -31.374628   1.000000
    174        -31.372620   1.000000
    175        -31.371401   1.000000
    176        -31.346518   1.000000
    177        -31.333623   1.000000
    178        -31.317065   1.000000
    179        -31.305229   1.000000
    180        -31.300491   1.000000
    181        -31.299022   1.000000
    182        -31.291244   1.000000
    183        -31.278275   1.000000
    184        -31.272369   1.000000
    185        -31.268650   1.000000
    186        -31.264950   1.000000
    187        -31.264928   1.000000
    188        -31.256855   1.000000
    189        -31.255849   1.000000
    190        -31.246398   1.000000
    191        -31.242107   1.000000
    192        -31.234181   1.000000
    193        -31.229562   1.000000
    194        -31.227703   1.000000
    195        -31.225156   1.000000
    196        -31.222923   1.000000
    197        -31.219268   1.000000
    198        -31.212634   1.000000
    199        -31.204992   1.000000
    200        -31.202165   1.000000
    201        -31.192001   1.000000
    202        -31.189076   1.000000
    203        -31.182322   1.000000
    204        -31.180136   1.000000
    205        -31.169486   1.000000
    206        -31.167708   1.000000
    207        -31.156660   1.000000
    208        -31.146297   1.000000
    209        -31.142604   1.000000
    210        -31.140720   1.000000
    211        -31.139163   1.000000
    212        -31.124244   1.000000
    213        -31.121128   1.000000
    214        -31.107005   1.000000
    215        -31.100560   1.000000
    216        -31.091878   1.000000
    217        -31.091406   1.000000
    218        -31.089144   1.000000
    219        -31.087250   1.000000
    220        -31.077260   1.000000
    221        -31.076963   1.000000
    222        -31.073473   1.000000
    223        -31.072319   1.000000
    224        -31.071100   1.000000
    225        -31.067655   1.000000
    226        -31.059052   1.000000
    227        -31.054123   1.000000
    228        -31.053862   1.000000
    229        -31.052877   1.000000
    230        -31.049571   1.000000
    231        -31.041494   1.000000
    232        -31.038241   1.000000
    233        -31.036394   1.000000
    234        -31.028975   1.000000
    235        -31.027282   1.000000
    236        -31.019213   1.000000
    237        -31.019023   1.000000
    238        -31.016077   1.000000
    239        -30.999074   1.000000
    240        -30.997899   1.000000
    241        -30.997307   1.000000
    242        -30.989409   1.000000
    243        -30.988544   1.000000
    244        -30.969797   1.000000
    245        -30.961587   1.000000
    246        -30.928892   1.000000
    247        -30.923006   1.000000
    248        -30.909067   1.000000
    249        -30.907629   1.000000
    250        -30.901049   1.000000
    251        -30.898162   1.000000
    252        -30.893071   1.000000
    253        -15.758320   1.000000
    254         -3.098955   1.000000
    255         -2.431097   1.000000
    256         -2.398201   1.000000
    257         -2.298827   1.000000
    258         -2.099613   1.000000
    259         -2.060689   1.000000
    260         -1.536300   1.000000
    261         -1.484745   1.000000
    262         -1.415587   1.000000
    263         -1.373985   1.000000
    264         -1.337281   1.000000
    265         -1.328758   1.000000
    266         -1.320404   1.000000
    267         -1.223686   1.000000
    268         -1.202888   1.000000
    269         -1.106248   1.000000
    270         -1.048436   1.000000
    271         -1.042425   1.000000
    272         -1.038669   1.000000
    273         -1.020373   1.000000
    274         -0.999437   1.000000
    275         -0.998618   1.000000
    276         -0.959944   1.000000
    277         -0.941376   1.000000
    278         -0.908494   1.000000
    279         -0.874138   1.000000
    280         -0.852995   1.000000
    281         -0.810042   1.000000
    282         -0.805678   1.000000
    283         -0.781163   1.000000
    284         -0.735338   1.000000
    285         -0.717459   1.000000
    286         -0.539952   1.000000
    287         -0.492392   1.000000
    288         -0.429496   1.000000
    289         -0.408273   1.000000
    290         -0.381471   1.000000
    291         -0.353941   1.000000
    292         -0.327959   1.000000
    293         -0.303678   1.000000
    294         -0.300666   1.000000
    295         -0.283348   1.000000
    296         -0.263516   1.000000
    297         -0.246405   1.000000
    298         -0.211932   1.000000
    299         -0.191485   1.000000
    300         -0.131028   1.000000
    301         -0.126139   1.000000
    302         -0.067543   1.000000
    303         -0.062400   1.000000
    304         -0.025576   1.000000
    305         -0.022932   1.000000
    306         -0.002246   1.000000
    307          0.012387   1.000000
    308          0.033270   1.000000
    309          0.045308   1.000000
    310          0.050305   1.000000
    311          0.111188   1.000000
    312          0.143106   1.000000
    313          0.217634   1.000000
    314          0.220128   1.000000
    315          0.258262   1.000000
    316          0.271417   1.000000
    317          0.348415   1.000000
    318          0.358630   1.000000
    319          0.373610   1.000000
    320          0.380691   1.000000
    321          0.394421   1.000000
    322          0.424491   1.000000
    323          0.430523   1.000000
    324          0.435908   1.000000
    325          0.439421   1.000000
    326          0.447455   1.000000
    327          0.502294   1.000000
    328          0.512289   1.000000
    329          0.547023   1.000000
    330          0.573326   1.000000
    331          0.578213   1.000000
    332          0.591504   1.000000
    333          0.623845   1.000000
    334          0.627991   1.000000
    335          0.658976   1.000000
    336          0.675533   1.000000
    337          0.686162   1.000000
    338          0.709464   1.000000
    339          0.716371   1.000000
    340          0.755687   1.000000
    341          0.773383   1.000000
    342          0.781644   1.000000
    343          0.793935   1.000000
    344          0.796606   1.000000
    345          0.837456   1.000000
    346          0.851628   1.000000
    347          0.894678   1.000000
    348          0.916637   1.000000
    349          0.931938   1.000000
    350          0.937513   1.000000
    351          0.949887   1.000000
    352          0.976055   1.000000
    353          1.017415   1.000000
    354          1.039788   1.000000
    355          1.054417   1.000000
    356          1.065898   1.000000
    357          1.085377   1.000000
    358          1.123406   1.000000
    359          1.150174   1.000000
    360          1.158137   1.000000
    361          1.168506   1.000000
    362          1.182811   1.000000
    363          1.194083   1.000000
    364          1.270602   1.000000
    365          1.280766   1.000000
    366          1.293726   1.000000
    367          1.319374   1.000000
    368          1.419327   1.000000
    369          1.433258   1.000000
    370          1.483330   1.000000
    371          1.488548   1.000000
    372          1.491230   1.000000
    373          1.536305   1.000000
    374          1.552440   1.000000
    375          1.608422   1.000000
    376          1.637542   1.000000
    377          1.656048   1.000000
    378          1.661481   1.000000
    379          1.686343   1.000000
    380          1.700883   1.000000
    381          1.710939   1.000000
    382          1.758688   1.000000
    383          1.776983   1.000000
    384          1.777093   1.000000
    385          1.802052   1.000000
    386          1.831330   1.000000
    387          1.846454   1.000000
    388          1.875111   1.000000
    389          1.924954   1.000000
    390          1.948055   1.000000
    391          1.973503   1.000000
    392          2.002253   1.000000
    393          2.010418   1.000000
    394          2.038522   1.000000
    395          2.039893   1.000000
    396          2.057566   1.000000
    397          2.064498   1.000000
    398          2.122702   1.000000
    399          2.171763   1.000000
    400          2.176929   1.000000
    401          2.189238   1.000000
    402          2.206904   1.000000
    403          2.223906   1.000000
    404          2.251520   1.000000
    405          2.258641   1.000000
    406          2.302492   1.000000
    407          2.326471   1.000000
    408          2.328278   1.000000
    409          2.347550   1.000000
    410          2.384450   1.000000
    411          2.397708   1.000000
    412          2.447855   1.000000
    413          2.465512   1.000000
    414          2.477391   1.000000
    415          2.492203   1.000000
    416          2.503781   1.000000
    417          2.528524   1.000000
    418          2.571672   1.000000
    419          2.625756   1.000000
    420          2.665637   1.000000
    421          2.686784   1.000000
    422          2.691148   1.000000
    423          2.785687   1.000000
    424          2.808394   1.000000
    425          2.870828   1.000000
    426          2.891931   1.000000
    427          2.903179   1.000000
    428          2.906404   1.000000
    429          2.922717   1.000000
    430          2.937210   1.000000
    431          3.043647   1.000000
    432          3.067017   1.000000
    433          3.099893   1.000000
    434          3.117992   1.000000
    435          3.156907   1.000000
    436          3.157557   1.000000
    437          3.215179   0.999984
    438          3.300728   0.998429
    439          3.333796   0.993539
    440          3.349624   0.988154
    441          3.374454   0.971993
    442          3.463297   0.743603
    443          3.475232   0.686416
    444          3.505685   0.521946
    445          3.526900   0.403233
    446          3.578557   0.164651
    447          3.606946   0.084256
    448          3.647497   0.025559
    449          3.716913   0.001683
    450          3.742018   0.000506
    451          3.792249   0.000032
    452          3.802032   0.000018
    453          3.851722   0.000001
    454          3.883344   0.000000
    455          3.903093   0.000000
    456          3.905414   0.000000
    457          3.907794   0.000000
    458          3.916880   0.000000
    459          3.959129   0.000000
    460          3.972432   0.000000
    461          3.997615   0.000000
    462          4.011526   0.000000
    463          4.025363   0.000000
    464          4.043880   0.000000
    465          4.105737   0.000000
    466          4.139180   0.000000
    467          4.174685   0.000000
    468          4.213729   0.000000
    469          4.238189   0.000000
    470          4.295944   0.000000
    471          4.319361   0.000000
    472          4.330265   0.000000
    473          4.358364   0.000000
    474          4.372842   0.000000
    475          4.427726   0.000000
    476          4.450752   0.000000
    477          4.452480   0.000000
    478          4.458979   0.000000
    479          4.470017   0.000000
    480          4.508332   0.000000
    481          4.523004   0.000000
    482          4.542749   0.000000
    483          4.574415   0.000000
    484          4.579007   0.000000
    485          4.612034   0.000000
    486          4.663167   0.000000
    487          4.685965   0.000000
    488          4.687943   0.000000
    489          4.717762   0.000000
    490          4.735933   0.000000
    491          4.757594   0.000000
    492          4.772749   0.000000
    493          4.803560   0.000000
    494          4.817566   0.000000
    495          4.818420   0.000000
    496          4.861574   0.000000
    497          4.878039   0.000000
    498          4.908469   0.000000
    499          4.912557   0.000000
    500          4.948509   0.000000
    501          4.959280   0.000000
    502          4.960891   0.000000
    503          4.987041   0.000000
    504          4.987437   0.000000
    505          5.040769   0.000000
    506          5.043479   0.000000
    507          5.091003   0.000000
    508          5.093167   0.000000
    509          5.146041   0.000000
    510          5.146479   0.000000
    511          5.193332   0.000000
    512          5.200924   0.000000
    513          5.215942   0.000000
    514          5.230580   0.000000
    515          5.246082   0.000000
    516          5.248305   0.000000
    517          5.287469   0.000000
    518          5.289215   0.000000
    519          5.303332   0.000000
    520          5.322338   0.000000
    521          5.327382   0.000000
    522          5.355116   0.000000
    523          5.377916   0.000000
    524          5.385322   0.000000
    525          5.395511   0.000000
    526          5.433494   0.000000
    527          5.482492   0.000000
    528          5.508675   0.000000
    529          5.559007   0.000000
    530          5.585034   0.000000
    531          5.589720   0.000000
    532          5.613688   0.000000
 
  0.5000000E+00  0.0000000E+00  0.0000000E+00  0.1250000E+00
      1        -57.687060   1.000000
      2        -57.674957   1.000000
      3        -57.636524   1.000000
      4        -57.613146   1.000000
      5        -57.592320   1.000000
      6        -57.590262   1.000000
      7        -57.589838   1.000000
      8        -57.589489   1.000000
      9        -57.566707   1.000000
     10        -57.560482   1.000000
     11        -57.557318   1.000000
     12        -57.554201   1.000000
     13        -57.550167   1.000000
     14        -57.539165   1.000000
     15        -57.536508   1.000000
     16        -57.534466   1.000000
     17        -57.529126   1.000000
     18        -57.524995   1.000000
     19        -57.523918   1.000000
     20        -57.482639   1.000000
     21        -57.462145   1.000000
     22        -57.455386   1.000000
     23        -57.446904   1.000000
     24        -57.434748   1.000000
     25        -57.434216   1.000000
     26        -57.430731   1.000000
     27        -57.429818   1.000000
     28        -57.427751   1.000000
     29        -57.425173   1.000000
     30        -57.423620   1.000000
     31        -57.422696   1.000000
     32        -57.417873   1.000000
     33        -57.417494   1.000000
     34        -57.417112   1.000000
     35        -57.414088   1.000000
     36        -57.408025   1.000000
     37        -57.406855   1.000000
     38        -57.395576   1.000000
     39        -57.394168   1.000000
     40        -57.392808   1.000000
     41        -57.391965   1.000000
     42        -57.385247   1.000000
     43        -57.383250   1.000000
     44        -57.380367   1.000000
     45        -57.375013   1.000000
     46        -57.364750   1.000000
     47        -57.350559   1.000000
     48        -57.341120   1.000000
     49        -57.315407   1.000000
     50        -57.224157   1.000000
     51        -57.216789   1.000000
     52        -57.215245   1.000000
     53        -57.214650   1.000000
     54        -57.212646   1.000000
     55        -57.210802   1.000000
     56        -57.206166   1.000000
     57        -57.201835   1.000000
     58        -57.197364   1.000000
     59        -57.188543   1.000000
     60        -57.175443   1.000000
     61        -57.169725   1.000000
     62        -57.159101   1.000000
     63        -57.134448   1.000000
     64        -32.380920   1.000000
     65        -32.344690   1.000000
     66        -32.305309   1.000000
     67        -32.261766   1.000000
     68        -32.246392   1.000000
     69        -32.207765   1.000000
     70        -32.200880   1.000000
     71        -32.182130   1.000000
     72        -32.176443   1.000000
     73        -32.174393   1.000000
     74        -32.161155   1.000000
     75        -32.160836   1.000000
     76        -32.138416   1.000000
     77        -32.136584   1.000000
     78        -32.135298   1.000000
     79        -32.124093   1.000000
     80        -32.122378   1.000000
     81        -32.116379   1.000000
     82        -32.112361   1.000000
     83        -32.111904   1.000000
     84        -32.089903   1.000000
     85        -32.088589   1.000000
     86        -32.084429   1.000000
     87        -32.064980   1.000000
     88        -32.063067   1.000000
     89        -32.059109   1.000000
     90        -32.052744   1.000000
     91        -32.032495   1.000000
     92        -32.032390   1.000000
     93        -32.027689   1.000000
     94        -32.026125   1.000000
     95        -32.016709   1.000000
     96        -32.013682   1.000000
     97        -32.009347   1.000000
     98        -31.993575   1.000000
     99        -31.955769   1.000000
    100        -31.955506   1.000000
    101        -31.939095   1.000000
    102        -31.935074   1.000000
    103        -31.928746   1.000000
    104        -31.900003   1.000000
    105        -31.893713   1.000000
    106        -31.885498   1.000000
    107        -31.861455   1.000000
    108        -31.852522   1.000000
    109        -31.849913   1.000000
    110        -31.839775   1.000000
    111        -31.834531   1.000000
    112        -31.826920   1.000000
    113        -31.824388   1.000000
    114        -31.801961   1.000000
    115        -31.794824   1.000000
    116        -31.783658   1.000000
    117        -31.782227   1.000000
    118        -31.756008   1.000000
    119        -31.751266   1.000000
    120        -31.744325   1.000000
    121        -31.734863   1.000000
    122        -31.732360   1.000000
    123        -31.730201   1.000000
    124        -31.723761   1.000000
    125        -31.715913   1.000000
    126        -31.711919   1.000000
    127        -31.696575   1.000000
    128        -31.694250   1.000000
    129        -31.693142   1.000000
    130        -31.689255   1.000000
    131        -31.688039   1.000000
    132        -31.673523   1.000000
    133        -31.651370   1.000000
    134        -31.651275   1.000000
    135        -31.647999   1.000000
    136        -31.645943   1.000000
    137        -31.621174   1.000000
    138        -31.618439   1.000000
    139        -31.599824   1.000000
    140        -31.582721   1.000000
    141        -31.575156   1.000000
    142        -31.568054   1.000000
    143        -31.561126   1.000000
    144        -31.551828   1.000000
    145        -31.539341   1.000000
    146        -31.529562   1.000000
    147        -31.526736   1.000000
    148        -31.522835   1.000000
    149        -31.519918   1.000000
    150        -31.518400   1.000000
    151        -31.506274   1.000000
    152        -31.496602   1.000000
    153        -31.495145   1.000000
    154        -31.494132   1.000000
    155        -31.491340   1.000000
    156        -31.487171   1.000000
    157        -31.485238   1.000000
    158        -31.482469   1.000000
    159        -31.476292   1.000000
    160        -31.473602   1.000000
    161        -31.464901   1.000000
    162        -31.452256   1.000000
    163        -31.444784   1.000000
    164        -31.438632   1.000000
    165        -31.436965   1.000000
    166        -31.433569   1.000000
    167        -31.417894   1.000000
    168        -31.413230   1.000000
    169        -31.395804   1.000000
    170        -31.391369   1.000000
    171        -31.386260   1.000000
    172        -31.382541   1.000000
    173        -31.376998   1.000000
    174        -31.373693   1.000000
    175        -31.371174   1.000000
    176        -31.357986   1.000000
    177        -31.344782   1.000000
    178        -31.331735   1.000000
    179        -31.319305   1.000000
    180        -31.309739   1.000000
    181        -31.303187   1.000000
    182        -31.293293   1.000000
    183        -31.283238   1.000000
    184        -31.282630   1.000000
    185        -31.281614   1.000000
    186        -31.280070   1.000000
    187        -31.278009   1.000000
    188        -31.249173   1.000000
    189        -31.237327   1.000000
    190        -31.225976   1.000000
    191        -31.224472   1.000000
    192        -31.218369   1.000000
    193        -31.217842   1.000000
    194        -31.213359   1.000000
    195        -31.212077   1.000000
    196        -31.205019   1.000000
    197        -31.203781   1.000000
    198        -31.200667   1.000000
    199        -31.195407   1.000000
    200        -31.194547   1.000000
    201        -31.192517   1.000000
    202        -31.184858   1.000000
    203        -31.179742   1.000000
    204        -31.178693   1.000000
    205        -31.173327   1.000000
    206        -31.171908   1.000000
    207        -31.171084   1.000000
    208        -31.142097   1.000000
    209        -31.141357   1.000000
    210        -31.135037   1.000000
    211        -31.134796   1.000000
    212        -31.133911   1.000000
    213        -31.130201   1.000000
    214        -31.115173   1.000000
    215        -31.107787   1.000000
    216        -31.096833   1.000000
    217        -31.089221   1.000000
    218        -31.084487   1.000000
    219        -31.083283   1.000000
    220        -31.080859   1.000000
    221        -31.073418   1.000000
    222        -31.071005   1.000000
    223        -31.057009   1.000000
    224        -31.054855   1.000000
    225        -31.054641   1.000000
    226        -31.053455   1.000000
    227        -31.052864   1.000000
    228        -31.051361   1.000000
    229        -31.050516   1.000000
    230        -31.036820   1.000000
    231        -31.035855   1.000000
    232        -31.035672   1.000000
    233        -31.034553   1.000000
    234        -31.033861   1.000000
    235        -31.032315   1.000000
    236        -31.020929   1.000000
    237        -31.020503   1.000000
    238        -31.020392   1.000000
    239        -31.018357   1.000000
    240        -31.011595   1.000000
    241        -31.001799   1.000000
    242        -30.987935   1.000000
    243        -30.974469   1.000000
    244        -30.971008   1.000000
    245        -30.952833   1.000000
    246        -30.929656   1.000000
    247        -30.925497   1.000000
    248        -30.915783   1.000000
    249        -30.914579   1.000000
    250        -30.908094   1.000000
    251        -30.900326   1.000000
    252        -30.894411   1.000000
    253        -15.758305   1.000000
    254         -2.705437   1.000000
    255         -2.701074   1.000000
    256         -2.404810   1.000000
    257         -2.386726   1.000000
    258         -2.258760   1.000000
    259         -1.845400   1.000000
    260         -1.803216   1.000000
    261         -1.487788   1.000000
    262         -1.424574   1.000000
    263         -1.275126   1.000000
    264         -1.212141   1.000000
    265         -1.135735   1.000000
    266         -1.135008   1.000000
    267         -1.124657   1.000000
    268         -1.113128   1.000000
    269         -1.036999   1.000000
    270         -1.015772   1.000000
    271         -1.007117   1.000000
    272         -0.985378   1.000000
    273         -0.944803   1.000000
    274         -0.942328   1.000000
    275         -0.934670   1.000000
    276         -0.864038   1.000000
    277         -0.848654   1.000000
    278         -0.836687   1.000000
    279         -0.823403   1.000000
    280         -0.816964   1.000000
    281         -0.797160   1.000000
    282         -0.796167   1.000000
    283         -0.789094   1.000000
    284         -0.739933   1.000000
    285         -0.684149   1.000000
    286         -0.682005   1.000000
    287         -0.681841   1.000000
    288         -0.656980   1.000000
    289         -0.404768   1.000000
    290         -0.394610   1.000000
    291         -0.365427   1.000000
    292         -0.356496   1.000000
    293         -0.331700   1.000000
    294         -0.322931   1.000000
    295         -0.273964   1.000000
    296         -0.269534   1.000000
    297         -0.234959   1.000000
    298         -0.203173   1.000000
    299         -0.200389   1.000000
    300         -0.169644   1.000000
    301         -0.160859   1.000000
    302         -0.155135   1.000000
    303         -0.149571   1.000000
    304         -0.106363   1.000000
    305         -0.056016   1.000000
    306         -0.005478   1.000000
    307          0.013547   1.000000
    308          0.033860   1.000000
    309          0.056223   1.000000
    310          0.064029   1.000000
    311          0.092804   1.000000
    312          0.148675   1.000000
    313          0.150495   1.000000
    314          0.164147   1.000000
    315          0.182635   1.000000
    316          0.279537   1.000000
    317          0.292070   1.000000
    318          0.300550   1.000000
    319          0.327572   1.000000
    320          0.366973   1.000000
    321          0.424914   1.000000
    322          0.441274   1.000000
    323          0.461401   1.000000
    324          0.465771   1.000000
    325          0.470986   1.000000
    326          0.473232   1.000000
    327          0.484685   1.000000
    328          0.492796   1.000000
    329          0.494614   1.000000
    330          0.562284   1.000000
    331          0.562728   1.000000
    332          0.586253   1.000000
    333          0.586525   1.000000
    334          0.592610   1.000000
    335          0.615228   1.000000
    336          0.617257   1.000000
    337          0.625980   1.000000
    338          0.647515   1.000000
    339          0.657215   1.000000
    340          0.681467   1.000000
    341          0.687911   1.000000
    342          0.721155   1.000000
    343          0.736542   1.000000
    344          0.758793   1.000000
    345          0.778716   1.000000
    346          0.783674   1.000000
    347          0.805001   1.000000
    348          0.817926   1.000000
    349          0.829951   1.000000
    350          0.852204   1.000000
    351          0.858841   1.000000
    352          0.929917   1.000000
    353          0.975183   1.000000
    354          1.041691   1.000000
    355          1.062389   1.000000
    356          1.064133   1.000000
    357          1.087561   1.000000
    358          1.133575   1.000000
    359          1.134708   1.000000
    360          1.167234   1.000000
    361          1.192971   1.000000
    362          1.213173   1.000000
    363          1.221035   1.000000
    364          1.260705   1.000000
    365          1.332398   1.000000
    366          1.399676   1.000000
    367          1.412243   1.000000
    368          1.415519   1.000000
    369          1.424763   1.000000
    370          1.434910   1.000000
    371          1.485384   1.000000
    372          1.511303   1.000000
    373          1.516210   1.000000
    374          1.529924   1.000000
    375          1.567464   1.000000
    376          1.586364   1.000000
    377          1.596044   1.000000
    378          1.608970   1.000000
    379          1.610642   1.000000
    380          1.610762   1.000000
    381          1.649783   1.000000
    382          1.730792   1.000000
    383          1.762298   1.000000
    384          1.817355   1.000000
    385          1.878904   1.000000
    386          1.886295   1.000000
    387          1.915447   1.000000
    388          1.923100   1.000000
    389          1.939566   1.000000
    390          1.948340   1.000000
    391          1.981347   1.000000
    392          1.990318   1.000000
    393          1.997139   1.000000
    394          2.001892   1.000000
    395          2.012632   1.000000
    396          2.045375   1.000000
    397          2.086207   1.000000
    398          2.089799   1.000000
    399          2.091050   1.000000
    400          2.104685   1.000000
    401          2.119122   1.000000
    402          2.120920   1.000000
    403          2.152356   1.000000
    404          2.165383   1.000000
    405          2.170364   1.000000
    406          2.257573   1.000000
    407          2.290623   1.000000
    408          2.301787   1.000000
    409          2.312422   1.000000
    410          2.321220   1.000000
    411          2.329729   1.000000
    412          2.376905   1.000000
    413          2.452891   1.000000
    414          2.454472   1.000000
    415          2.610136   1.000000
    416          2.629455   1.000000
    417          2.692279   1.000000
    418          2.734493   1.000000
    419          2.744372   1.000000
    420          2.751860   1.000000
    421          2.752325   1.000000
    422          2.789758   1.000000
    423          2.813526   1.000000
    424          2.836302   1.000000
    425          2.867288   1.000000
    426          2.873470   1.000000
    427          2.885772   1.000000
    428          2.940006   1.000000
    429          2.994862   1.000000
    430          3.054404   1.000000
    431          3.096484   1.000000
    432          3.125979   1.000000
    433          3.128075   1.000000
    434          3.129791   1.000000
    435          3.168713   0.999999
    436          3.206903   0.999991
    437          3.254277   0.999847
    438          3.265244   0.999725
    439          3.270207   0.999644
    440          3.313339   0.997242
    441          3.316592   0.996826
    442          3.351409   0.987351
    443          3.394427   0.948287
    444          3.436578   0.849048
    445          3.478109   0.671849
    446          3.541413   0.326272
    447          3.596186   0.110319
    448          3.630453   0.043685
    449          3.638918   0.033688
    450          3.669731   0.011759
    451          3.717379   0.001648
    452          3.719257   0.001512
    453          3.845106   0.000001
    454          3.858415   0.000000
    455          3.883585   0.000000
    456          3.908844   0.000000
    457          3.936933   0.000000
    458          3.946164   0.000000
    459          3.995346   0.000000
    460          4.084693   0.000000
    461          4.113068   0.000000
    462          4.117790   0.000000
    463          4.145326   0.000000
    464          4.184643   0.000000
    465          4.223454   0.000000
    466          4.251681   0.000000
    467          4.278712   0.000000
    468          4.321455   0.000000
    469          4.324241   0.000000
    470          4.328607   0.000000
    471          4.395801   0.000000
    472          4.436102   0.000000
    473          4.497502   0.000000
    474          4.517832   0.000000
    475          4.520186   0.000000
    476          4.595571   0.000000
    477          4.599807   0.000000
    478          4.611696   0.000000
    479          4.612492   0.000000
    480          4.624151   0.000000
    481          4.634130   0.000000
    482          4.662311   0.000000
    483          4.668557   0.000000
    484          4.669271   0.000000
    485          4.679223   0.000000
    486          4.705036   0.000000
    487          4.708380   0.000000
    488          4.726662   0.000000
    489          4.775412   0.000000
    490          4.783715   0.000000
    491          4.828538   0.000000
    492          4.833622   0.000000
    493          4.883935   0.000000
    494          4.895685   0.000000
    495          4.915838   0.000000
    496          4.930341   0.000000
    497          4.936831   0.000000
    498          4.954113   0.000000
    499          4.955580   0.000000
    500          4.966893   0.000000
    501          4.973653   0.000000
    502          4.986488   0.000000
    503          4.993532   0.000000
    504          5.002150   0.000000
    505          5.009961   0.000000
    506          5.020274   0.000000
    507          5.058154   0.000000
    508          5.072416   0.000000
    509          5.075101   0.000000
    510          5.085739   0.000000
    511          5.120608   0.000000
    512          5.169839   0.000000
    513          5.189321   0.000000
    514          5.189330   0.000000
    515          5.221662   0.000000
    516          5.223198   0.000000
    517          5.230320   0.000000
    518          5.261499   0.000000
    519          5.293856   0.000000
    520          5.297264   0.000000
    521          5.328841   0.000000
    522          5.356690   0.000000
    523          5.394831   0.000000
    524          5.398534   0.000000
    525          5.416683   0.000000
    526          5.431857   0.000000
    527          5.470044   0.000000
    528          5.476060   0.000000
    529          5.524306   0.000000
    530          5.585013   0.000000
    531          5.603167   0.000000
    532          5.651708   0.000000
 
  0.2500000E+00  0.2500000E+00  0.0000000E+00  0.2500000E+00
      1        -57.695697   1.000000
      2        -57.652964   1.000000
      3        -57.636816   1.000000
      4        -57.631615   1.000000
      5        -57.601971   1.000000
      6        -57.596945   1.000000
      7        -57.587928   1.000000
      8        -57.567581   1.000000
      9        -57.565679   1.000000
     10        -57.564686   1.000000
     11        -57.551372   1.000000
     12        -57.550732   1.000000
     13        -57.547648   1.000000
     14        -57.544568   1.000000
     15        -57.537587   1.000000
     16        -57.533428   1.000000
     17        -57.532919   1.000000
     18        -57.528549   1.000000
     19        -57.522780   1.000000
     20        -57.477665   1.000000
     21        -57.471334   1.000000
     22        -57.452578   1.000000
     23        -57.441084   1.000000
     24        -57.440285   1.000000
     25        -57.434778   1.000000
     26        -57.430315   1.000000
     27        -57.428216   1.000000
     28        -57.426862   1.000000
     29        -57.425454   1.000000
     30        -57.423271   1.000000
     31        -57.419754   1.000000
     32        -57.418664   1.000000
     33        -57.414043   1.000000
     34        -57.412462   1.000000
     35        -57.412278   1.000000
     36        -57.410180   1.000000
     37        -57.409218   1.000000
     38        -57.407988   1.000000
     39        -57.396254   1.000000
     40        -57.395351   1.000000
     41        -57.389782   1.000000
     42        -57.385151   1.000000
     43        -57.384362   1.000000
     44        -57.377351   1.000000
     45        -57.364604   1.000000
     46        -57.363504   1.000000
     47        -57.356790   1.000000
     48        -57.342659   1.000000
     49        -57.314314   1.000000
     50        -57.221286   1.000000
     51        -57.220980   1.000000
     52        -57.215118   1.000000
     53        -57.214394   1.000000
     54        -57.211725   1.000000
     55        -57.208547   1.000000
     56        -57.207984   1.000000
     57        -57.203838   1.000000
     58        -57.195762   1.000000
     59        -57.189196   1.000000
     60        -57.176314   1.000000
     61        -57.164124   1.000000
     62        -57.163615   1.000000
     63        -57.134097   1.000000
     64        -32.378584   1.000000
     65        -32.335953   1.000000
     66        -32.325085   1.000000
     67        -32.264451   1.000000
     68        -32.239268   1.000000
     69        -32.236676   1.000000
     70        -32.204219   1.000000
     71        -32.201936   1.000000
     72        -32.194699   1.000000
     73        -32.158325   1.000000
     74        -32.143804   1.000000
     75        -32.142621   1.000000
     76        -32.133399   1.000000
     77        -32.130271   1.000000
     78        -32.125481   1.000000
     79        -32.119663   1.000000
     80        -32.115985   1.000000
     81        -32.110242   1.000000
     82        -32.107481   1.000000
     83        -32.100653   1.000000
     84        -32.094233   1.000000
     85        -32.087716   1.000000
     86        -32.081906   1.000000
     87        -32.075858   1.000000
     88        -32.063360   1.000000
     89        -32.061755   1.000000
     90        -32.048606   1.000000
     91        -32.032264   1.000000
     92        -32.030749   1.000000
     93        -32.020760   1.000000
     94        -32.019747   1.000000
     95        -32.009742   1.000000
     96        -31.988743   1.000000
     97        -31.980963   1.000000
     98        -31.968633   1.000000
     99        -31.968458   1.000000
    100        -31.950528   1.000000
    101        -31.948543   1.000000
    102        -31.947281   1.000000
    103        -31.929491   1.000000
    104        -31.925650   1.000000
    105        -31.900554   1.000000
    106        -31.896411   1.000000
    107        -31.881474   1.000000
    108        -31.874191   1.000000
    109        -31.865435   1.000000
    110        -31.857257   1.000000
    111        -31.842909   1.000000
    112        -31.839261   1.000000
    113        -31.820986   1.000000
    114        -31.801107   1.000000
    115        -31.798251   1.000000
    116        -31.790355   1.000000
    117        -31.788299   1.000000
    118        -31.786281   1.000000
    119        -31.771317   1.000000
    120        -31.757164   1.000000
    121        -31.743780   1.000000
    122        -31.729548   1.000000
    123        -31.728545   1.000000
    124        -31.713787   1.000000
    125        -31.706234   1.000000
    126        -31.705886   1.000000
    127        -31.692249   1.000000
    128        -31.684713   1.000000
    129        -31.671365   1.000000
    130        -31.665950   1.000000
    131        -31.662333   1.000000
    132        -31.659547   1.000000
    133        -31.656406   1.000000
    134        -31.649307   1.000000
    135        -31.638335   1.000000
    136        -31.631531   1.000000
    137        -31.611980   1.000000
    138        -31.608477   1.000000
    139        -31.591805   1.000000
    140        -31.588755   1.000000
    141        -31.583917   1.000000
    142        -31.580471   1.000000
    143        -31.564952   1.000000
    144        -31.559752   1.000000
    145        -31.555244   1.000000
    146        -31.555236   1.000000
    147        -31.543761   1.000000
    148        -31.543319   1.000000
    149        -31.519511   1.000000
    150        -31.517491   1.000000
    151        -31.511727   1.000000
    152        -31.509374   1.000000
    153        -31.501280   1.000000
    154        -31.487285   1.000000
    155        -31.481906   1.000000
    156        -31.479863   1.000000
    157        -31.471397   1.000000
    158        -31.470552   1.000000
    159        -31.469219   1.000000
    160        -31.459584   1.000000
    161        -31.443478   1.000000
    162        -31.435791   1.000000
    163        -31.431559   1.000000
    164        -31.429946   1.000000
    165        -31.425172   1.000000
    166        -31.413465   1.000000
    167        -31.405341   1.000000
    168        -31.403317   1.000000
    169        -31.399788   1.000000
    170        -31.399288   1.000000
    171        -31.394339   1.000000
    172        -31.387384   1.000000
    173        -31.385633   1.000000
    174        -31.383367   1.000000
    175        -31.382542   1.000000
    176        -31.365377   1.000000
    177        -31.336472   1.000000
    178        -31.329897   1.000000
    179        -31.329198   1.000000
    180        -31.322255   1.000000
    181        -31.320508   1.000000
    182        -31.316074   1.000000
    183        -31.278052   1.000000
    184        -31.276937   1.000000
    185        -31.267450   1.000000
    186        -31.262519   1.000000
    187        -31.253634   1.000000
    188        -31.241937   1.000000
    189        -31.238362   1.000000
    190        -31.235147   1.000000
    191        -31.228897   1.000000
    192        -31.221406   1.000000
    193        -31.217794   1.000000
    194        -31.210617   1.000000
    195        -31.207750   1.000000
    196        -31.206714   1.000000
    197        -31.200649   1.000000
    198        -31.195285   1.000000
    199        -31.193871   1.000000
    200        -31.192588   1.000000
    201        -31.189496   1.000000
    202        -31.188750   1.000000
    203        -31.186282   1.000000
    204        -31.174697   1.000000
    205        -31.174322   1.000000
    206        -31.169184   1.000000
    207        -31.167126   1.000000
    208        -31.159552   1.000000
    209        -31.157322   1.000000
    210        -31.149506   1.000000
    211        -31.141786   1.000000
    212        -31.126886   1.000000
    213        -31.122083   1.000000
    214        -31.117325   1.000000
    215        -31.104353   1.000000
    216        -31.095601   1.000000
    217        -31.094442   1.000000
    218        -31.093040   1.000000
    219        -31.090106   1.000000
    220        -31.085455   1.000000
    221        -31.076156   1.000000
    222        -31.074847   1.000000
    223        -31.064290   1.000000
    224        -31.059714   1.000000
    225        -31.059209   1.000000
    226        -31.059108   1.000000
    227        -31.053474   1.000000
    228        -31.048410   1.000000
    229        -31.047397   1.000000
    230        -31.040269   1.000000
    231        -31.037210   1.000000
    232        -31.035503   1.000000
    233        -31.031676   1.000000
    234        -31.028457   1.000000
    235        -31.026141   1.000000
    236        -31.023626   1.000000
    237        -31.019467   1.000000
    238        -31.013765   1.000000
    239        -31.011697   1.000000
    240        -31.004454   1.000000
    241        -31.003744   1.000000
    242        -30.989951   1.000000
    243        -30.978046   1.000000
    244        -30.968720   1.000000
    245        -30.960402   1.000000
    246        -30.931142   1.000000
    247        -30.921659   1.000000
    248        -30.912068   1.000000
    249        -30.909349   1.000000
    250        -30.906872   1.000000
    251        -30.899178   1.000000
    252        -30.888519   1.000000
    253        -15.758298   1.000000
    254         -2.960828   1.000000
    255         -2.412693   1.000000
    256         -2.410395   1.000000
    257         -2.282656   1.000000
    258         -1.996080   1.000000
    259         -1.953488   1.000000
    260         -1.952439   1.000000
    261         -1.420065   1.000000
    262         -1.374374   1.000000
    263         -1.344565   1.000000
    264         -1.300731   1.000000
    265         -1.278427   1.000000
    266         -1.267292   1.000000
    267         -1.250728   1.000000
    268         -1.233206   1.000000
    269         -1.222936   1.000000
    270         -1.190878   1.000000
    271         -1.068298   1.000000
    272         -0.966531   1.000000
    273         -0.885617   1.000000
    274         -0.847960   1.000000
    275         -0.844916   1.000000
    276         -0.831603   1.000000
    277         -0.829272   1.000000
    278         -0.797617   1.000000
    279         -0.796417   1.000000
    280         -0.764889   1.000000
    281         -0.748021   1.000000
    282         -0.733526   1.000000
    283         -0.713588   1.000000
    284         -0.644255   1.000000
    285         -0.613267   1.000000
    286         -0.525959   1.000000
    287         -0.478625   1.000000
    288         -0.477457   1.000000
    289         -0.459769   1.000000
    290         -0.446233   1.000000
    291         -0.427460   1.000000
    292         -0.390429   1.000000
    293         -0.368590   1.000000
    294         -0.361614   1.000000
    295         -0.331901   1.000000
    296         -0.315609   1.000000
    297         -0.310552   1.000000
    298         -0.248242   1.000000
    299         -0.242962   1.000000
    300         -0.230327   1.000000
    301         -0.181821   1.000000
    302         -0.176230   1.000000
    303         -0.096425   1.000000
    304         -0.081710   1.000000
    305         -0.073375   1.000000
    306          0.034703   1.000000
    307          0.053029   1.000000
    308          0.059693   1.000000
    309          0.075045   1.000000
    310          0.116317   1.000000
    311          0.153482   1.000000
    312          0.182357   1.000000
    313          0.192250   1.000000
    314          0.229767   1.000000
    315          0.275073   1.000000
    316          0.289087   1.000000
    317          0.317138   1.000000
    318          0.318541   1.000000
    319          0.325337   1.000000
    320          0.340811   1.000000
    321          0.343894   1.000000
    322          0.363772   1.000000
    323          0.413086   1.000000
    324          0.418663   1.000000
    325          0.461340   1.000000
    326          0.463647   1.000000
    327          0.471634   1.000000
    328          0.480639   1.000000
    329          0.486117   1.000000
    330          0.517156   1.000000
    331          0.530515   1.000000
    332          0.544828   1.000000
    333          0.545483   1.000000
    334          0.575105   1.000000
    335          0.587742   1.000000
    336          0.601008   1.000000
    337          0.622785   1.000000
    338          0.635620   1.000000
    339          0.637472   1.000000
    340          0.658294   1.000000
    341          0.675834   1.000000
    342          0.701633   1.000000
    343          0.743103   1.000000
    344          0.751794   1.000000
    345          0.823946   1.000000
    346          0.878769   1.000000
    347          0.880358   1.000000
    348          0.894875   1.000000
    349          0.896487   1.000000
    350          0.947777   1.000000
    351          0.970378   1.000000
    352          0.979790   1.000000
    353          0.982517   1.000000
    354          0.990705   1.000000
    355          1.005051   1.000000
    356          1.024844   1.000000
    357          1.058199   1.000000
    358          1.084184   1.000000
    359          1.115475   1.000000
    360          1.115644   1.000000
    361          1.196309   1.000000
    362          1.211146   1.000000
    363          1.227182   1.000000
    364          1.298723   1.000000
    365          1.333591   1.000000
    366          1.360705   1.000000
    367          1.363550   1.000000
    368          1.423302   1.000000
    369          1.442453   1.000000
    370          1.457910   1.000000
    371          1.465459   1.000000
    372          1.472132   1.000000
    373          1.503146   1.000000
    374          1.516957   1.000000
    375          1.518952   1.000000
    376          1.550901   1.000000
    377          1.586835   1.000000
    378          1.593398   1.000000
    379          1.632394   1.000000
    380          1.643970   1.000000
    381          1.714128   1.000000
    382          1.717173   1.000000
    383          1.745878   1.000000
    384          1.769383   1.000000
    385          1.799564   1.000000
    386          1.810532   1.000000
    387          1.822408   1.000000
    388          1.836140   1.000000
    389          1.889670   1.000000
    390          1.960046   1.000000
    391          1.962578   1.000000
    392          1.973010   1.000000
    393          1.982054   1.000000
    394          1.998492   1.000000
    395          2.000854   1.000000
    396          2.005764   1.000000
    397          2.012619   1.000000
    398          2.038828   1.000000
    399          2.062029   1.000000
    400          2.090055   1.000000
    401          2.108804   1.000000
    402          2.114828   1.000000
    403          2.132701   1.000000
    404          2.156059   1.000000
    405          2.217830   1.000000
    406          2.252184   1.000000
    407          2.293839   1.000000
    408          2.342479   1.000000
    409          2.352395   1.000000
    410          2.382907   1.000000
    411          2.412824   1.000000
    412          2.435715   1.000000
    413          2.448673   1.000000
    414          2.509096   1.000000
    415          2.528510   1.000000
    416          2.586845   1.000000
    417          2.732601   1.000000
    418          2.741155   1.000000
    419          2.793576   1.000000
    420          2.860544   1.000000
    421          2.878594   1.000000
    422          2.897024   1.000000
    423          2.899919   1.000000
    424          2.905441   1.000000
    425          2.923461   1.000000
    426          2.932747   1.000000
    427          2.934487   1.000000
    428          2.991529   1.000000
    429          3.005745   1.000000
    430          3.037562   1.000000
    431          3.039365   1.000000
    432          3.054316   1.000000
    433          3.108651   1.000000
    434          3.152439   1.000000
    435          3.194425   0.999996
    436          3.236084   0.999945
    437          3.259610   0.999796
    438          3.294948   0.998799
    439          3.327112   0.995066
    440          3.345137   0.989978
    441          3.354716   0.985740
    442          3.401413   0.936951
    443          3.426446   0.880134
    444          3.472873   0.698145
    445          3.496003   0.576113
    446          3.588487   0.132221
    447          3.596293   0.110034
    448          3.612313   0.073124
    449          3.651370   0.022468
    450          3.698928   0.003705
    451          3.787798   0.000042
    452          3.821451   0.000005
    453          3.838438   0.000002
    454          3.883366   0.000000
    455          3.899155   0.000000
    456          3.905770   0.000000
    457          3.958649   0.000000
    458          4.000407   0.000000
    459          4.007213   0.000000
    460          4.025518   0.000000
    461          4.027846   0.000000
    462          4.092683   0.000000
    463          4.119654   0.000000
    464          4.154448   0.000000
    465          4.179104   0.000000
    466          4.180520   0.000000
    467          4.225657   0.000000
    468          4.267699   0.000000
    469          4.292834   0.000000
    470          4.317140   0.000000
    471          4.397165   0.000000
    472          4.439809   0.000000
    473          4.446594   0.000000
    474          4.475656   0.000000
    475          4.475761   0.000000
    476          4.503426   0.000000
    477          4.536065   0.000000
    478          4.549845   0.000000
    479          4.554286   0.000000
    480          4.567906   0.000000
    481          4.585449   0.000000
    482          4.607179   0.000000
    483          4.626720   0.000000
    484          4.638810   0.000000
    485          4.668908   0.000000
    486          4.672588   0.000000
    487          4.754305   0.000000
    488          4.776497   0.000000
    489          4.783814   0.000000
    490          4.798845   0.000000
    491          4.815077   0.000000
    492          4.829816   0.000000
    493          4.848805   0.000000
    494          4.855458   0.000000
    495          4.867891   0.000000
    496          4.895078   0.000000
    497          4.931311   0.000000
    498          4.931785   0.000000
    499          4.954079   0.000000
    500          4.972122   0.000000
    501          4.986612   0.000000
    502          5.013631   0.000000
    503          5.037266   0.000000
    504          5.050027   0.000000
    505          5.063943   0.000000
    506          5.070487   0.000000
    507          5.092855   0.000000
    508          5.094075   0.000000
    509          5.134151   0.000000
    510          5.141545   0.000000
    511          5.154236   0.000000
    512          5.167588   0.000000
    513          5.192523   0.000000
    514          5.224312   0.000000
    515          5.236959   0.000000
    516          5.255687   0.000000
    517          5.265620   0.000000
    518          5.299921   0.000000
    519          5.300392   0.000000
    520          5.318618   0.000000
    521          5.332993   0.000000
    522          5.351020   0.000000
    523          5.380392   0.000000
    524          5.383169   0.000000
    525          5.412564   0.000000
    526          5.417493   0.000000
    527          5.437002   0.000000
    528          5.441192   0.000000
    529          5.490767   0.000000
    530          5.532870   0.000000
    531          5.535322   0.000000
    532          5.571541   0.000000
 
  0.5000000E+00  0.2500000E+00  0.0000000E+00  0.2500000E+00
      1        -57.681372   1.000000
      2        -57.668580   1.000000
      3        -57.637579   1.000000
      4        -57.622645   1.000000
      5        -57.617933   1.000000
      6        -57.608372   1.000000
      7        -57.584549   1.000000
      8        -57.577809   1.000000
      9        -57.560047   1.000000
     10        -57.559124   1.000000
     11        -57.550009   1.000000
     12        -57.543633   1.000000
     13        -57.542819   1.000000
     14        -57.539069   1.000000
     15        -57.536938   1.000000
     16        -57.531788   1.000000
     17        -57.528874   1.000000
     18        -57.528628   1.000000
     19        -57.520947   1.000000
     20        -57.480241   1.000000
     21        -57.471729   1.000000
     22        -57.452969   1.000000
     23        -57.444142   1.000000
     24        -57.434077   1.000000
     25        -57.433508   1.000000
     26        -57.433087   1.000000
     27        -57.429728   1.000000
     28        -57.427776   1.000000
     29        -57.425933   1.000000
     30        -57.423381   1.000000
     31        -57.423115   1.000000
     32        -57.421112   1.000000
     33        -57.416665   1.000000
     34        -57.413828   1.000000
     35        -57.412904   1.000000
     36        -57.409695   1.000000
     37        -57.409282   1.000000
     38        -57.407983   1.000000
     39        -57.397655   1.000000
     40        -57.394928   1.000000
     41        -57.391528   1.000000
     42        -57.389447   1.000000
     43        -57.384307   1.000000
     44        -57.370401   1.000000
     45        -57.364942   1.000000
     46        -57.364300   1.000000
     47        -57.349130   1.000000
     48        -57.343765   1.000000
     49        -57.315337   1.000000
     50        -57.223028   1.000000
     51        -57.219534   1.000000
     52        -57.217016   1.000000
     53        -57.215143   1.000000
     54        -57.210849   1.000000
     55        -57.208106   1.000000
     56        -57.205082   1.000000
     57        -57.202937   1.000000
     58        -57.198038   1.000000
     59        -57.192271   1.000000
     60        -57.176500   1.000000
     61        -57.163841   1.000000
     62        -57.159127   1.000000
     63        -57.135912   1.000000
     64        -32.379085   1.000000
     65        -32.345073   1.000000
     66        -32.332070   1.000000
     67        -32.273446   1.000000
     68        -32.240813   1.000000
     69        -32.234407   1.000000
     70        -32.219184   1.000000
     71        -32.205294   1.000000
     72        -32.181950   1.000000
     73        -32.170813   1.000000
     74        -32.165079   1.000000
     75        -32.143607   1.000000
     76        -32.136393   1.000000
     77        -32.127665   1.000000
     78        -32.124325   1.000000
     79        -32.113384   1.000000
     80        -32.108465   1.000000
     81        -32.103884   1.000000
     82        -32.096368   1.000000
     83        -32.086923   1.000000
     84        -32.075408   1.000000
     85        -32.073176   1.000000
     86        -32.071242   1.000000
     87        -32.069364   1.000000
     88        -32.066154   1.000000
     89        -32.057050   1.000000
     90        -32.055201   1.000000
     91        -32.044795   1.000000
     92        -32.035890   1.000000
     93        -32.034891   1.000000
     94        -32.027348   1.000000
     95        -32.016685   1.000000
     96        -31.976351   1.000000
     97        -31.967347   1.000000
     98        -31.962646   1.000000
     99        -31.957503   1.000000
    100        -31.949704   1.000000
    101        -31.939305   1.000000
    102        -31.935562   1.000000
    103        -31.922241   1.000000
    104        -31.909905   1.000000
    105        -31.902487   1.000000
    106        -31.887892   1.000000
    107        -31.885230   1.000000
    108        -31.877651   1.000000
    109        -31.872149   1.000000
    110        -31.865020   1.000000
    111        -31.860747   1.000000
    112        -31.860658   1.000000
    113        -31.851095   1.000000
    114        -31.842333   1.000000
    115        -31.837213   1.000000
    116        -31.803521   1.000000
    117        -31.792069   1.000000
    118        -31.778006   1.000000
    119        -31.737769   1.000000
    120        -31.734347   1.000000
    121        -31.732149   1.000000
    122        -31.728610   1.000000
    123        -31.718488   1.000000
    124        -31.714679   1.000000
    125        -31.709908   1.000000
    126        -31.683705   1.000000
    127        -31.678447   1.000000
    128        -31.678051   1.000000
    129        -31.666427   1.000000
    130        -31.664462   1.000000
    131        -31.654836   1.000000
    132        -31.650564   1.000000
    133        -31.640765   1.000000
    134        -31.639546   1.000000
    135        -31.634926   1.000000
    136        -31.629704   1.000000
    137        -31.624700   1.000000
    138        -31.605516   1.000000
    139        -31.600502   1.000000
    140        -31.592134   1.000000
    141        -31.576274   1.000000
    142        -31.562078   1.000000
    143        -31.558410   1.000000
    144        -31.546672   1.000000
    145        -31.537572   1.000000
    146        -31.530825   1.000000
    147        -31.526423   1.000000
    148        -31.524632   1.000000
    149        -31.513912   1.000000
    150        -31.511218   1.000000
    151        -31.509951   1.000000
    152        -31.507105   1.000000
    153        -31.501091   1.000000
    154        -31.500059   1.000000
    155        -31.489901   1.000000
    156        -31.481171   1.000000
    157        -31.479954   1.000000
    158        -31.475147   1.000000
    159        -31.464232   1.000000
    160        -31.464107   1.000000
    161        -31.463134   1.000000
    162        -31.459441   1.000000
    163        -31.456192   1.000000
    164        -31.442035   1.000000
    165        -31.437164   1.000000
    166        -31.436661   1.000000
    167        -31.428675   1.000000
    168        -31.417820   1.000000
    169        -31.413208   1.000000
    170        -31.408816   1.000000
    171        -31.404553   1.000000
    172        -31.404230   1.000000
    173        -31.398151   1.000000
    174        -31.379061   1.000000
    175        -31.375475   1.000000
    176        -31.374945   1.000000
    177        -31.353757   1.000000
    178        -31.336322   1.000000
    179        -31.333682   1.000000
    180        -31.333360   1.000000
    181        -31.291649   1.000000
    182        -31.280341   1.000000
    183        -31.272441   1.000000
    184        -31.267784   1.000000
    185        -31.264537   1.000000
    186        -31.264353   1.000000
    187        -31.256851   1.000000
    188        -31.252877   1.000000
    189        -31.252646   1.000000
    190        -31.237959   1.000000
    191        -31.235566   1.000000
    192        -31.228611   1.000000
    193        -31.220600   1.000000
    194        -31.216934   1.000000
    195        -31.206762   1.000000
    196        -31.200846   1.000000
    197        -31.192738   1.000000
    198        -31.192058   1.000000
    199        -31.188598   1.000000
    200        -31.182408   1.000000
    201        -31.179761   1.000000
    202        -31.173787   1.000000
    203        -31.169127   1.000000
    204        -31.168234   1.000000
    205        -31.164357   1.000000
    206        -31.162729   1.000000
    207        -31.158371   1.000000
    208        -31.152217   1.000000
    209        -31.150099   1.000000
    210        -31.146677   1.000000
    211        -31.144176   1.000000
    212        -31.141097   1.000000
    213        -31.131154   1.000000
    214        -31.120924   1.000000
    215        -31.116596   1.000000
    216        -31.104157   1.000000
    217        -31.103789   1.000000
    218        -31.100871   1.000000
    219        -31.083778   1.000000
    220        -31.081396   1.000000
    221        -31.078013   1.000000
    222        -31.066568   1.000000
    223        -31.065564   1.000000
    224        -31.061941   1.000000
    225        -31.058281   1.000000
    226        -31.055818   1.000000
    227        -31.051704   1.000000
    228        -31.048236   1.000000
    229        -31.048029   1.000000
    230        -31.039887   1.000000
    231        -31.036067   1.000000
    232        -31.033192   1.000000
    233        -31.032194   1.000000
    234        -31.029810   1.000000
    235        -31.021902   1.000000
    236        -31.018555   1.000000
    237        -31.017588   1.000000
    238        -31.016525   1.000000
    239        -31.011343   1.000000
    240        -31.006575   1.000000
    241        -31.002226   1.000000
    242        -30.997126   1.000000
    243        -30.970704   1.000000
    244        -30.969122   1.000000
    245        -30.959850   1.000000
    246        -30.935017   1.000000
    247        -30.918047   1.000000
    248        -30.913711   1.000000
    249        -30.913018   1.000000
    250        -30.907942   1.000000
    251        -30.902404   1.000000
    252        -30.886755   1.000000
    253        -15.758277   1.000000
    254         -2.584162   1.000000
    255         -2.579737   1.000000
    256         -2.390664   1.000000
    257         -2.377698   1.000000
    258         -2.250100   1.000000
    259         -1.718923   1.000000
    260         -1.688498   1.000000
    261         -1.665901   1.000000
    262         -1.655244   1.000000
    263         -1.347229   1.000000
    264         -1.287931   1.000000
    265         -1.237215   1.000000
    266         -1.174024   1.000000
    267         -1.145763   1.000000
    268         -1.078792   1.000000
    269         -1.014082   1.000000
    270         -0.983460   1.000000
    271         -0.949193   1.000000
    272         -0.936082   1.000000
    273         -0.900752   1.000000
    274         -0.873828   1.000000
    275         -0.855641   1.000000
    276         -0.839839   1.000000
    277         -0.813246   1.000000
    278         -0.746306   1.000000
    279         -0.740902   1.000000
    280         -0.705927   1.000000
    281         -0.689775   1.000000
    282         -0.678928   1.000000
    283         -0.666612   1.000000
    284         -0.661941   1.000000
    285         -0.623157   1.000000
    286         -0.589194   1.000000
    287         -0.536552   1.000000
    288         -0.524782   1.000000
    289         -0.457096   1.000000
    290         -0.452004   1.000000
    291         -0.445993   1.000000
    292         -0.425036   1.000000
    293         -0.419226   1.000000
    294         -0.400146   1.000000
    295         -0.353945   1.000000
    296         -0.279185   1.000000
    297         -0.261090   1.000000
    298         -0.246747   1.000000
    299         -0.222881   1.000000
    300         -0.211541   1.000000
    301         -0.194629   1.000000
    302         -0.169068   1.000000
    303         -0.165055   1.000000
    304         -0.147985   1.000000
    305         -0.082448   1.000000
    306         -0.078424   1.000000
    307         -0.005343   1.000000
    308          0.040297   1.000000
    309          0.066295   1.000000
    310          0.068041   1.000000
    311          0.101566   1.000000
    312          0.109701   1.000000
    313          0.116907   1.000000
    314          0.119580   1.000000
    315          0.184640   1.000000
    316          0.204543   1.000000
    317          0.275206   1.000000
    318          0.336003   1.000000
    319          0.338700   1.000000
    320          0.351878   1.000000
    321          0.357107   1.000000
    322          0.368503   1.000000
    323          0.369317   1.000000
    324          0.397364   1.000000
    325          0.404946   1.000000
    326          0.406626   1.000000
    327          0.429914   1.000000
    328          0.469540   1.000000
    329          0.471332   1.000000
    330          0.487949   1.000000
    331          0.493957   1.000000
    332          0.504133   1.000000
    333          0.516181   1.000000
    334          0.536685   1.000000
    335          0.556650   1.000000
    336          0.579971   1.000000
    337          0.623124   1.000000
    338          0.642854   1.000000
    339          0.662222   1.000000
    340          0.674445   1.000000
    341          0.713627   1.000000
    342          0.725573   1.000000
    343          0.730698   1.000000
    344          0.762177   1.000000
    345          0.797316   1.000000
    346          0.814396   1.000000
    347          0.857895   1.000000
    348          0.863590   1.000000
    349          0.865644   1.000000
    350          0.891834   1.000000
    351          0.900952   1.000000
    352          0.926326   1.000000
    353          0.941208   1.000000
    354          0.956231   1.000000
    355          1.030743   1.000000
    356          1.043056   1.000000
    357          1.075892   1.000000
    358          1.086330   1.000000
    359          1.131293   1.000000
    360          1.173072   1.000000
    361          1.179842   1.000000
    362          1.190457   1.000000
    363          1.206423   1.000000
    364          1.207180   1.000000
    365          1.280196   1.000000
    366          1.304707   1.000000
    367          1.339458   1.000000
    368          1.379266   1.000000
    369          1.394334   1.000000
    370          1.413140   1.000000
    371          1.439130   1.000000
    372          1.500249   1.000000
    373          1.515324   1.000000
    374          1.520246   1.000000
    375          1.541271   1.000000
    376          1.543020   1.000000
    377          1.570143   1.000000
    378          1.575831   1.000000
    379          1.584339   1.000000
    380          1.605743   1.000000
    381          1.631377   1.000000
    382          1.657122   1.000000
    383          1.676533   1.000000
    384          1.681674   1.000000
    385          1.718968   1.000000
    386          1.743518   1.000000
    387          1.783579   1.000000
    388          1.785660   1.000000
    389          1.797313   1.000000
    390          1.864114   1.000000
    391          1.865624   1.000000
    392          1.879900   1.000000
    393          1.907500   1.000000
    394          1.916249   1.000000
    395          1.932128   1.000000
    396          1.943642   1.000000
    397          1.958203   1.000000
    398          1.958618   1.000000
    399          1.989728   1.000000
    400          2.046560   1.000000
    401          2.048241   1.000000
    402          2.122130   1.000000
    403          2.197246   1.000000
    404          2.237503   1.000000
    405          2.239124   1.000000
    406          2.272764   1.000000
    407          2.380185   1.000000
    408          2.386421   1.000000
    409          2.407820   1.000000
    410          2.476273   1.000000
    411          2.503416   1.000000
    412          2.546893   1.000000
    413          2.549118   1.000000
    414          2.562733   1.000000
    415          2.571755   1.000000
    416          2.666129   1.000000
    417          2.752875   1.000000
    418          2.766385   1.000000
    419          2.867725   1.000000
    420          2.876947   1.000000
    421          2.912338   1.000000
    422          2.946816   1.000000
    423          2.966778   1.000000
    424          2.991735   1.000000
    425          3.003963   1.000000
    426          3.017937   1.000000
    427          3.069234   1.000000
    428          3.075936   1.000000
    429          3.097097   1.000000
    430          3.103387   1.000000
    431          3.118172   1.000000
    432          3.154179   1.000000
    433          3.198297   0.999995
    434          3.202548   0.999993
    435          3.248089   0.999891
    436          3.266060   0.999713
    437          3.286483   0.999198
    438          3.288713   0.999106
    439          3.317476   0.996703
    440          3.341666   0.991217
    441          3.388839   0.956134
    442          3.392816   0.950657
    443          3.413432   0.913036
    444          3.463298   0.743599
    445          3.521692   0.431983
    446          3.527681   0.398966
    447          3.562032   0.229095
    448          3.614392   0.069129
    449          3.650002   0.023522
    450          3.673359   0.010273
    451          3.684630   0.006650
    452          3.698324   0.003801
    453          3.729850   0.000919
    454          3.762092   0.000178
    455          3.928574   0.000000
    456          3.984422   0.000000
    457          3.986757   0.000000
    458          4.006636   0.000000
    459          4.029892   0.000000
    460          4.093517   0.000000
    461          4.140346   0.000000
    462          4.154606   0.000000
    463          4.170002   0.000000
    464          4.172584   0.000000
    465          4.226191   0.000000
    466          4.230200   0.000000
    467          4.280149   0.000000
    468          4.320371   0.000000
    469          4.380280   0.000000
    470          4.396227   0.000000
    471          4.425001   0.000000
    472          4.441162   0.000000
    473          4.484279   0.000000
    474          4.515007   0.000000
    475          4.574584   0.000000
    476          4.591044   0.000000
    477          4.628536   0.000000
    478          4.650292   0.000000
    479          4.673106   0.000000
    480          4.677934   0.000000
    481          4.688582   0.000000
    482          4.704457   0.000000
    483          4.722520   0.000000
    484          4.742396   0.000000
    485          4.749013   0.000000
    486          4.752315   0.000000
    487          4.765478   0.000000
    488          4.774881   0.000000
    489          4.785398   0.000000
    490          4.812200   0.000000
    491          4.823575   0.000000
    492          4.847335   0.000000
    493          4.855557   0.000000
    494          4.860130   0.000000
    495          4.889168   0.000000
    496          4.898407   0.000000
    497          4.943441   0.000000
    498          4.957645   0.000000
    499          4.963301   0.000000
    500          5.005554   0.000000
    501          5.012754   0.000000
    502          5.042616   0.000000
    503          5.083006   0.000000
    504          5.090421   0.000000
    505          5.096937   0.000000
    506          5.098267   0.000000
    507          5.107285   0.000000
    508          5.113659   0.000000
    509          5.137684   0.000000
    510          5.145659   0.000000
    511          5.165076   0.000000
    512          5.171917   0.000000
    513          5.194689   0.000000
    514          5.210203   0.000000
    515          5.231126   0.000000
    516          5.245746   0.000000
    517          5.258535   0.000000
    518          5.267084   0.000000
    519          5.278780   0.000000
    520          5.320144   0.000000
    521          5.350174   0.000000
    522          5.351770   0.000000
    523          5.363721   0.000000
    524          5.385138   0.000000
    525          5.387303   0.000000
    526          5.429105   0.000000
    527          5.431297   0.000000
    528          5.439821   0.000000
    529          5.491901   0.000000
    530          5.530609   0.000000
    531          5.555139   0.000000
    532          5.568823   0.000000
 
  0.5000000E+00  0.5000000E+00  0.0000000E+00  0.6250000E-01
      1        -57.671593   1.000000
      2        -57.651156   1.000000
      3        -57.649355   1.000000
      4        -57.649355   1.000000
      5        -57.619802   1.000000
      6        -57.596411   1.000000
      7        -57.596411   1.000000
      8        -57.594862   1.000000
      9        -57.546549   1.000000
     10        -57.546549   1.000000
     11        -57.546517   1.000000
     12        -57.546200   1.000000
     13        -57.536937   1.000000
     14        -57.533884   1.000000
     15        -57.533884   1.000000
     16        -57.531464   1.000000
     17        -57.529930   1.000000
     18        -57.529101   1.000000
     19        -57.519647   1.000000
     20        -57.476865   1.000000
     21        -57.476865   1.000000
     22        -57.459549   1.000000
     23        -57.434950   1.000000
     24        -57.433534   1.000000
     25        -57.433406   1.000000
     26        -57.433406   1.000000
     27        -57.431944   1.000000
     28        -57.426837   1.000000
     29        -57.426837   1.000000
     30        -57.426522   1.000000
     31        -57.425921   1.000000
     32        -57.424904   1.000000
     33        -57.415651   1.000000
     34        -57.415651   1.000000
     35        -57.414118   1.000000
     36        -57.409732   1.000000
     37        -57.409732   1.000000
     38        -57.409370   1.000000
     39        -57.400487   1.000000
     40        -57.394028   1.000000
     41        -57.391341   1.000000
     42        -57.391341   1.000000
     43        -57.389188   1.000000
     44        -57.366457   1.000000
     45        -57.358711   1.000000
     46        -57.357419   1.000000
     47        -57.348749   1.000000
     48        -57.348749   1.000000
     49        -57.315249   1.000000
     50        -57.220888   1.000000
     51        -57.220888   1.000000
     52        -57.218434   1.000000
     53        -57.217919   1.000000
     54        -57.207220   1.000000
     55        -57.205256   1.000000
     56        -57.205256   1.000000
     57        -57.205081   1.000000
     58        -57.198875   1.000000
     59        -57.195216   1.000000
     60        -57.176788   1.000000
     61        -57.159151   1.000000
     62        -57.159151   1.000000
     63        -57.137742   1.000000
     64        -32.377479   1.000000
     65        -32.350313   1.000000
     66        -32.350313   1.000000
     67        -32.256982   1.000000
     68        -32.256982   1.000000
     69        -32.240237   1.000000
     70        -32.221610   1.000000
     71        -32.203735   1.000000
     72        -32.203735   1.000000
     73        -32.199754   1.000000
     74        -32.169967   1.000000
     75        -32.169967   1.000000
     76        -32.162120   1.000000
     77        -32.121843   1.000000
     78        -32.121843   1.000000
     79        -32.115977   1.000000
     80        -32.086569   1.000000
     81        -32.075939   1.000000
     82        -32.075939   1.000000
     83        -32.071757   1.000000
     84        -32.056754   1.000000
     85        -32.055730   1.000000
     86        -32.055730   1.000000
     87        -32.049943   1.000000
     88        -32.040719   1.000000
     89        -32.030530   1.000000
     90        -32.030530   1.000000
     91        -32.027864   1.000000
     92        -32.020021   1.000000
     93        -32.004092   1.000000
     94        -32.004092   1.000000
     95        -32.000439   1.000000
     96        -31.996565   1.000000
     97        -31.985419   1.000000
     98        -31.985419   1.000000
     99        -31.978874   1.000000
    100        -31.977684   1.000000
    101        -31.940953   1.000000
    102        -31.925025   1.000000
    103        -31.925025   1.000000
    104        -31.908040   1.000000
    105        -31.892892   1.000000
    106        -31.892892   1.000000
    107        -31.891193   1.000000
    108        -31.887528   1.000000
    109        -31.887244   1.000000
    110        -31.881439   1.000000
    111        -31.881439   1.000000
    112        -31.877692   1.000000
    113        -31.877692   1.000000
    114        -31.865013   1.000000
    115        -31.858310   1.000000
    116        -31.846716   1.000000
    117        -31.846716   1.000000
    118        -31.736987   1.000000
    119        -31.736437   1.000000
    120        -31.734143   1.000000
    121        -31.734099   1.000000
    122        -31.734099   1.000000
    123        -31.725186   1.000000
    124        -31.699823   1.000000
    125        -31.699823   1.000000
    126        -31.697306   1.000000
    127        -31.677430   1.000000
    128        -31.661710   1.000000
    129        -31.660834   1.000000
    130        -31.660834   1.000000
    131        -31.637345   1.000000
    132        -31.621089   1.000000
    133        -31.621089   1.000000
    134        -31.614828   1.000000
    135        -31.604881   1.000000
    136        -31.604881   1.000000
    137        -31.591395   1.000000
    138        -31.587294   1.000000
    139        -31.582469   1.000000
    140        -31.580649   1.000000
    141        -31.579885   1.000000
    142        -31.579885   1.000000
    143        -31.557832   1.000000
    144        -31.552426   1.000000
    145        -31.552426   1.000000
    146        -31.533080   1.000000
    147        -31.522490   1.000000
    148        -31.522490   1.000000
    149        -31.515918   1.000000
    150        -31.510359   1.000000
    151        -31.505469   1.000000
    152        -31.505469   1.000000
    153        -31.497755   1.000000
    154        -31.477833   1.000000
    155        -31.476560   1.000000
    156        -31.466179   1.000000
    157        -31.466179   1.000000
    158        -31.462517   1.000000
    159        -31.461739   1.000000
    160        -31.461129   1.000000
    161        -31.460386   1.000000
    162        -31.460386   1.000000
    163        -31.455243   1.000000
    164        -31.455243   1.000000
    165        -31.453484   1.000000
    166        -31.452875   1.000000
    167        -31.450649   1.000000
    168        -31.434446   1.000000
    169        -31.433701   1.000000
    170        -31.432984   1.000000
    171        -31.432984   1.000000
    172        -31.428661   1.000000
    173        -31.425080   1.000000
    174        -31.425080   1.000000
    175        -31.416155   1.000000
    176        -31.378460   1.000000
    177        -31.375633   1.000000
    178        -31.350254   1.000000
    179        -31.268972   1.000000
    180        -31.268972   1.000000
    181        -31.267686   1.000000
    182        -31.264855   1.000000
    183        -31.264855   1.000000
    184        -31.263461   1.000000
    185        -31.261630   1.000000
    186        -31.255208   1.000000
    187        -31.255208   1.000000
    188        -31.251001   1.000000
    189        -31.244608   1.000000
    190        -31.241964   1.000000
    191        -31.232848   1.000000
    192        -31.230003   1.000000
    193        -31.230003   1.000000
    194        -31.217677   1.000000
    195        -31.217677   1.000000
    196        -31.217539   1.000000
    197        -31.204589   1.000000
    198        -31.197231   1.000000
    199        -31.185182   1.000000
    200        -31.185182   1.000000
    201        -31.184936   1.000000
    202        -31.177294   1.000000
    203        -31.175229   1.000000
    204        -31.175229   1.000000
    205        -31.166110   1.000000
    206        -31.162806   1.000000
    207        -31.157497   1.000000
    208        -31.156498   1.000000
    209        -31.156498   1.000000
    210        -31.151447   1.000000
    211        -31.138302   1.000000
    212        -31.138302   1.000000
    213        -31.124914   1.000000
    214        -31.121226   1.000000
    215        -31.117040   1.000000
    216        -31.109795   1.000000
    217        -31.109795   1.000000
    218        -31.096678   1.000000
    219        -31.082780   1.000000
    220        -31.082780   1.000000
    221        -31.069232   1.000000
    222        -31.066951   1.000000
    223        -31.066464   1.000000
    224        -31.066464   1.000000
    225        -31.056948   1.000000
    226        -31.055053   1.000000
    227        -31.054904   1.000000
    228        -31.054904   1.000000
    229        -31.049742   1.000000
    230        -31.049742   1.000000
    231        -31.029762   1.000000
    232        -31.028886   1.000000
    233        -31.028886   1.000000
    234        -31.021763   1.000000
    235        -31.021763   1.000000
    236        -31.020163   1.000000
    237        -31.019867   1.000000
    238        -31.015263   1.000000
    239        -31.006579   1.000000
    240        -31.001301   1.000000
    241        -31.000108   1.000000
    242        -31.000108   1.000000
    243        -30.969275   1.000000
    244        -30.968049   1.000000
    245        -30.968049   1.000000
    246        -30.941902   1.000000
    247        -30.913413   1.000000
    248        -30.913413   1.000000
    249        -30.910989   1.000000
    250        -30.904072   1.000000
    251        -30.904072   1.000000
    252        -30.880744   1.000000
    253        -15.758257   1.000000
    254         -2.419287   1.000000
    255         -2.419287   1.000000
    256         -2.334098   1.000000
    257         -2.186739   1.000000
    258         -2.156844   1.000000
    259         -2.156844   1.000000
    260         -2.119124   1.000000
    261         -1.403344   1.000000
    262         -1.377682   1.000000
    263         -1.363037   1.000000
    264         -1.363037   1.000000
    265         -1.318032   1.000000
    266         -1.246399   1.000000
    267         -1.023281   1.000000
    268         -0.954113   1.000000
    269         -0.954113   1.000000
    270         -0.939082   1.000000
    271         -0.911929   1.000000
    272         -0.911929   1.000000
    273         -0.887197   1.000000
    274         -0.879522   1.000000
    275         -0.796545   1.000000
    276         -0.775579   1.000000
    277         -0.774744   1.000000
    278         -0.774744   1.000000
    279         -0.767131   1.000000
    280         -0.681034   1.000000
    281         -0.670505   1.000000
    282         -0.670505   1.000000
    283         -0.530189   1.000000
    284         -0.530184   1.000000
    285         -0.530184   1.000000
    286         -0.520178   1.000000
    287         -0.497418   1.000000
    288         -0.483397   1.000000
    289         -0.480395   1.000000
    290         -0.480395   1.000000
    291         -0.469080   1.000000
    292         -0.455180   1.000000
    293         -0.435362   1.000000
    294         -0.435362   1.000000
    295         -0.429622   1.000000
    296         -0.331140   1.000000
    297         -0.312927   1.000000
    298         -0.283512   1.000000
    299         -0.283512   1.000000
    300         -0.258393   1.000000
    301         -0.217594   1.000000
    302         -0.210023   1.000000
    303         -0.210023   1.000000
    304         -0.197442   1.000000
    305         -0.113307   1.000000
    306         -0.113307   1.000000
    307         -0.089670   1.000000
    308         -0.088747   1.000000
    309          0.052857   1.000000
    310          0.121706   1.000000
    311          0.121706   1.000000
    312          0.156819   1.000000
    313          0.212254   1.000000
    314          0.248643   1.000000
    315          0.250874   1.000000
    316          0.250874   1.000000
    317          0.263492   1.000000
    318          0.263492   1.000000
    319          0.300352   1.000000
    320          0.311268   1.000000
    321          0.342358   1.000000
    322          0.342358   1.000000
    323          0.343184   1.000000
    324          0.384280   1.000000
    325          0.384280   1.000000
    326          0.400026   1.000000
    327          0.400026   1.000000
    328          0.412424   1.000000
    329          0.442176   1.000000
    330          0.442176   1.000000
    331          0.450875   1.000000
    332          0.452178   1.000000
    333          0.462164   1.000000
    334          0.465120   1.000000
    335          0.465120   1.000000
    336          0.484980   1.000000
    337          0.507733   1.000000
    338          0.522438   1.000000
    339          0.567686   1.000000
    340          0.570749   1.000000
    341          0.570749   1.000000
    342          0.717294   1.000000
    343          0.717294   1.000000
    344          0.741197   1.000000
    345          0.846141   1.000000
    346          0.846141   1.000000
    347          0.850856   1.000000
    348          0.912303   1.000000
    349          0.912303   1.000000
    350          0.919625   1.000000
    351          0.931799   1.000000
    352          0.966949   1.000000
    353          0.971709   1.000000
    354          0.971709   1.000000
    355          0.991916   1.000000
    356          1.000345   1.000000
    357          1.043258   1.000000
    358          1.067495   1.000000
    359          1.067495   1.000000
    360          1.199729   1.000000
    361          1.215141   1.000000
    362          1.215141   1.000000
    363          1.223294   1.000000
    364          1.231875   1.000000
    365          1.236943   1.000000
    366          1.272793   1.000000
    367          1.272793   1.000000
    368          1.329607   1.000000
    369          1.330495   1.000000
    370          1.353784   1.000000
    371          1.353784   1.000000
    372          1.366032   1.000000
    373          1.460898   1.000000
    374          1.460898   1.000000
    375          1.512377   1.000000
    376          1.533741   1.000000
    377          1.533741   1.000000
    378          1.539228   1.000000
    379          1.544803   1.000000
    380          1.546684   1.000000
    381          1.554181   1.000000
    382          1.555046   1.000000
    383          1.555046   1.000000
    384          1.563308   1.000000
    385          1.580854   1.000000
    386          1.580854   1.000000
    387          1.753056   1.000000
    388          1.754157   1.000000
    389          1.778442   1.000000
    390          1.783918   1.000000
    391          1.783918   1.000000
    392          1.848077   1.000000
    393          1.848077   1.000000
    394          1.863159   1.000000
    395          1.898269   1.000000
    396          1.917014   1.000000
    397          1.965318   1.000000
    398          1.966812   1.000000
    399          1.966812   1.000000
    400          1.993224   1.000000
    401          2.067182   1.000000
    402          2.067182   1.000000
    403          2.190597   1.000000
    404          2.242577   1.000000
    405          2.304540   1.000000
    406          2.304540   1.000000
    407          2.388184   1.000000
    408          2.388184   1.000000
    409          2.476034   1.000000
    410          2.566964   1.000000
    411          2.630230   1.000000
    412          2.630230   1.000000
    413          2.718475   1.000000
    414          2.735445   1.000000
    415          2.786985   1.000000
    416          2.837671   1.000000
    417          2.837671   1.000000
    418          2.847589   1.000000
    419          2.847589   1.000000
    420          2.958242   1.000000
    421          2.982225   1.000000
    422          3.057222   1.000000
    423          3.057734   1.000000
    424          3.058963   1.000000
    425          3.058963   1.000000
    426          3.070027   1.000000
    427          3.070027   1.000000
    428          3.085071   1.000000
    429          3.085317   1.000000
    430          3.092372   1.000000
    431          3.092372   1.000000
    432          3.093284   1.000000
    433          3.138441   1.000000
    434          3.196904   0.999995
    435          3.276308   0.999515
    436          3.276308   0.999515
    437          3.395274   0.947005
    438          3.395274   0.947005
    439          3.424587   0.885306
    440          3.442226   0.829576
    441          3.442519   0.828524
    442          3.468256   0.720511
    443          3.478032   0.672244
    444          3.478032   0.672244
    445          3.613963   0.069940
    446          3.620435   0.058467
    447          3.620435   0.058467
    448          3.641214   0.031328
    449          3.721514   0.001362
    450          3.721514   0.001362
    451          3.752149   0.000301
    452          3.777809   0.000074
    453          3.800019   0.000020
    454          3.879612   0.000000
    455          3.879612   0.000000
    456          3.997702   0.000000
    457          3.997702   0.000000
    458          4.022662   0.000000
    459          4.122810   0.000000
    460          4.134333   0.000000
    461          4.203954   0.000000
    462          4.227511   0.000000
    463          4.227511   0.000000
    464          4.230780   0.000000
    465          4.235938   0.000000
    466          4.235938   0.000000
    467          4.319785   0.000000
    468          4.334300   0.000000
    469          4.334300   0.000000
    470          4.380391   0.000000
    471          4.388861   0.000000
    472          4.395412   0.000000
    473          4.395412   0.000000
    474          4.410599   0.000000
    475          4.437209   0.000000
    476          4.457543   0.000000
    477          4.507269   0.000000
    478          4.507269   0.000000
    479          4.558204   0.000000
    480          4.587113   0.000000
    481          4.587113   0.000000
    482          4.641851   0.000000
    483          4.655219   0.000000
    484          4.667706   0.000000
    485          4.699617   0.000000
    486          4.699617   0.000000
    487          4.826519   0.000000
    488          4.884221   0.000000
    489          4.907828   0.000000
    490          4.915873   0.000000
    491          4.915873   0.000000
    492          4.957103   0.000000
    493          4.969869   0.000000
    494          4.969869   0.000000
    495          4.977564   0.000000
    496          4.984311   0.000000
    497          5.026170   0.000000
    498          5.029367   0.000000
    499          5.042023   0.000000
    500          5.042023   0.000000
    501          5.047906   0.000000
    502          5.052112   0.000000
    503          5.052112   0.000000
    504          5.093834   0.000000
    505          5.108707   0.000000
    506          5.122899   0.000000
    507          5.122899   0.000000
    508          5.170193   0.000000
    509          5.179090   0.000000
    510          5.179090   0.000000
    511          5.182417   0.000000
    512          5.182417   0.000000
    513          5.182741   0.000000
    514          5.199408   0.000000
    515          5.222467   0.000000
    516          5.276651   0.000000
    517          5.279477   0.000000
    518          5.312810   0.000000
    519          5.353182   0.000000
    520          5.365702   0.000000
    521          5.365702   0.000000
    522          5.395295   0.000000
    523          5.419844   0.000000
    524          5.457405   0.000000
    525          5.484792   0.000000
    526          5.488307   0.000000
    527          5.488307   0.000000
    528          5.524571   0.000000
    529          5.556537   0.000000
    530          5.574880   0.000000
    531          5.574888   0.000000
    532          5.727457   0.000000
