       N       E                     dE             d eps       ncg     rms          rms(c)
DAV:   1     0.109265865431E+05    0.10927E+05   -0.56786E+05  7704   0.160E+03
DAV:   2    -0.231282699188E+03   -0.11158E+05   -0.10861E+05  6976   0.498E+02
DAV:   3    -0.698867147584E+03   -0.46758E+03   -0.44863E+03  8864   0.871E+01
DAV:   4    -0.719606061330E+03   -0.20739E+02   -0.19979E+02  8144   0.132E+01
DAV:   5    -0.720780919722E+03   -0.11749E+01   -0.11523E+01  8768   0.237E+00    0.105E+02
DAV:   6    -0.721954041168E+03   -0.11731E+01   -0.42881E+02  8296   0.292E+01    0.651E+01
DAV:   7    -0.758399276385E+03   -0.36445E+02   -0.93466E+02  8152   0.400E+01    0.540E+01
DAV:   8    -0.676531277284E+03    0.81868E+02   -0.23533E+02  8424   0.227E+01    0.280E+01
DAV:   9    -0.663190625418E+03    0.13341E+02   -0.38901E+01  8240   0.101E+01    0.157E+01
DAV:  10    -0.662616356541E+03    0.57427E+00   -0.66468E+00  8544   0.341E+00    0.132E+01
DAV:  11    -0.662002382010E+03    0.61397E+00   -0.13309E+00  8320   0.213E+00    0.112E+01
DAV:  12    -0.661369358629E+03    0.63302E+00   -0.71571E-01  8072   0.146E+00    0.835E+00
DAV:  13    -0.660624337932E+03    0.74502E+00   -0.36026E+00  8168   0.303E+00    0.377E+00
DAV:  14    -0.660544399614E+03    0.79938E-01   -0.83915E-01  8432   0.192E+00    0.275E+00
DAV:  15    -0.660487356469E+03    0.57043E-01   -0.36121E-01  8192   0.125E+00    0.233E+00
DAV:  16    -0.660409325098E+03    0.78031E-01   -0.16523E-01  8192   0.870E-01    0.140E+00
DAV:  17    -0.660370655803E+03    0.38669E-01   -0.74947E-02  8176   0.553E-01    0.946E-01
DAV:  18    -0.660319353762E+03    0.51302E-01   -0.77983E-02  8120   0.496E-01    0.784E-01
DAV:  19    -0.660282915626E+03    0.36438E-01   -0.27193E-02  8344   0.344E-01    0.664E-01
DAV:  20    -0.660225367731E+03    0.57548E-01   -0.49475E-02  8144   0.403E-01    0.717E-01
DAV:  21    -0.660135756956E+03    0.89611E-01   -0.57669E-02  8144   0.431E-01    0.472E-01
DAV:  22    -0.660091166769E+03    0.44590E-01   -0.24125E-02  8160   0.300E-01    0.375E-01
DAV:  23    -0.660044292355E+03    0.46874E-01   -0.20261E-02  7576   0.279E-01    0.291E-01
DAV:  24    -0.660021356088E+03    0.22936E-01   -0.14836E-02  8032   0.237E-01    0.253E-01
DAV:  25    -0.660033174764E+03   -0.11819E-01   -0.13517E-02  8208   0.242E-01    0.340E-01
DAV:  26    -0.660048582680E+03   -0.15408E-01   -0.82574E-03  7960   0.166E-01    0.282E-01
DAV:  27    -0.660069212475E+03   -0.20630E-01   -0.82551E-03  7536   0.153E-01    0.162E-01
DAV:  28    -0.660090491045E+03   -0.21279E-01   -0.10293E-02  7848   0.131E-01    0.179E-01
DAV:  29    -0.660096498516E+03   -0.60075E-02   -0.36217E-03  7608   0.971E-02    0.572E-02
DAV:  30    -0.660101206840E+03   -0.47083E-02   -0.93356E-04  7840   0.496E-02    0.429E-02
DAV:  31    -0.660104658246E+03   -0.34514E-02   -0.67164E-04  7808   0.323E-02    0.194E-02
DAV:  32    -0.660106201113E+03   -0.15429E-02   -0.29287E-04  7032   0.152E-02    0.137E-02
DAV:  33    -0.660106945417E+03   -0.74430E-03   -0.12604E-04  6496   0.934E-03    0.110E-02
DAV:  34    -0.660107365837E+03   -0.42042E-03   -0.67189E-05  6320   0.673E-03    0.447E-03
DAV:  35    -0.660107529118E+03   -0.16328E-03   -0.24284E-05  6128   0.428E-03    0.547E-03
DAV:  36    -0.660107596992E+03   -0.67874E-04   -0.74430E-06  5200   0.264E-03    0.456E-03
DAV:  37    -0.660107654159E+03   -0.57167E-04   -0.85301E-06  5248   0.150E-03    0.313E-03
DAV:  38    -0.660107690229E+03   -0.36070E-04   -0.67095E-06  5112   0.175E-03    0.180E-03
DAV:  39    -0.660107706546E+03   -0.16316E-04   -0.23863E-06  4848   0.138E-03    0.130E-03
DAV:  40    -0.660107717398E+03   -0.10852E-04   -0.20111E-06  4880   0.906E-04    0.942E-04
DAV:  41    -0.660107719817E+03   -0.24185E-05   -0.33018E-07  4720   0.590E-04    0.624E-04
DAV:  42    -0.660107721417E+03   -0.16001E-05   -0.20441E-07  4288   0.459E-04    0.346E-04
DAV:  43    -0.660107722312E+03   -0.89487E-06   -0.11696E-07  4032   0.293E-04
   1 F= -.66010772E+03 E0= -.65997431E+03  d E =-.266823E+00
