ni3al                                   
           1
     9.498400    0.000000    0.000000
     0.000000    9.498400    0.000000
     0.000000    0.000000   24.502899
   Mo   O 
    63     1
Direct configuration=     1
   0.00000000  0.00000000  0.00000000
   0.00000000  0.00000000  0.38146186
   0.16667000  0.16667000  0.06464000
   0.33333000  0.00000000  0.00000000
   0.33034713  0.00000000  0.38061688
   0.50000000  0.16667000  0.06464000
   0.66667000  0.00000000  0.00000000
   0.66965287  0.00000000  0.38061688
   0.83333000  0.16667000  0.06464000
   0.00000000  0.33333000  0.00000000
   0.00000000  0.33034713  0.38061688
   0.16667000  0.50000000  0.06464000
   0.33333000  0.33333000  0.00000000
   0.35490354  0.35490354  0.38478675
   0.50000000  0.50000000  0.06464000
   0.66667000  0.33333000  0.00000000
   0.64509646  0.35490354  0.38478675
   0.83333000  0.50000000  0.06464000
   0.00000000  0.66667000  0.00000000
   0.00000000  0.66965287  0.38061688
   0.16667000  0.83333000  0.06464000
   0.33333000  0.66667000  0.00000000
   0.35490354  0.64509646  0.38478675
   0.50000000  0.83333000  0.06464000
   0.66667000  0.66667000  0.00000000
   0.64509646  0.64509646  0.38478675
   0.83333000  0.83333000  0.06464000
   0.00000000  0.00000000  0.12928000
   0.16667000  0.16667000  0.19391000
   0.33333000  0.00000000  0.12928000
   0.50000000  0.16667000  0.19391000
   0.66667000  0.00000000  0.12928000
   0.83333000  0.16667000  0.19391000
   0.00000000  0.33333000  0.12928000
   0.16667000  0.50000000  0.19391000
   0.33333000  0.33333000  0.12928000
   0.50000000  0.50000000  0.19391000
   0.66667000  0.33333000  0.12928000
   0.83333000  0.50000000  0.19391000
   0.00000000  0.66667000  0.12928000
   0.16667000  0.83333000  0.19391000
   0.33333000  0.66667000  0.12928000
   0.50000000  0.83333000  0.19391000
   0.66667000  0.66667000  0.12928000
   0.83333000  0.83333000  0.19391000
   0.00000000  0.00000000  0.25855000
   0.16666216  0.16666216  0.32527315
   0.33333000  0.00000000  0.25855000
   0.50000000  0.16524170  0.32465823
   0.66667000  0.00000000  0.25855000
   0.83333784  0.16666216  0.32527315
   0.00000000  0.33333000  0.25855000
   0.16524170  0.50000000  0.32465823
   0.33333000  0.33333000  0.25855000
   0.50000000  0.50000000  0.31594352
   0.66667000  0.33333000  0.25855000
   0.83475830  0.50000000  0.32465823
   0.00000000  0.66667000  0.25855000
   0.16666216  0.83333784  0.32527315
   0.33333000  0.66667000  0.25855000
   0.50000000  0.83475830  0.32465823
   0.66667000  0.66667000  0.25855000
   0.83333784  0.83333784  0.32527315
   0.50000000  0.50000000  0.42703552
