Generated by VASPKIT code               
   1.00000000000000     
     9.4983997344999995    0.0000000000000000    0.0000000000000000
     0.0000000000000000    9.4983997344999995    0.0000000000000000
     0.0000000000000000    0.0000000000000000   24.5028991699000009
   Mo   Nb
    60     2
Selective dynamics
Direct
  0.0000000000000000  0.0000000000000000  0.0000000000000000   F   F   F
  0.9877633390260030  0.9842679764955022  0.3828267400156591   T   T   T
  0.1666700000000034  0.1666700000000034  0.0646399999999971   F   F   F
  0.3333299999999966  0.0000000000000000  0.0000000000000000   F   F   F
  0.3326747164692847  0.0030359910057669  0.3795825892318021   T   T   T
  0.5000000000000000  0.1666700000000034  0.0646399999999971   F   F   F
  0.6666700000000034  0.0000000000000000  0.0000000000000000   F   F   F
  0.6836384753450844  0.0053015951469817  0.3815067849924034   T   T   T
  0.8333299999999966  0.1666700000000034  0.0646399999999971   F   F   F
  0.0000000000000000  0.3333299999999966  0.0000000000000000   F   F   F
  0.1666700000000034  0.5000000000000000  0.0646399999999971   F   F   F
  0.3333299999999966  0.3333299999999966  0.0000000000000000   F   F   F
  0.5000000000000000  0.5000000000000000  0.0646399999999971   F   F   F
  0.6666700000000034  0.3333299999999966  0.0000000000000000   F   F   F
  0.8333299999999966  0.5000000000000000  0.0646399999999971   F   F   F
  0.0000000000000000  0.6666700000000034  0.0000000000000000   F   F   F
  0.0007635766749701  0.6872179178290310  0.3818774930805020   T   T   T
  0.1666700000000034  0.8333299999999966  0.0646399999999971   F   F   F
  0.3333299999999966  0.6666700000000034  0.0000000000000000   F   F   F
  0.5000000000000000  0.8333299999999966  0.0646399999999971   F   F   F
  0.6666700000000034  0.6666700000000034  0.0000000000000000   F   F   F
  0.6737257453276726  0.6689555003570788  0.3831548109940286   T   T   T
  0.8333299999999966  0.8333299999999966  0.0646399999999971   F   F   F
  0.0000000000000000  0.0000000000000000  0.1292800000000014   F   F   F
  0.1666700000000034  0.1666700000000034  0.1939100000000025   F   F   F
  0.3333299999999966  0.0000000000000000  0.1292800000000014   F   F   F
  0.5000000000000000  0.1666700000000034  0.1939100000000025   F   F   F
  0.6666700000000034  0.0000000000000000  0.1292800000000014   F   F   F
  0.8333299999999966  0.1666700000000034  0.1939100000000025   F   F   F
  0.0000000000000000  0.3333299999999966  0.1292800000000014   F   F   F
  0.1666700000000034  0.5000000000000000  0.1939100000000025   F   F   F
  0.3333299999999966  0.3333299999999966  0.1292800000000014   F   F   F
  0.5000000000000000  0.5000000000000000  0.1939100000000025   F   F   F
  0.6666700000000034  0.3333299999999966  0.1292800000000014   F   F   F
  0.8333299999999966  0.5000000000000000  0.1939100000000025   F   F   F
  0.0000000000000000  0.6666700000000034  0.1292800000000014   F   F   F
  0.1666700000000034  0.8333299999999966  0.1939100000000025   F   F   F
  0.3333299999999966  0.6666700000000034  0.1292800000000014   F   F   F
  0.5000000000000000  0.8333299999999966  0.1939100000000025   F   F   F
  0.6666700000000034  0.6666700000000034  0.1292800000000014   F   F   F
  0.8333299999999966  0.8333299999999966  0.1939100000000025   F   F   F
  0.0000000000000000  0.0000000000000000  0.2585499999999996   F   F   F
  0.1664396155368024  0.1667247967867169  0.3247339320035252   T   T   T
  0.3333299999999966  0.0000000000000000  0.2585499999999996   F   F   F
  0.4992897249140782  0.1656877971585402  0.3237199317826338   T   T   T
  0.6666700000000034  0.0000000000000000  0.2585499999999996   F   F   F
  0.8340383823584787  0.1690397145878890  0.3241462677040374   T   T   T
  0.0000000000000000  0.3333299999999966  0.2585499999999996   F   F   F
  0.1659062238761280  0.4993428600593290  0.3236438503911856   T   T   T
  0.3333299999999966  0.3333299999999966  0.2585499999999996   F   F   F
  0.4991459510625447  0.4992890972652049  0.3201762600151454   T   T   T
  0.6666700000000034  0.3333299999999966  0.2585499999999996   F   F   F
  0.8328406166000875  0.5000229550628248  0.3247497434722817   T   T   T
  0.0000000000000000  0.6666700000000034  0.2585499999999996   F   F   F
  0.1690510794156950  0.8341078781809728  0.3238353500552620   T   T   T
  0.3333299999999966  0.6666700000000034  0.2585499999999996   F   F   F
  0.5001948299199199  0.8327523026445718  0.3247597883196605   T   T   T
  0.6666700000000034  0.6666700000000034  0.2585499999999996   F   F   F
  0.8329345221160835  0.8340542250698988  0.3220116001236235   T   T   T
  0.0045259542245972  0.3336401540249128  0.3795465335982300   T   T   T
  0.6489403106645710  0.3411921400210289  0.3862494060976829   T   T   T
  0.3419316748582872  0.6504660616678777  0.3862964156227946   T   T   T
 
  0.00000000E+00  0.00000000E+00  0.00000000E+00
  0.00000000E+00  0.00000000E+00  0.00000000E+00
  0.00000000E+00  0.00000000E+00  0.00000000E+00
  0.00000000E+00  0.00000000E+00  0.00000000E+00
  0.00000000E+00  0.00000000E+00  0.00000000E+00
  0.00000000E+00  0.00000000E+00  0.00000000E+00
  0.00000000E+00  0.00000000E+00  0.00000000E+00
  0.00000000E+00  0.00000000E+00  0.00000000E+00
  0.00000000E+00  0.00000000E+00  0.00000000E+00
  0.00000000E+00  0.00000000E+00  0.00000000E+00
  0.00000000E+00  0.00000000E+00  0.00000000E+00
  0.00000000E+00  0.00000000E+00  0.00000000E+00
  0.00000000E+00  0.00000000E+00  0.00000000E+00
  0.00000000E+00  0.00000000E+00  0.00000000E+00
  0.00000000E+00  0.00000000E+00  0.00000000E+00
  0.00000000E+00  0.00000000E+00  0.00000000E+00
  0.00000000E+00  0.00000000E+00  0.00000000E+00
  0.00000000E+00  0.00000000E+00  0.00000000E+00
  0.00000000E+00  0.00000000E+00  0.00000000E+00
  0.00000000E+00  0.00000000E+00  0.00000000E+00
  0.00000000E+00  0.00000000E+00  0.00000000E+00
  0.00000000E+00  0.00000000E+00  0.00000000E+00
  0.00000000E+00  0.00000000E+00  0.00000000E+00
  0.00000000E+00  0.00000000E+00  0.00000000E+00
  0.00000000E+00  0.00000000E+00  0.00000000E+00
  0.00000000E+00  0.00000000E+00  0.00000000E+00
  0.00000000E+00  0.00000000E+00  0.00000000E+00
  0.00000000E+00  0.00000000E+00  0.00000000E+00
  0.00000000E+00  0.00000000E+00  0.00000000E+00
  0.00000000E+00  0.00000000E+00  0.00000000E+00
  0.00000000E+00  0.00000000E+00  0.00000000E+00
  0.00000000E+00  0.00000000E+00  0.00000000E+00
  0.00000000E+00  0.00000000E+00  0.00000000E+00
  0.00000000E+00  0.00000000E+00  0.00000000E+00
  0.00000000E+00  0.00000000E+00  0.00000000E+00
  0.00000000E+00  0.00000000E+00  0.00000000E+00
  0.00000000E+00  0.00000000E+00  0.00000000E+00
  0.00000000E+00  0.00000000E+00  0.00000000E+00
  0.00000000E+00  0.00000000E+00  0.00000000E+00
  0.00000000E+00  0.00000000E+00  0.00000000E+00
  0.00000000E+00  0.00000000E+00  0.00000000E+00
  0.00000000E+00  0.00000000E+00  0.00000000E+00
  0.00000000E+00  0.00000000E+00  0.00000000E+00
  0.00000000E+00  0.00000000E+00  0.00000000E+00
  0.00000000E+00  0.00000000E+00  0.00000000E+00
  0.00000000E+00  0.00000000E+00  0.00000000E+00
  0.00000000E+00  0.00000000E+00  0.00000000E+00
  0.00000000E+00  0.00000000E+00  0.00000000E+00
  0.00000000E+00  0.00000000E+00  0.00000000E+00
  0.00000000E+00  0.00000000E+00  0.00000000E+00
  0.00000000E+00  0.00000000E+00  0.00000000E+00
  0.00000000E+00  0.00000000E+00  0.00000000E+00
  0.00000000E+00  0.00000000E+00  0.00000000E+00
  0.00000000E+00  0.00000000E+00  0.00000000E+00
  0.00000000E+00  0.00000000E+00  0.00000000E+00
  0.00000000E+00  0.00000000E+00  0.00000000E+00
  0.00000000E+00  0.00000000E+00  0.00000000E+00
  0.00000000E+00  0.00000000E+00  0.00000000E+00
  0.00000000E+00  0.00000000E+00  0.00000000E+00
  0.00000000E+00  0.00000000E+00  0.00000000E+00
  0.00000000E+00  0.00000000E+00  0.00000000E+00
  0.00000000E+00  0.00000000E+00  0.00000000E+00
