  62  62   0   0
  0.3565551E+02  0.9498400E-09  0.9498400E-09  0.2450290E-08  0.5000000E-15
  1.000000000000000E-004
  CAR 
 ni3al                                   
      8.74159483    -60.93467831  301      3.43301668      1.00000000
    -60.935  0.0000E+00  0.0000E+00
    -60.702  0.0000E+00  0.0000E+00
    -60.470  0.0000E+00  0.0000E+00
    -60.238  0.0000E+00  0.0000E+00
    -60.006  0.0000E+00  0.0000E+00
    -59.773  0.0000E+00  0.0000E+00
    -59.541  0.0000E+00  0.0000E+00
    -59.309  0.0000E+00  0.0000E+00
    -59.077  0.0000E+00  0.0000E+00
    -58.844  0.0000E+00  0.0000E+00
    -58.612  0.0000E+00  0.0000E+00
    -58.380  0.0000E+00  0.0000E+00
    -58.148  0.1172E-06  0.2723E-07
    -57.915  0.1293E+00  0.3004E-01
    -57.683  0.4687E+02  0.1091E+02
    -57.451  0.2376E+03  0.6609E+02
    -57.219  0.1981E+03  0.1121E+03
    -56.986  0.3401E+02  0.1200E+03
    -56.754  0.1446E-01  0.1200E+03
    -56.522  0.6928E-09  0.1200E+03
    -56.290  0.0000E+00  0.1200E+03
    -56.057  0.0000E+00  0.1200E+03
    -55.825  0.0000E+00  0.1200E+03
    -55.593  0.0000E+00  0.1200E+03
    -55.361  0.0000E+00  0.1200E+03
    -55.128  0.0000E+00  0.1200E+03
    -54.896  0.0000E+00  0.1200E+03
    -54.664  0.0000E+00  0.1200E+03
    -54.432  0.0000E+00  0.1200E+03
    -54.199  0.0000E+00  0.1200E+03
    -53.967  0.0000E+00  0.1200E+03
    -53.735  0.0000E+00  0.1200E+03
    -53.503  0.0000E+00  0.1200E+03
    -53.270  0.0000E+00  0.1200E+03
    -53.038  0.0000E+00  0.1200E+03
    -52.806  0.0000E+00  0.1200E+03
    -52.574  0.0000E+00  0.1200E+03
    -52.341  0.0000E+00  0.1200E+03
    -52.109  0.8298E-12  0.1200E+03
    -51.877  0.2721E-03  0.1200E+03
    -51.645  0.3274E+01  0.1208E+03
    -51.412  0.1381E+02  0.1240E+03
    -51.180  0.1387E+00  0.1240E+03
    -50.948  0.1090E-06  0.1240E+03
    -50.715  0.0000E+00  0.1240E+03
    -50.483  0.0000E+00  0.1240E+03
    -50.251  0.0000E+00  0.1240E+03
    -50.019  0.0000E+00  0.1240E+03
    -49.786  0.0000E+00  0.1240E+03
    -49.554  0.0000E+00  0.1240E+03
    -49.322  0.0000E+00  0.1240E+03
    -49.090  0.0000E+00  0.1240E+03
    -48.857  0.0000E+00  0.1240E+03
    -48.625  0.0000E+00  0.1240E+03
    -48.393  0.0000E+00  0.1240E+03
    -48.161  0.0000E+00  0.1240E+03
    -47.928  0.0000E+00  0.1240E+03
    -47.696  0.0000E+00  0.1240E+03
    -47.464  0.0000E+00  0.1240E+03
    -47.232  0.0000E+00  0.1240E+03
    -46.999  0.0000E+00  0.1240E+03
    -46.767  0.0000E+00  0.1240E+03
    -46.535  0.0000E+00  0.1240E+03
    -46.303  0.0000E+00  0.1240E+03
    -46.070  0.0000E+00  0.1240E+03
    -45.838  0.0000E+00  0.1240E+03
    -45.606  0.0000E+00  0.1240E+03
    -45.374  0.0000E+00  0.1240E+03
    -45.141  0.0000E+00  0.1240E+03
    -44.909  0.0000E+00  0.1240E+03
    -44.677  0.0000E+00  0.1240E+03
    -44.445  0.0000E+00  0.1240E+03
    -44.212  0.0000E+00  0.1240E+03
    -43.980  0.0000E+00  0.1240E+03
    -43.748  0.0000E+00  0.1240E+03
    -43.516  0.0000E+00  0.1240E+03
    -43.283  0.0000E+00  0.1240E+03
    -43.051  0.0000E+00  0.1240E+03
    -42.819  0.0000E+00  0.1240E+03
    -42.587  0.0000E+00  0.1240E+03
    -42.354  0.0000E+00  0.1240E+03
    -42.122  0.0000E+00  0.1240E+03
    -41.890  0.0000E+00  0.1240E+03
    -41.658  0.0000E+00  0.1240E+03
    -41.425  0.0000E+00  0.1240E+03
    -41.193  0.0000E+00  0.1240E+03
    -40.961  0.0000E+00  0.1240E+03
    -40.729  0.0000E+00  0.1240E+03
    -40.496  0.0000E+00  0.1240E+03
    -40.264  0.0000E+00  0.1240E+03
    -40.032  0.0000E+00  0.1240E+03
    -39.800  0.0000E+00  0.1240E+03
    -39.567  0.0000E+00  0.1240E+03
    -39.335  0.0000E+00  0.1240E+03
    -39.103  0.0000E+00  0.1240E+03
    -38.871  0.0000E+00  0.1240E+03
    -38.638  0.0000E+00  0.1240E+03
    -38.406  0.0000E+00  0.1240E+03
    -38.174  0.0000E+00  0.1240E+03
    -37.942  0.0000E+00  0.1240E+03
    -37.709  0.0000E+00  0.1240E+03
    -37.477  0.0000E+00  0.1240E+03
    -37.245  0.0000E+00  0.1240E+03
    -37.012  0.0000E+00  0.1240E+03
    -36.780  0.0000E+00  0.1240E+03
    -36.548  0.0000E+00  0.1240E+03
    -36.316  0.0000E+00  0.1240E+03
    -36.083  0.0000E+00  0.1240E+03
    -35.851  0.0000E+00  0.1240E+03
    -35.619  0.0000E+00  0.1240E+03
    -35.387  0.0000E+00  0.1240E+03
    -35.154  0.0000E+00  0.1240E+03
    -34.922  0.0000E+00  0.1240E+03
    -34.690  0.0000E+00  0.1240E+03
    -34.458  0.0000E+00  0.1240E+03
    -34.225  0.0000E+00  0.1240E+03
    -33.993  0.0000E+00  0.1240E+03
    -33.761  0.0000E+00  0.1240E+03
    -33.529  0.0000E+00  0.1240E+03
    -33.296  0.0000E+00  0.1240E+03
    -33.064  0.0000E+00  0.1240E+03
    -32.832  0.1620E-09  0.1240E+03
    -32.600  0.4863E-02  0.1240E+03
    -32.367  0.1409E+02  0.1273E+03
    -32.135  0.1616E+03  0.1648E+03
    -31.903  0.2053E+03  0.2125E+03
    -31.671  0.2200E+03  0.2636E+03
    -31.438  0.2720E+03  0.3268E+03
    -31.206  0.3265E+03  0.4026E+03
    -30.974  0.3082E+03  0.4742E+03
    -30.742  0.4232E+02  0.4840E+03
    -30.509  0.4943E-01  0.4840E+03
    -30.277  0.7193E-08  0.4840E+03
    -30.045  0.0000E+00  0.4840E+03
    -29.813  0.0000E+00  0.4840E+03
    -29.580  0.0000E+00  0.4840E+03
    -29.348  0.0000E+00  0.4840E+03
    -29.116  0.0000E+00  0.4840E+03
    -28.884  0.0000E+00  0.4840E+03
    -28.651  0.0000E+00  0.4840E+03
    -28.419  0.0000E+00  0.4840E+03
    -28.187  0.2370E-08  0.4840E+03
    -27.955  0.2067E-01  0.4840E+03
    -27.722  0.1120E+02  0.4866E+03
    -27.490  0.3517E+02  0.4948E+03
    -27.258  0.5281E+01  0.4960E+03
    -27.026  0.7194E-03  0.4960E+03
    -26.793  0.4470E-11  0.4960E+03
    -26.561  0.0000E+00  0.4960E+03
    -26.329  0.0000E+00  0.4960E+03
    -26.097  0.0000E+00  0.4960E+03
    -25.864  0.0000E+00  0.4960E+03
    -25.632  0.0000E+00  0.4960E+03
    -25.400  0.0000E+00  0.4960E+03
    -25.168  0.0000E+00  0.4960E+03
    -24.935  0.0000E+00  0.4960E+03
    -24.703  0.0000E+00  0.4960E+03
    -24.471  0.0000E+00  0.4960E+03
    -24.239  0.0000E+00  0.4960E+03
    -24.006  0.0000E+00  0.4960E+03
    -23.774  0.0000E+00  0.4960E+03
    -23.542  0.0000E+00  0.4960E+03
    -23.309  0.0000E+00  0.4960E+03
    -23.077  0.0000E+00  0.4960E+03
    -22.845  0.0000E+00  0.4960E+03
    -22.613  0.0000E+00  0.4960E+03
    -22.380  0.0000E+00  0.4960E+03
    -22.148  0.0000E+00  0.4960E+03
    -21.916  0.0000E+00  0.4960E+03
    -21.684  0.0000E+00  0.4960E+03
    -21.451  0.0000E+00  0.4960E+03
    -21.219  0.0000E+00  0.4960E+03
    -20.987  0.0000E+00  0.4960E+03
    -20.755  0.0000E+00  0.4960E+03
    -20.522  0.0000E+00  0.4960E+03
    -20.290  0.0000E+00  0.4960E+03
    -20.058  0.0000E+00  0.4960E+03
    -19.826  0.0000E+00  0.4960E+03
    -19.593  0.0000E+00  0.4960E+03
    -19.361  0.0000E+00  0.4960E+03
    -19.129  0.0000E+00  0.4960E+03
    -18.897  0.0000E+00  0.4960E+03
    -18.664  0.0000E+00  0.4960E+03
    -18.432  0.0000E+00  0.4960E+03
    -18.200  0.0000E+00  0.4960E+03
    -17.968  0.0000E+00  0.4960E+03
    -17.735  0.0000E+00  0.4960E+03
    -17.503  0.0000E+00  0.4960E+03
    -17.271  0.0000E+00  0.4960E+03
    -17.039  0.0000E+00  0.4960E+03
    -16.806  0.0000E+00  0.4960E+03
    -16.574  0.0000E+00  0.4960E+03
    -16.342  0.0000E+00  0.4960E+03
    -16.110  0.0000E+00  0.4960E+03
    -15.877  0.0000E+00  0.4960E+03
    -15.645  0.0000E+00  0.4960E+03
    -15.413  0.0000E+00  0.4960E+03
    -15.181  0.0000E+00  0.4960E+03
    -14.948  0.0000E+00  0.4960E+03
    -14.716  0.0000E+00  0.4960E+03
    -14.484  0.0000E+00  0.4960E+03
    -14.252  0.0000E+00  0.4960E+03
    -14.019  0.0000E+00  0.4960E+03
    -13.787  0.0000E+00  0.4960E+03
    -13.555  0.0000E+00  0.4960E+03
    -13.323  0.0000E+00  0.4960E+03
    -13.090  0.0000E+00  0.4960E+03
    -12.858  0.0000E+00  0.4960E+03
    -12.626  0.0000E+00  0.4960E+03
    -12.394  0.0000E+00  0.4960E+03
    -12.161  0.0000E+00  0.4960E+03
    -11.929  0.0000E+00  0.4960E+03
    -11.697  0.0000E+00  0.4960E+03
    -11.465  0.0000E+00  0.4960E+03
    -11.232  0.0000E+00  0.4960E+03
    -11.000  0.0000E+00  0.4960E+03
    -10.768  0.0000E+00  0.4960E+03
    -10.536  0.0000E+00  0.4960E+03
    -10.303  0.0000E+00  0.4960E+03
    -10.071  0.0000E+00  0.4960E+03
     -9.839  0.0000E+00  0.4960E+03
     -9.606  0.0000E+00  0.4960E+03
     -9.374  0.0000E+00  0.4960E+03
     -9.142  0.0000E+00  0.4960E+03
     -8.910  0.0000E+00  0.4960E+03
     -8.677  0.0000E+00  0.4960E+03
     -8.445  0.0000E+00  0.4960E+03
     -8.213  0.0000E+00  0.4960E+03
     -7.981  0.0000E+00  0.4960E+03
     -7.748  0.0000E+00  0.4960E+03
     -7.516  0.0000E+00  0.4960E+03
     -7.284  0.0000E+00  0.4960E+03
     -7.052  0.0000E+00  0.4960E+03
     -6.819  0.0000E+00  0.4960E+03
     -6.587  0.0000E+00  0.4960E+03
     -6.355  0.0000E+00  0.4960E+03
     -6.123  0.0000E+00  0.4960E+03
     -5.890  0.0000E+00  0.4960E+03
     -5.658  0.0000E+00  0.4960E+03
     -5.426  0.0000E+00  0.4960E+03
     -5.194  0.0000E+00  0.4960E+03
     -4.961  0.0000E+00  0.4960E+03
     -4.729  0.0000E+00  0.4960E+03
     -4.497  0.0000E+00  0.4960E+03
     -4.265  0.0000E+00  0.4960E+03
     -4.032  0.0000E+00  0.4960E+03
     -3.800  0.1192E-12  0.4960E+03
     -3.568  0.2041E-04  0.4960E+03
     -3.336  0.1424E+00  0.4960E+03
     -3.103  0.2123E+01  0.4965E+03
     -2.871  0.2585E+01  0.4971E+03
     -2.639  0.3363E+01  0.4979E+03
     -2.407  0.3127E+01  0.4986E+03
     -2.174  0.4094E+01  0.4996E+03
     -1.942  0.8961E+01  0.5017E+03
     -1.710  0.7905E+01  0.5035E+03
     -1.478  0.1431E+02  0.5068E+03
     -1.245  0.4559E+02  0.5174E+03
     -1.013  0.4737E+02  0.5284E+03
     -0.781  0.7589E+02  0.5460E+03
     -0.549  0.5545E+02  0.5589E+03
     -0.316  0.6969E+02  0.5751E+03
     -0.084  0.7786E+02  0.5932E+03
      0.148  0.7254E+02  0.6100E+03
      0.380  0.8370E+02  0.6295E+03
      0.613  0.1141E+03  0.6560E+03
      0.845  0.9815E+02  0.6788E+03
      1.077  0.8010E+02  0.6974E+03
      1.309  0.7440E+02  0.7147E+03
      1.542  0.8458E+02  0.7343E+03
      1.774  0.7958E+02  0.7528E+03
      2.006  0.8821E+02  0.7733E+03
      2.238  0.7880E+02  0.7916E+03
      2.471  0.6397E+02  0.8064E+03
      2.703  0.4879E+02  0.8178E+03
      2.935  0.6858E+02  0.8337E+03
      3.167  0.6920E+02  0.8498E+03
      3.400  0.6244E+02  0.8643E+03
      3.632  0.5555E+02  0.8772E+03
      3.864  0.5790E+02  0.8906E+03
      4.097  0.7086E+02  0.9071E+03
      4.329  0.6532E+02  0.9222E+03
      4.561  0.8199E+02  0.9413E+03
      4.793  0.1046E+03  0.9656E+03
      5.026  0.1064E+03  0.9903E+03
      5.258  0.1077E+03  0.1015E+04
      5.490  0.8500E+02  0.1035E+04
      5.722  0.1273E+02  0.1038E+04
      5.955  0.2147E-01  0.1038E+04
      6.187  0.2259E-07  0.1038E+04
      6.419  0.0000E+00  0.1038E+04
      6.651  0.0000E+00  0.1038E+04
      6.884  0.0000E+00  0.1038E+04
      7.116  0.0000E+00  0.1038E+04
      7.348  0.0000E+00  0.1038E+04
      7.580  0.0000E+00  0.1038E+04
      7.813  0.0000E+00  0.1038E+04
      8.045  0.0000E+00  0.1038E+04
      8.277  0.0000E+00  0.1038E+04
      8.509  0.0000E+00  0.1038E+04
      8.742  0.0000E+00  0.1038E+04
