       N       E                     dE             d eps       ncg     rms          rms(c)
DAV:   1     0.106516508364E+05    0.10652E+05   -0.55112E+05 12596   0.160E+03
DAV:   2    -0.138398811400E+03   -0.10790E+05   -0.10463E+05 11496   0.507E+02
DAV:   3    -0.660182392808E+03   -0.52178E+03   -0.48927E+03 14936   0.109E+02
DAV:   4    -0.695043468985E+03   -0.34861E+02   -0.33311E+02 14384   0.216E+01
DAV:   5    -0.698715296239E+03   -0.36718E+01   -0.35942E+01 20040   0.602E+00    0.101E+02
DAV:   6    -0.700938619901E+03   -0.22233E+01   -0.40873E+02 14072   0.285E+01    0.628E+01
DAV:   7    -0.733916038800E+03   -0.32977E+02   -0.88276E+02 13306   0.409E+01    0.535E+01
DAV:   8    -0.652514301895E+03    0.81402E+02   -0.19481E+02 13603   0.225E+01    0.254E+01
DAV:   9    -0.642356894102E+03    0.10157E+02   -0.33638E+01 13960   0.994E+00    0.145E+01
DAV:  10    -0.641914506173E+03    0.44239E+00   -0.58703E+00 15088   0.327E+00    0.119E+01
DAV:  11    -0.641631733921E+03    0.28277E+00   -0.10037E+00 13592   0.199E+00    0.107E+01
DAV:  12    -0.641347177225E+03    0.28456E+00   -0.10318E+00 14112   0.206E+00    0.940E+00
DAV:  13    -0.640653744985E+03    0.69343E+00   -0.43311E+00 13160   0.407E+00    0.616E+00
DAV:  14    -0.640172242544E+03    0.48150E+00   -0.16771E+00 14752   0.263E+00    0.383E+00
DAV:  15    -0.640119285689E+03    0.52957E-01   -0.45403E-01 13424   0.141E+00    0.323E+00
DAV:  16    -0.640006160094E+03    0.11313E+00   -0.32243E-01 14464   0.132E+00    0.219E+00
DAV:  17    -0.639941582694E+03    0.64577E-01   -0.13730E-01 13472   0.813E-01    0.127E+00
DAV:  18    -0.639897313996E+03    0.44269E-01   -0.63429E-02 13576   0.601E-01    0.823E-01
DAV:  19    -0.639870274848E+03    0.27039E-01   -0.39198E-02 13984   0.466E-01    0.750E-01
DAV:  20    -0.639790406799E+03    0.79868E-01   -0.42386E-02 13752   0.407E-01    0.683E-01
DAV:  21    -0.639729594642E+03    0.60812E-01   -0.38600E-02 13688   0.399E-01    0.687E-01
DAV:  22    -0.639675380687E+03    0.54214E-01   -0.42936E-02 13344   0.408E-01    0.786E-01
DAV:  23    -0.639626024059E+03    0.49357E-01   -0.27295E-02 13136   0.333E-01    0.559E-01
DAV:  24    -0.639588473243E+03    0.37551E-01   -0.19407E-02 13200   0.272E-01    0.392E-01
DAV:  25    -0.639566778509E+03    0.21695E-01   -0.23932E-02 12736   0.292E-01    0.405E-01
DAV:  26    -0.639570792441E+03   -0.40139E-02   -0.10800E-02 14248   0.233E-01    0.362E-01
DAV:  27    -0.639588444955E+03   -0.17653E-01   -0.92260E-03 12952   0.183E-01    0.325E-01
DAV:  28    -0.639605907755E+03   -0.17463E-01   -0.76044E-03 13656   0.165E-01    0.148E-01
DAV:  29    -0.639623885365E+03   -0.17978E-01   -0.67825E-03 13120   0.132E-01    0.122E-01
DAV:  30    -0.639635366418E+03   -0.11481E-01   -0.34925E-03 13872   0.104E-01    0.115E-01
DAV:  31    -0.639642424751E+03   -0.70583E-02   -0.17445E-03 13016   0.724E-02    0.110E-01
DAV:  32    -0.639647549664E+03   -0.51249E-02   -0.12835E-03 13344   0.597E-02    0.496E-02
DAV:  33    -0.639648900993E+03   -0.13513E-02   -0.30522E-04 13888   0.317E-02    0.309E-02
DAV:  34    -0.639650035405E+03   -0.11344E-02   -0.14837E-04 12536   0.197E-02    0.238E-02
DAV:  35    -0.639650950131E+03   -0.91473E-03   -0.11707E-04 11456   0.147E-02    0.142E-02
DAV:  36    -0.639651726395E+03   -0.77626E-03   -0.14189E-04 10800   0.113E-02    0.112E-02
DAV:  37    -0.639652150878E+03   -0.42448E-03   -0.80683E-05 11000   0.886E-03    0.748E-03
DAV:  38    -0.639652270728E+03   -0.11985E-03   -0.12544E-05  9832   0.423E-03    0.509E-03
DAV:  39    -0.639652326698E+03   -0.55970E-04   -0.41386E-06  8800   0.320E-03    0.389E-03
DAV:  40    -0.639652358944E+03   -0.32246E-04   -0.21589E-06  8136   0.245E-03    0.199E-03
DAV:  41    -0.639652385472E+03   -0.26528E-04   -0.23427E-06  8576   0.154E-03    0.138E-03
DAV:  42    -0.639652394457E+03   -0.89849E-05   -0.69845E-07  7944   0.108E-03    0.105E-03
DAV:  43    -0.639652401249E+03   -0.67922E-05   -0.65523E-07  7928   0.920E-04    0.838E-04
DAV:  44    -0.639652405176E+03   -0.39269E-05   -0.37771E-07  7656   0.841E-04    0.596E-04
DAV:  45    -0.639652408203E+03   -0.30272E-05   -0.46673E-07  7808   0.630E-04    0.525E-04
DAV:  46    -0.639652409939E+03   -0.17362E-05   -0.31416E-07  7600   0.587E-04    0.450E-04
DAV:  47    -0.639652411327E+03   -0.13881E-05   -0.24288E-07  7424   0.518E-04    0.342E-04
DAV:  48    -0.639652412401E+03   -0.10740E-05   -0.29806E-07  7528   0.531E-04    0.229E-04
DAV:  49    -0.639652412938E+03   -0.53672E-06   -0.10035E-07  6640   0.390E-04
   1 F= -.63965241E+03 E0= -.63952064E+03  d E =-.263554E+00
