 vasp.6.3.2 27Jun22 (build Mar 15 2023 15:45:48) complex                        
  
 executed on             LinuxIFC date 2025.09.05  17:06:12
 running on    4 total cores
 distrk:  each k-point on    1 cores,    4 groups
 distr:  one band on NCORE=   1 cores,    1 groups


--------------------------------------------------------------------------------------------------------


 INCAR:
   SYSTEM = ni3al
   PREC = Accurate
   EDIFF = 1E-6
   ISTART = 0
   ICHARG = 2
   LREAL = Auto
   NSW = 0
   ISIF = 2
   IBRION = -1
   ISMEAR = 0
   SIGMA = 0.1
   ENCUT = 530
   ALGO = Normal
   LMAXMIX = 4
   AMIN = 0.01
   NELM = 150
   LCHARG = .T.
   LWAVE = .T.
   NCORE = 8
   KPAR = 4

 POTCAR:    PAW_PBE Mo_sv 02Feb2006               
 POTCAR:    PAW_PBE Nb_sv 25May2007               
 POTCAR:    PAW_PBE Mo_sv 02Feb2006               
   VRHFIN =Mo: 4p5s4d                                                                               
   LEXCH  = PE                                                                                      
   EATOM  =  1862.2866 eV,  136.8742 Ry                                                             
                                                                                                    
   TITEL  = PAW_PBE Mo_sv 02Feb2006                                                                 
   LULTRA =        F    use ultrasoft PP ?                                                          
   IUNSCR =        1    unscreen: 0-lin 1-nonlin 2-no                                               
   RPACOR =    2.200    partial core radius                                                         
   POMASS =   95.940; ZVAL   =   14.000    mass and valenz                                          
   RCORE  =    2.500    outmost cutoff radius                                                       
   RWIGS  =    2.750; RWIGS  =    1.455    wigner-seitz radius (au A)                               
   ENMAX  =  242.676; ENMIN  =  182.007 eV                                                          
   ICORE  =        3    local potential                                                             
   LCOR   =        T    correct aug charges                                                         
   LPAW   =        T    paw PP                                                                      
   EAUG   =  446.014                                                                                
   DEXC   =    0.000                                                                                
   RMAX   =    2.563    core radius for proj-oper                                                   
   RAUG   =    1.300    factor for augmentation sphere                                              
   RDEP   =    2.641    radius for radial grids                                                     
   RDEPT  =    2.031    core radius for aug-charge                                                  
                                                                                                    
   Atomic configuration                                                                             
   11 entries                                                                                       
     n  l   j            E        occ.                                                              
     1  0  0.50    -19819.0341   2.0000                                                             
     2  0  0.50     -2799.0127   2.0000                                                             
     2  1  1.50     -2502.0276   6.0000                                                             
     3  0  0.50      -476.4449   2.0000                                                             
     3  1  1.50      -379.1496   6.0000                                                             
     3  2  2.50      -220.9367  10.0000                                                             
     4  0  0.50       -64.3378   2.0000                                                             
     5  0  0.50        -4.0862   1.0000                                                             
     4  1  1.50       -38.4773   6.0000                                                             
     4  2  2.50        -3.7535   5.0000                                                             
     4  3  2.50        -1.3606   0.0000                                                             
   Description                                                                                      
     l       E           TYP  RCUT    TYP  RCUT                                                     
     0    -64.3377829     23  2.100                                                                 
     0     -4.0861640     23  2.400                                                                 
     1    -38.4772993     23  2.100                                                                 
     1     13.6058260     23  2.100                                                                 
     2     -3.7534941     23  2.400                                                                 
     2     -5.1140767     23  2.400                                                                 
     3     -4.0817478     23  2.500                                                                 
  local pseudopotential read in
  partial core-charges read in
  partial kinetic energy density read in
  atomic valenz-charges read in
  non local Contribution for L=           0  read in
    real space projection operators read in
  non local Contribution for L=           0  read in
    real space projection operators read in
  non local Contribution for L=           1  read in
    real space projection operators read in
  non local Contribution for L=           1  read in
    real space projection operators read in
  non local Contribution for L=           2  read in
    real space projection operators read in
  non local Contribution for L=           2  read in
    real space projection operators read in
    PAW grid and wavefunctions read in
 
   number of l-projection  operators is LMAX  =           6
   number of lm-projection operators is LMMAX =          18
 
 POTCAR:    PAW_PBE Nb_sv 25May2007               
   VRHFIN =Nb: 4p5s4d                                                                               
   LEXCH  = PE                                                                                      
   EATOM  =  1555.1913 eV,  114.3033 Ry                                                             
                                                                                                    
   TITEL  = PAW_PBE Nb_sv 25May2007                                                                 
   LULTRA =        F    use ultrasoft PP ?                                                          
   IUNSCR =        1    unscreen: 0-lin 1-nonlin 2-no                                               
   RPACOR =    1.800    partial core radius                                                         
   POMASS =   92.910; ZVAL   =   13.000    mass and valenz                                          
   RCORE  =    2.400    outmost cutoff radius                                                       
   RWIGS  =    2.400; RWIGS  =    1.270    wigner-seitz radius (au A)                               
   ENMAX  =  293.235; ENMIN  =  219.927 eV                                                          
   ICORE  =        3    local potential                                                             
   LCOR   =        T    correct aug charges                                                         
   LPAW   =        T    paw PP                                                                      
   EAUG   =  455.659                                                                                
   DEXC   =    0.000                                                                                
   RMAX   =    2.456    core radius for proj-oper                                                   
   RAUG   =    1.300    factor for augmentation sphere                                              
   RDEP   =    2.451    radius for radial grids                                                     
   RDEPT  =    1.956    core radius for aug-charge                                                  
                                                                                                    
   Atomic configuration                                                                             
   11 entries                                                                                       
     n  l   j            E        occ.                                                              
     1  0  0.50    -18805.2457   2.0000                                                             
     2  0  0.50     -2630.2869   2.0000                                                             
     2  1  1.50     -2348.4046   6.0000                                                             
     3  0  0.50      -438.8757   2.0000                                                             
     3  1  1.50      -346.7588   6.0000                                                             
     3  2  2.50      -196.2560  10.0000                                                             
     4  0  0.50       -58.3859   2.0000                                                             
     5  0  0.50        -3.9816   1.0000                                                             
     4  1  1.50       -34.5141   6.0000                                                             
     4  2  2.50        -3.0408   4.0000                                                             
     4  3  2.50        -1.3606   0.0000                                                             
   Description                                                                                      
     l       E           TYP  RCUT    TYP  RCUT                                                     
     0    -58.3859094     23  2.200                                                                 
     0     -3.9816262     23  2.200                                                                 
     1    -34.5140738     23  2.200                                                                 
     1     13.6058260     23  2.200                                                                 
     2     -3.0408010     23  2.200                                                                 
     2     -0.1283038     23  2.200                                                                 
     3     -1.3605826     23  2.400                                                                 
  local pseudopotential read in
  partial core-charges read in
  partial kinetic energy density read in
  atomic valenz-charges read in
  non local Contribution for L=           0  read in
    real space projection operators read in
  non local Contribution for L=           0  read in
    real space projection operators read in
  non local Contribution for L=           1  read in
    real space projection operators read in
  non local Contribution for L=           1  read in
    real space projection operators read in
  non local Contribution for L=           2  read in
    real space projection operators read in
  non local Contribution for L=           2  read in
    real space projection operators read in
    PAW grid and wavefunctions read in
 
   number of l-projection  operators is LMAX  =           6
   number of lm-projection operators is LMMAX =          18
 
 Optimization of the real space projectors (new method)

 maximal supplied QI-value         = 15.12
 optimisation between [QCUT,QGAM] = [ 11.79, 23.58] = [ 38.94,155.75] Ry 
 Optimized for a Real-space Cutoff    1.61 Angstroem

   l    n(q)    QCUT    max X(q) W(low)/X(q) W(high)/X(q)  e(spline) 
   0     11    11.792     3.559    0.10E-05    0.43E-05    0.23E-06
   0     11    11.792    20.730    0.33E-04    0.49E-05    0.27E-06
   1     11    11.792     3.279    0.65E-06    0.22E-05    0.34E-07
   1     11    11.792     4.693    0.24E-04    0.16E-04    0.22E-06
   2     11    11.792    67.616    0.22E-03    0.34E-04    0.67E-06
   2     11    11.792    62.420    0.22E-03    0.34E-04    0.68E-06
 Optimization of the real space projectors (new method)

 maximal supplied QI-value         = 15.68
 optimisation between [QCUT,QGAM] = [ 11.76, 23.53] = [ 38.75,155.00] Ry 
 Optimized for a Real-space Cutoff    1.56 Angstroem

   l    n(q)    QCUT    max X(q) W(low)/X(q) W(high)/X(q)  e(spline) 
   0     11    11.764    10.201    0.21E-04    0.47E-05    0.98E-07
   0     11    11.764     8.174    0.32E-04    0.87E-05    0.18E-06
   1     11    11.764     3.488    0.33E-04    0.14E-04    0.98E-07
   1     11    11.764     4.917    0.16E-03    0.42E-04    0.41E-06
   2     10    11.764   153.744    0.11E-03    0.44E-03    0.13E-05
   2     10    11.764   126.342    0.11E-03    0.44E-03    0.13E-05
  PAW_PBE Mo_sv 02Feb2006               :
 energy of atom  1       EATOM=-1862.2866
 kinetic energy error for atom=    0.0067 (will be added to EATOM!!)
  PAW_PBE Nb_sv 25May2007               :
 energy of atom  2       EATOM=-1555.1913
 kinetic energy error for atom=    0.0056 (will be added to EATOM!!)
 
 
 POSCAR: Generated by VASPKIT code
  positions in direct lattice
  No initial velocities read in
 exchange correlation table for  LEXCH =        8
   RHO(1)=    0.500       N(1)  =     2000
   RHO(2)=  100.500       N(2)  =     4000

 VTST: version 4.2, (08/11/21)

 CHAIN: initializing optimizer
 
 OPT: Using VASP Dynamics algorithm
 CHAIN: Read ICHAIN            0
 
 POSCAR: Generated by VASPKIT code
  positions in direct lattice
  No initial velocities read in
 


--------------------------------------------------------------------------------------------------------


 ion  position               nearest neighbor table
   1  0.000  0.000  0.000-   3 2.74   9 2.74  18 2.74  23 2.74  10 3.17  16 3.17   7 3.17   4 3.17
                            24 3.17
   2  0.988  0.984  0.383-  59 2.53  55 2.66  47 2.70  43 2.81  17 2.82   8 2.90  42 3.05   5 3.28
                            60 3.32
   3  0.167  0.167  0.065-  12 2.74  32 2.74   4 2.74  10 2.74  30 2.74  26 2.74   1 2.74  24 2.74
                            11 3.17   6 3.17   9 3.17  18 3.17  25 3.17
   4  0.333  0.000  0.000-   3 2.74  18 2.74   6 2.74  20 2.74   1 3.17  19 3.17  12 3.17   7 3.17
                            26 3.17
   5  0.333  0.003  0.380-  43 2.59  45 2.60  55 2.62  57 2.64  44 2.97   2 3.28   8 3.33
   6  0.500  0.167  0.065-  12 2.74  14 2.74  32 2.74  34 2.74   4 2.74   7 2.74  26 2.74  28 2.74
                            13 3.17   9 3.17   3 3.17  20 3.17  27 3.17
   7  0.667  0.000  0.000-   9 2.74  23 2.74  20 2.74   6 2.74   1 3.17  21 3.17  14 3.17   4 3.17
                            28 3.17
   8  0.684  0.005  0.382-  47 2.54  59 2.60  45 2.72  57 2.77   2 2.90  46 3.02  22 3.20  61 3.21
                             5 3.33
   9  0.833  0.167  0.065-  14 2.74  34 2.74   7 2.74  10 2.74  30 2.74  28 2.74   1 2.74  24 2.74
                             6 3.17  15 3.17   3 3.17  23 3.17  29 3.17
  10  0.000  0.333  0.000-   3 2.74   9 2.74  11 2.74  15 2.74  12 3.17  14 3.17   1 3.17  16 3.17
                            30 3.17
  11  0.167  0.500  0.065-  12 2.74  19 2.74  32 2.74  38 2.74  16 2.74  10 2.74  36 2.74  30 2.74
                            18 3.17  13 3.17   3 3.17  15 3.17  31 3.17
  12  0.333  0.333  0.000-   3 2.74   6 2.74  11 2.74  13 2.74   4 3.17  10 3.17  14 3.17  19 3.17
                            32 3.17
  13  0.500  0.500  0.065-  12 2.74  14 2.74  19 2.74  21 2.74  32 2.74  34 2.74  38 2.74  40 2.74
                            15 3.17   6 3.17  20 3.17  11 3.17  33 3.17
  14  0.667  0.333  0.000-   9 2.74   6 2.74  15 2.74  13 2.74   7 3.17  10 3.17  12 3.17  21 3.17
                            34 3.17
  15  0.833  0.500  0.065-  14 2.74  21 2.74  34 2.74  40 2.74  16 2.74  10 2.74  36 2.74  30 2.74
                             9 3.17  23 3.17  13 3.17  11 3.17  35 3.17
  16  0.000  0.667  0.000-  18 2.74  23 2.74  11 2.74  15 2.74  19 3.17  21 3.17   1 3.17  10 3.17
                            36 3.17
  17  0.001  0.687  0.382-  55 2.55  59 2.58  53 2.77  49 2.77   2 2.82  54 3.03  22 3.11  62 3.26
                            60 3.36
  18  0.167  0.833  0.065-  19 2.74  38 2.74   4 2.74  16 2.74  36 2.74  26 2.74   1 2.74  24 2.74
                            11 3.17  20 3.17   3 3.17  23 3.17  37 3.17
  19  0.333  0.667  0.000-  18 2.74  11 2.74  20 2.74  13 2.74   4 3.17  16 3.17  12 3.17  21 3.17
                            38 3.17
  20  0.500  0.833  0.065-  19 2.74  21 2.74  38 2.74  40 2.74   4 2.74   7 2.74  26 2.74  28 2.74
                            18 3.17  23 3.17  13 3.17   6 3.17  39 3.17
  21  0.667  0.667  0.000-  23 2.74  20 2.74  15 2.74  13 2.74   7 3.17  16 3.17  14 3.17  19 3.17
                            40 3.17
  22  0.674  0.669  0.383-  53 2.63  59 2.64  57 2.68  51 2.78  58 3.05  17 3.11  61 3.12  62 3.16
                             8 3.20
  23  0.833  0.833  0.065-  21 2.74  40 2.74   7 2.74  16 2.74  36 2.74  28 2.74   1 2.74  24 2.74
                            20 3.17  15 3.17   9 3.17  18 3.17  41 3.17
  24  0.000  0.000  0.129-  25 2.74  29 2.74  37 2.74  41 2.74   3 2.74   9 2.74  18 2.74  23 2.74
                            30 3.17  36 3.17  28 3.17  26 3.17  42 3.17   1 3.17
  25  0.167  0.167  0.194-  32 2.74  30 2.74  26 2.74  24 2.74  50 2.74  48 2.74  44 2.74  42 2.74
                            31 3.17  27 3.17  29 3.17  37 3.17   3 3.17  43 3.21
  26  0.333  0.000  0.129-  25 2.74  37 2.74  27 2.74  39 2.74   3 2.74  18 2.74   6 2.74  20 2.74
                            24 3.17  38 3.17  32 3.17  28 3.17  44 3.17   4 3.17
  27  0.500  0.167  0.194-  32 2.74  34 2.74  26 2.74  28 2.74  50 2.74  52 2.74  44 2.74  46 2.74
                            33 3.17  29 3.17  25 3.17  39 3.17   6 3.17  45 3.18
  28  0.667  0.000  0.129-  29 2.74  41 2.74  39 2.74  27 2.74   9 2.74  23 2.74  20 2.74   6 2.74
                            24 3.17  40 3.17  34 3.17  26 3.17  46 3.17   7 3.17
  29  0.833  0.167  0.194-  34 2.74  30 2.74  28 2.74  24 2.74  52 2.74  48 2.74  46 2.74  42 2.74
                            27 3.17  35 3.17  25 3.17  41 3.17   9 3.17  47 3.19
  30  0.000  0.333  0.129-  25 2.74  29 2.74  31 2.74  35 2.74   3 2.74   9 2.74  11 2.74  15 2.74
                            32 3.17  34 3.17  24 3.17  36 3.17  48 3.17  10 3.17
  31  0.167  0.500  0.194-  32 2.74  38 2.74  36 2.74  30 2.74  50 2.74  56 2.74  54 2.74  48 2.74
                            37 3.17  33 3.17  25 3.17  35 3.17  11 3.17  49 3.18
  32  0.333  0.333  0.129-  25 2.74  27 2.74  31 2.74  33 2.74   3 2.74   6 2.74  11 2.74  13 2.74
                            26 3.17  30 3.17  34 3.17  38 3.17  50 3.17  12 3.17
  33  0.500  0.500  0.194-  32 2.74  34 2.74  38 2.74  40 2.74  50 2.74  52 2.74  56 2.74  58 2.74
                            51 3.09  27 3.17  39 3.17  31 3.17  35 3.17  13 3.17
  34  0.667  0.333  0.129-  29 2.74  27 2.74  35 2.74  33 2.74   9 2.74   6 2.74  15 2.74  13 2.74
                            28 3.17  30 3.17  32 3.17  40 3.17  52 3.17  14 3.17
  35  0.833  0.500  0.194-  34 2.74  40 2.74  36 2.74  30 2.74  52 2.74  58 2.74  54 2.74  48 2.74
                            29 3.17  41 3.17  33 3.17  31 3.17  15 3.17  53 3.21
  36  0.000  0.667  0.129-  37 2.74  41 2.74  31 2.74  35 2.74  18 2.74  23 2.74  11 2.74  15 2.74
                            38 3.17  40 3.17  24 3.17  30 3.17  54 3.17  16 3.17
  37  0.167  0.833  0.194-  38 2.74  36 2.74  26 2.74  24 2.74  56 2.74  54 2.74  44 2.74  42 2.74
                            31 3.17  39 3.17  25 3.17  41 3.17  18 3.17  55 3.18
  38  0.333  0.667  0.129-  37 2.74  39 2.74  31 2.74  33 2.74  18 2.74  11 2.74  20 2.74  13 2.74
                            26 3.17  36 3.17  32 3.17  40 3.17  56 3.17  19 3.17
  39  0.500  0.833  0.194-  38 2.74  40 2.74  26 2.74  28 2.74  56 2.74  58 2.74  44 2.74  46 2.74
                            37 3.17  41 3.17  33 3.17  27 3.17  20 3.17  57 3.21
  40  0.667  0.667  0.129-  41 2.74  39 2.74  35 2.74  33 2.74  23 2.74  20 2.74  15 2.74  13 2.74
                            28 3.17  36 3.17  34 3.17  38 3.17  58 3.17  21 3.17
  41  0.833  0.833  0.194-  40 2.74  36 2.74  28 2.74  24 2.74  58 2.74  54 2.74  46 2.74  42 2.74
                            59 3.14  35 3.17  39 3.17  37 3.17  29 3.17  23 3.17
  42  0.000  0.000  0.259-  59 2.72  29 2.74  37 2.74  41 2.74  25 2.74  55 2.76  43 2.76  47 2.77
                             2 3.05  48 3.17  54 3.17  46 3.17  44 3.17  24 3.17
  43  0.166  0.167  0.325-  60 2.59   5 2.59  48 2.76  42 2.76  50 2.77  44 2.77   2 2.81  47 3.16
                            49 3.16  55 3.16  45 3.16  25 3.21
  44  0.333  0.000  0.259-  55 2.73  45 2.74  25 2.74  37 2.74  27 2.74  39 2.74  43 2.77  57 2.77
                             5 2.97  42 3.17  56 3.17  50 3.17  46 3.17  26 3.17
  45  0.499  0.166  0.324-   5 2.60  61 2.67   8 2.72  44 2.74  46 2.75  50 2.75  52 2.76  43 3.16
                            57 3.16  51 3.17  47 3.18  27 3.18
  46  0.667  0.000  0.259-  59 2.72  41 2.74  29 2.74  27 2.74  39 2.74  45 2.75  57 2.77  47 2.77
                             8 3.02  42 3.17  58 3.17  52 3.17  44 3.17  28 3.17
  47  0.834  0.169  0.324-   8 2.54  60 2.63   2 2.70  48 2.74  52 2.75  42 2.77  46 2.77  61 2.84
                            53 3.14  43 3.16  45 3.18  59 3.18  29 3.19
  48  0.000  0.333  0.259-  47 2.74  49 2.74  25 2.74  29 2.74  31 2.74  35 2.74  43 2.76  53 2.77
                            60 2.97  52 3.17  42 3.17  50 3.17  54 3.17  30 3.17
  49  0.166  0.499  0.324-  60 2.59  62 2.69  48 2.74  54 2.75  50 2.75  56 2.76  17 2.77  43 3.16
                            53 3.16  51 3.17  31 3.18  55 3.18
  50  0.333  0.333  0.259-  51 2.69  25 2.74  31 2.74  27 2.74  33 2.74  49 2.75  45 2.75  43 2.77
                            44 3.17  48 3.17  52 3.17  56 3.17  32 3.17
  51  0.499  0.499  0.320-  61 2.63  62 2.63  50 2.69  56 2.70  52 2.70  58 2.71  22 2.78  33 3.09
                            49 3.17  57 3.17  45 3.17  53 3.17
  52  0.667  0.333  0.259-  51 2.70  29 2.74  35 2.74  27 2.74  33 2.74  47 2.75  45 2.76  53 2.76
                            61 3.13  48 3.17  46 3.17  58 3.17  50 3.17  34 3.17
  53  0.833  0.500  0.325-  22 2.63  60 2.64  61 2.76  58 2.76  52 2.76  54 2.77  48 2.77  17 2.77
                            47 3.14  49 3.16  51 3.17  59 3.17  35 3.21
  54  0.000  0.667  0.259-  59 2.73  41 2.74  37 2.74  35 2.74  31 2.74  49 2.75  53 2.77  55 2.77
                            17 3.03  56 3.17  58 3.17  42 3.17  48 3.17  36 3.17
  55  0.169  0.834  0.324-  17 2.55   5 2.62   2 2.66  44 2.73  56 2.74  42 2.76  54 2.77  62 2.84
                            57 3.15  43 3.16  49 3.18  37 3.18  59 3.19
  56  0.333  0.667  0.259-  51 2.70  37 2.74  39 2.74  31 2.74  33 2.74  55 2.74  49 2.76  57 2.76
                            62 3.14  54 3.17  44 3.17  58 3.17  50 3.17  38 3.17
  57  0.500  0.833  0.325-   5 2.64  22 2.68  62 2.74  58 2.76  56 2.76   8 2.77  46 2.77  44 2.77
                            55 3.15  59 3.16  45 3.16  51 3.17  39 3.21
  58  0.667  0.667  0.259-  51 2.71  59 2.73  41 2.74  39 2.74  35 2.74  33 2.74  57 2.76  53 2.76
                            22 3.05  46 3.17  54 3.17  52 3.17  56 3.17  40 3.17
  59  0.833  0.834  0.322-   2 2.53  17 2.58   8 2.60  22 2.64  46 2.72  42 2.72  58 2.73  54 2.73
                            41 3.14  57 3.16  53 3.17  47 3.18  55 3.19
  60  0.005  0.334  0.380-  43 2.59  49 2.59  47 2.63  53 2.64  48 2.97   2 3.32  17 3.36
  61  0.649  0.341  0.386-  51 2.63  45 2.67  53 2.76  47 2.84  22 3.12  52 3.13   8 3.21
  62  0.342  0.650  0.386-  51 2.63  49 2.69  57 2.74  55 2.84  56 3.14  22 3.16  17 3.26
 
  LATTYP: Found a simple tetragonal cell.
 ALAT       =     9.4983997345
 C/A-ratio  =     2.5796870899
  
  Lattice vectors:
  
 A1 = (   9.4983997345,   0.0000000000,   0.0000000000)
 A2 = (   0.0000000000,   9.4983997345,   0.0000000000)
 A3 = (   0.0000000000,   0.0000000000,  24.5028991699)


Analysis of symmetry for initial positions (statically):
=====================================================================
 Subroutine PRICEL returns:
 Original cell was already a primitive cell.
 

 Routine SETGRP: Setting up the symmetry group for a 
 simple tetragonal supercell.


 Subroutine GETGRP returns: Found  1 space group operations
 (whereof  1 operations were pure point group operations)
 out of a pool of 16 trial point group operations.


The static configuration has the point symmetry C_1 .


Analysis of symmetry for dynamics (positions and initial velocities):
=====================================================================
 Subroutine PRICEL returns:
 Original cell was already a primitive cell.
 

 Routine SETGRP: Setting up the symmetry group for a 
 simple tetragonal supercell.


 Subroutine GETGRP returns: Found  1 space group operations
 (whereof  1 operations were pure point group operations)
 out of a pool of 16 trial point group operations.


The dynamic configuration has the point symmetry C_1 .


Analysis of constrained symmetry for selective dynamics:
=====================================================================
 Subroutine PRICEL returns:
 Original cell was already a primitive cell.
 

 Routine SETGRP: Setting up the symmetry group for a 
 simple tetragonal supercell.


 Subroutine GETGRP returns: Found  1 space group operations
 (whereof  1 operations were pure point group operations)
 out of a pool of 16 trial point group operations.


The constrained configuration has the point symmetry C_1 .


 Subroutine INISYM returns: Found  1 space group operations
 (whereof  1 operations are pure point group operations),
 and found     1 'primitive' translations


----------------------------------------------------------------------------------------

                                     Primitive cell                                     

  volume of cell :    2210.6417

  direct lattice vectors                    reciprocal lattice vectors
     9.498399734  0.000000000  0.000000000     0.105280892  0.000000000  0.000000000
     0.000000000  9.498399734  0.000000000     0.000000000  0.105280892  0.000000000
     0.000000000  0.000000000 24.502899170     0.000000000  0.000000000  0.040811497

  length of vectors
     9.498399734  9.498399734 24.502899170     0.105280892  0.105280892  0.040811497

  position of ions in fractional coordinates (direct lattice)
     0.000000000  0.000000000  0.000000000
     0.987763339  0.984267976  0.382826740
     0.166670000  0.166670000  0.064640000
     0.333330000  0.000000000  0.000000000
     0.332674716  0.003035991  0.379582589
     0.500000000  0.166670000  0.064640000
     0.666670000  0.000000000  0.000000000
     0.683638475  0.005301595  0.381506785
     0.833330000  0.166670000  0.064640000
     0.000000000  0.333330000  0.000000000
     0.166670000  0.500000000  0.064640000
     0.333330000  0.333330000  0.000000000
     0.500000000  0.500000000  0.064640000
     0.666670000  0.333330000  0.000000000
     0.833330000  0.500000000  0.064640000
     0.000000000  0.666670000  0.000000000
     0.000763577  0.687217918  0.381877493
     0.166670000  0.833330000  0.064640000
     0.333330000  0.666670000  0.000000000
     0.500000000  0.833330000  0.064640000
     0.666670000  0.666670000  0.000000000
     0.673725745  0.668955500  0.383154811
     0.833330000  0.833330000  0.064640000
     0.000000000  0.000000000  0.129280000
     0.166670000  0.166670000  0.193910000
     0.333330000  0.000000000  0.129280000
     0.500000000  0.166670000  0.193910000
     0.666670000  0.000000000  0.129280000
     0.833330000  0.166670000  0.193910000
     0.000000000  0.333330000  0.129280000
     0.166670000  0.500000000  0.193910000
     0.333330000  0.333330000  0.129280000
     0.500000000  0.500000000  0.193910000
     0.666670000  0.333330000  0.129280000
     0.833330000  0.500000000  0.193910000
     0.000000000  0.666670000  0.129280000
     0.166670000  0.833330000  0.193910000
     0.333330000  0.666670000  0.129280000
     0.500000000  0.833330000  0.193910000
     0.666670000  0.666670000  0.129280000
     0.833330000  0.833330000  0.193910000
     0.000000000  0.000000000  0.258550000
     0.166439616  0.166724797  0.324733932
     0.333330000  0.000000000  0.258550000
     0.499289725  0.165687797  0.323719932
     0.666670000  0.000000000  0.258550000
     0.834038382  0.169039715  0.324146268
     0.000000000  0.333330000  0.258550000
     0.165906224  0.499342860  0.323643850
     0.333330000  0.333330000  0.258550000
     0.499145951  0.499289097  0.320176260
     0.666670000  0.333330000  0.258550000
     0.832840617  0.500022955  0.324749743
     0.000000000  0.666670000  0.258550000
     0.169051079  0.834107878  0.323835350
     0.333330000  0.666670000  0.258550000
     0.500194830  0.832752303  0.324759788
     0.666670000  0.666670000  0.258550000
     0.832934522  0.834054225  0.322011600
     0.004525954  0.333640154  0.379546534
     0.648940311  0.341192140  0.386249406
     0.341931675  0.650466062  0.386296416

  ion indices of the primitive-cell ions
   primitive index   ion index
                 1           1
                 2           2
                 3           3
                 4           4
                 5           5
                 6           6
                 7           7
                 8           8
                 9           9
                10          10
                11          11
                12          12
                13          13
                14          14
                15          15
                16          16
                17          17
                18          18
                19          19
                20          20
                21          21
                22          22
                23          23
                24          24
                25          25
                26          26
                27          27
                28          28
                29          29
                30          30
                31          31
                32          32
                33          33
                34          34
                35          35
                36          36
                37          37
                38          38
                39          39
                40          40
                41          41
                42          42
                43          43
                44          44
                45          45
                46          46
                47          47
                48          48
                49          49
                50          50
                51          51
                52          52
                53          53
                54          54
                55          55
                56          56
                57          57
                58          58
                59          59
                60          60
                61          61
                62          62

----------------------------------------------------------------------------------------

 
 
 KPOINTS: K-Spacing Value to Generate K-Mesh: 0.03

Automatic generation of k-mesh.
 Grid dimensions read from file:
 generate k-points for:    4    4    1

 Generating k-lattice:

  Cartesian coordinates                     Fractional coordinates (reciprocal lattice)
     0.026320223  0.000000000  0.000000000     0.250000000  0.000000000  0.000000000
     0.000000000  0.026320223  0.000000000     0.000000000  0.250000000  0.000000000
     0.000000000  0.000000000  0.040811497     0.000000000  0.000000000  1.000000000

  Length of vectors
     0.026320223  0.026320223  0.040811497

  Shift w.r.t. Gamma in fractional coordinates (k-lattice)
     0.000000000  0.000000000  0.000000000

 
 Subroutine IBZKPT returns following result:
 ===========================================
 
 Found     10 irreducible k-points:
 
 Following reciprocal coordinates:
            Coordinates               Weight
  0.000000  0.000000  0.000000      1.000000
  0.250000  0.000000  0.000000      2.000000
  0.000000  0.250000  0.000000      2.000000
  0.500000  0.000000  0.000000      1.000000
  0.000000  0.500000  0.000000      1.000000
  0.250000  0.250000  0.000000      2.000000
 -0.250000  0.250000  0.000000      2.000000
  0.500000  0.250000  0.000000      2.000000
 -0.250000  0.500000  0.000000      2.000000
  0.500000  0.500000  0.000000      1.000000
 
 Following cartesian coordinates:
            Coordinates               Weight
  0.000000  0.000000  0.000000      1.000000
  0.026320  0.000000  0.000000      2.000000
  0.000000  0.026320  0.000000      2.000000
  0.052640  0.000000  0.000000      1.000000
  0.000000  0.052640  0.000000      1.000000
  0.026320  0.026320  0.000000      2.000000
 -0.026320  0.026320  0.000000      2.000000
  0.052640  0.026320  0.000000      2.000000
 -0.026320  0.052640  0.000000      2.000000
  0.052640  0.052640  0.000000      1.000000
 


--------------------------------------------------------------------------------------------------------




 Dimension of arrays:
   k-points           NKPTS =     10   k-points in BZ     NKDIM =     10   number of bands    NBANDS=    519
   number of dos      NEDOS =    301   number of ions     NIONS =     62
   non local maximal  LDIM  =      6   non local SUM 2l+1 LMDIM =     18
   total plane-waves  NPLWV = 995328
   max r-space proj   IRMAX =   7947   max aug-charges    IRDMAX=  19887
   dimension x,y,z NGX =    72 NGY =   72 NGZ =  192
   dimension x,y,z NGXF=   144 NGYF=  144 NGZF=  384
   support grid    NGXF=   144 NGYF=  144 NGZF=  384
   ions per type =              60   2
   NGX,Y,Z   is equivalent  to a cutoff of  12.60, 12.60, 13.03 a.u.
   NGXF,Y,Z  is equivalent  to a cutoff of  25.20, 25.20, 26.05 a.u.

 SYSTEM =  ni3al                                   
 POSCAR =  Generated by VASPKIT code               

 Startparameter for this run:
   NWRITE =      2    write-flag & timer
   PREC   = accura    normal or accurate (medium, high low for compatibility)
   ISTART =      0    job   : 0-new  1-cont  2-samecut
   ICHARG =      2    charge: 1-file 2-atom 10-const
   ISPIN  =      1    spin polarized calculation?
   LNONCOLLINEAR =      F non collinear calculations
   LSORBIT =      F    spin-orbit coupling
   INIWAV =      1    electr: 0-lowe 1-rand  2-diag
   LASPH  =      F    aspherical Exc in radial PAW
 Electronic Relaxation 1
   ENCUT  =  530.0 eV  38.95 Ry    6.24 a.u.  17.83 17.83 46.00*2*pi/ulx,y,z
   ENINI  =  530.0     initial cutoff
   ENAUG  =  455.7 eV  augmentation charge cutoff
   NELM   =    150;   NELMIN=  2; NELMDL= -5     # of ELM steps 
   EDIFF  = 0.1E-05   stopping-criterion for ELM
   LREAL  =      T    real-space projection
   NLSPLINE    = F    spline interpolate recip. space projectors
   LCOMPAT=      F    compatible to vasp.4.4
   GGA_COMPAT  = T    GGA compatible to vasp.4.4-vasp.4.6
   LMAXPAW     = -100 max onsite density
   LMAXMIX     =    4 max onsite mixed and CHGCAR
   VOSKOWN=      0    Vosko Wilk Nusair interpolation
   ROPT   =   -0.00025  -0.00025
 Ionic relaxation
   EDIFFG = 0.1E-04   stopping-criterion for IOM
   NSW    =      0    number of steps for IOM
   NBLOCK =      1;   KBLOCK =      1    inner block; outer block 
   IBRION =     -1    ionic relax: 0-MD 1-quasi-New 2-CG
   NFREE  =      0    steps in history (QN), initial steepest desc. (CG)
   ISIF   =      2    stress and relaxation
   IWAVPR =     10    prediction:  0-non 1-charg 2-wave 3-comb
   ISYM   =      2    0-nonsym 1-usesym 2-fastsym
   LCORR  =      T    Harris-Foulkes like correction to forces

   POTIM  = 0.5000    time-step for ionic-motion
   TEIN   =    0.0    initial temperature
   TEBEG  =    0.0;   TEEND  =   0.0 temperature during run
   SMASS  =  -3.00    Nose mass-parameter (am)
   estimated Nose-frequenzy (Omega)   =  0.10E-29 period in steps = 0.13E+47 mass=  -0.206E-26a.u.
   SCALEE = 1.0000    scale energy and forces
   NPACO  =    256;   APACO  = 10.0  distance and # of slots for P.C.
   PSTRESS=    0.0 pullay stress

  Mass of Ions in am
   POMASS =  95.94 92.91
  Ionic Valenz
   ZVAL   =  14.00 13.00
  Atomic Wigner-Seitz radii
   RWIGS  =  -1.00 -1.00
  virtual crystal weights 
   VCA    =   1.00  1.00
   NELECT =     866.0000    total number of electrons
   NUPDOWN=      -1.0000    fix difference up-down

 DOS related values:
   EMIN   =  10.00;   EMAX   =-10.00  energy-range for DOS
   EFERMI =   0.00
   ISMEAR =     0;   SIGMA  =   0.10  broadening in eV -4-tet -1-fermi 0-gaus

 Electronic relaxation 2 (details)
   IALGO  =     38    algorithm
   LDIAG  =      T    sub-space diagonalisation (order eigenvalues)
   LSUBROT=      F    optimize rotation matrix (better conditioning)
   TURBO    =      0    0=normal 1=particle mesh
   IRESTART =      0    0=no restart 2=restart with 2 vectors
   NREBOOT  =      0    no. of reboots
   NMIN     =      0    reboot dimension
   EREF     =   0.00    reference energy to select bands
   IMIX   =      4    mixing-type and parameters
     AMIX     =   0.40;   BMIX     =  1.00
     AMIX_MAG =   1.60;   BMIX_MAG =  1.00
     AMIN     =   0.01
     WC   =   100.;   INIMIX=   1;  MIXPRE=   1;  MAXMIX= -45

 Intra band minimization:
   WEIMIN = 0.0000     energy-eigenvalue tresh-hold
   EBREAK =  0.48E-09  absolut break condition
   DEPER  =   0.30     relativ break condition  

   TIME   =   0.40     timestep for ELM

  volume/ion in A,a.u.               =      35.66       240.62
  Fermi-wavevector in a.u.,A,eV,Ry     =   1.197865  2.263637 19.522747  1.434881
  Thomas-Fermi vector in A             =   2.333769
 
 Write flags
   LWAVE        =      T    write WAVECAR
   LDOWNSAMPLE  =      F    k-point downsampling of WAVECAR
   LCHARG       =      T    write CHGCAR
   LVTOT        =      F    write LOCPOT, total local potential
   LVHAR        =      F    write LOCPOT, Hartree potential only
   LELF         =      F    write electronic localiz. function (ELF)
   LORBIT       =      0    0 simple, 1 ext, 2 COOP (PROOUT), +10 PAW based schemes


 Dipole corrections
   LMONO  =      F    monopole corrections only (constant potential shift)
   LDIPOL =      F    correct potential (dipole corrections)
   IDIPOL =      0    1-x, 2-y, 3-z, 4-all directions 
   EPSILON=  1.0000000 bulk dielectric constant

 Exchange correlation treatment:
   GGA     =    --    GGA type
   LEXCH   =     8    internal setting for exchange type
   LIBXC   =     F    Libxc                    
   VOSKOWN =     0    Vosko Wilk Nusair interpolation
   LHFCALC =     F    Hartree Fock is set to
   LHFONE  =     F    Hartree Fock one center treatment
   AEXX    =    0.0000 exact exchange contribution

 Linear response parameters
   LEPSILON=     F    determine dielectric tensor
   LRPA    =     F    only Hartree local field effects (RPA)
   LNABLA  =     F    use nabla operator in PAW spheres
   LVEL    =     F    velocity operator in full k-point grid
   CSHIFT  =0.1000    complex shift for real part using Kramers Kronig
   OMEGAMAX=  -1.0    maximum frequency
   DEG_THRESHOLD= 0.2000000E-02 threshold for treating states as degnerate
   RTIME   =   -0.100 relaxation time in fs
  (WPLASMAI=    0.000 imaginary part of plasma frequency in eV, 0.658/RTIME)
   DFIELD  = 0.0000000 0.0000000 0.0000000 field for delta impulse in time
 
  Optional k-point grid parameters
   LKPOINTS_OPT  =     F    use optional k-point grid
   KPOINTS_OPT_MODE=     1    mode for optional k-point grid
 
 Orbital magnetization related:
   ORBITALMAG=     F  switch on orbital magnetization
   LCHIMAG   =     F  perturbation theory with respect to B field
   DQ        =  0.001000  dq finite difference perturbation B field
   LLRAUG    =     F  two centre corrections for induced B field



--------------------------------------------------------------------------------------------------------


 Static calculation
 charge density and potential will be updated during run
 non-spin polarized calculation
 Variant of blocked Davidson
 Davidson routine will perform the subspace rotation
 perform sub-space diagonalisation
    after iterative eigenvector-optimisation
 modified Broyden-mixing scheme, WC =      100.0
 initial mixing is a Kerker type mixing with AMIX =  0.4000 and BMIX =      1.0000
 Hartree-type preconditioning will be used
 using additional bands           86
 real space projection scheme for non local part
 use partial core corrections
 calculate Harris-corrections to forces 
   (improved forces if not selfconsistent)
 use gradient corrections 
 use of overlap-Matrix (Vanderbilt PP)
 Gauss-broadening in eV      SIGMA  =   0.10


--------------------------------------------------------------------------------------------------------


  energy-cutoff  :      530.00
  volume of cell :     2210.64
      direct lattice vectors                 reciprocal lattice vectors
     9.498399734  0.000000000  0.000000000     0.105280892  0.000000000  0.000000000
     0.000000000  9.498399734  0.000000000     0.000000000  0.105280892  0.000000000
     0.000000000  0.000000000 24.502899170     0.000000000  0.000000000  0.040811497

  length of vectors
     9.498399734  9.498399734 24.502899170     0.105280892  0.105280892  0.040811497


 
 k-points in units of 2pi/SCALE and weight: K-Spacing Value to Generate K-Mesh: 0.03
   0.00000000  0.00000000  0.00000000       0.062
   0.02632022  0.00000000  0.00000000       0.125
   0.00000000  0.02632022  0.00000000       0.125
   0.05264045  0.00000000  0.00000000       0.062
   0.00000000  0.05264045  0.00000000       0.062
   0.02632022  0.02632022  0.00000000       0.125
  -0.02632022  0.02632022  0.00000000       0.125
   0.05264045  0.02632022  0.00000000       0.125
  -0.02632022  0.05264045  0.00000000       0.125
   0.05264045  0.05264045  0.00000000       0.062
 
 k-points in reciprocal lattice and weights: K-Spacing Value to Generate K-Mesh: 0.03
   0.00000000  0.00000000  0.00000000       0.062
   0.25000000  0.00000000  0.00000000       0.125
   0.00000000  0.25000000  0.00000000       0.125
   0.50000000  0.00000000  0.00000000       0.062
   0.00000000  0.50000000  0.00000000       0.062
   0.25000000  0.25000000  0.00000000       0.125
  -0.25000000  0.25000000  0.00000000       0.125
   0.50000000  0.25000000  0.00000000       0.125
  -0.25000000  0.50000000  0.00000000       0.125
   0.50000000  0.50000000  0.00000000       0.062
 
 position of ions in fractional coordinates (direct lattice) 
   0.00000000  0.00000000  0.00000000
   0.98776334  0.98426798  0.38282674
   0.16667000  0.16667000  0.06464000
   0.33333000  0.00000000  0.00000000
   0.33267472  0.00303599  0.37958259
   0.50000000  0.16667000  0.06464000
   0.66667000  0.00000000  0.00000000
   0.68363848  0.00530160  0.38150678
   0.83333000  0.16667000  0.06464000
   0.00000000  0.33333000  0.00000000
   0.16667000  0.50000000  0.06464000
   0.33333000  0.33333000  0.00000000
   0.50000000  0.50000000  0.06464000
   0.66667000  0.33333000  0.00000000
   0.83333000  0.50000000  0.06464000
   0.00000000  0.66667000  0.00000000
   0.00076358  0.68721792  0.38187749
   0.16667000  0.83333000  0.06464000
   0.33333000  0.66667000  0.00000000
   0.50000000  0.83333000  0.06464000
   0.66667000  0.66667000  0.00000000
   0.67372575  0.66895550  0.38315481
   0.83333000  0.83333000  0.06464000
   0.00000000  0.00000000  0.12928000
   0.16667000  0.16667000  0.19391000
   0.33333000  0.00000000  0.12928000
   0.50000000  0.16667000  0.19391000
   0.66667000  0.00000000  0.12928000
   0.83333000  0.16667000  0.19391000
   0.00000000  0.33333000  0.12928000
   0.16667000  0.50000000  0.19391000
   0.33333000  0.33333000  0.12928000
   0.50000000  0.50000000  0.19391000
   0.66667000  0.33333000  0.12928000
   0.83333000  0.50000000  0.19391000
   0.00000000  0.66667000  0.12928000
   0.16667000  0.83333000  0.19391000
   0.33333000  0.66667000  0.12928000
   0.50000000  0.83333000  0.19391000
   0.66667000  0.66667000  0.12928000
   0.83333000  0.83333000  0.19391000
   0.00000000  0.00000000  0.25855000
   0.16643962  0.16672480  0.32473393
   0.33333000  0.00000000  0.25855000
   0.49928972  0.16568780  0.32371993
   0.66667000  0.00000000  0.25855000
   0.83403838  0.16903971  0.32414627
   0.00000000  0.33333000  0.25855000
   0.16590622  0.49934286  0.32364385
   0.33333000  0.33333000  0.25855000
   0.49914595  0.49928910  0.32017626
   0.66667000  0.33333000  0.25855000
   0.83284062  0.50002296  0.32474974
   0.00000000  0.66667000  0.25855000
   0.16905108  0.83410788  0.32383535
   0.33333000  0.66667000  0.25855000
   0.50019483  0.83275230  0.32475979
   0.66667000  0.66667000  0.25855000
   0.83293452  0.83405423  0.32201160
   0.00452595  0.33364015  0.37954653
   0.64894031  0.34119214  0.38624941
   0.34193167  0.65046606  0.38629642
 
 position of ions in cartesian coordinates  (Angst):
   0.00000000  0.00000000  0.00000000
   9.38217104  9.34897069  9.38036501
   1.58309828  1.58309828  1.58386740
   3.16610158  0.00000000  0.00000000
   3.15987744  0.02883706  9.30087391
   4.74919987  1.58309828  1.58386740
   6.33229815  0.00000000  0.00000000
   6.49347151  0.05035667  9.34802229
   7.91530145  1.58309828  1.58386740
   0.00000000  3.16610158  0.00000000
   1.58309828  4.74919987  1.58386740
   3.16610158  3.16610158  0.00000000
   4.74919987  4.74919987  1.58386740
   6.33229815  3.16610158  0.00000000
   7.91530145  4.74919987  1.58386740
   0.00000000  6.33229815  0.00000000
   0.00725276  6.52747049  9.35710571
   1.58309828  7.91530145  1.58386740
   3.16610158  6.33229815  0.00000000
   4.74919987  7.91530145  1.58386740
   6.33229815  6.33229815  0.00000000
   6.39931644  6.35400675  9.38840370
   7.91530145  7.91530145  1.58386740
   0.00000000  0.00000000  3.16773480
   1.58309828  1.58309828  4.75135718
   3.16610158  0.00000000  3.16773480
   4.74919987  1.58309828  4.75135718
   6.33229815  0.00000000  3.16773480
   7.91530145  1.58309828  4.75135718
   0.00000000  3.16610158  3.16773480
   1.58309828  4.74919987  4.75135718
   3.16610158  3.16610158  3.16773480
   4.74919987  4.74919987  4.75135718
   6.33229815  3.16610158  3.16773480
   7.91530145  4.74919987  4.75135718
   0.00000000  6.33229815  3.16773480
   1.58309828  7.91530145  4.75135718
   3.16610158  6.33229815  3.16773480
   4.74919987  7.91530145  4.75135718
   6.33229815  6.33229815  3.16773480
   7.91530145  7.91530145  4.75135718
   0.00000000  0.00000000  6.33522458
   1.58091000  1.58361877  7.95692279
   3.16610158  0.00000000  6.33522458
   4.74245339  1.57376893  7.93207685
   6.33229815  0.00000000  6.33522458
   7.92202995  1.60560678  7.94252331
   0.00000000  3.16610158  6.33522458
   1.57584363  4.74295809  7.93021263
   3.16610158  3.16610158  6.33522458
   4.74108777  4.74244743  7.84524662
   6.33229815  3.16610158  6.33522458
   7.91065309  4.74941790  7.95731022
   0.00000000  6.33229815  6.33522458
   1.60571473  7.92269005  7.93490493
   3.16610158  6.33229815  6.33522458
   4.75105044  7.90981425  7.95755635
   6.33229815  6.33229815  6.33522458
   7.91154504  7.92218043  7.89021777
   0.04298932  3.16904755  9.29999044
   6.16389447  3.24077933  9.46423025
   3.24780373  6.17838667  9.46538212
 


--------------------------------------------------------------------------------------------------------


 k-point   1 :   0.0000 0.0000 0.0000  plane waves:   61279
 k-point   2 :   0.2500 0.0000 0.0000  plane waves:   61234
 k-point   3 :   0.0000 0.2500 0.0000  plane waves:   61234
 k-point   4 :   0.5000 0.0000 0.0000  plane waves:   61280
 k-point   5 :   0.0000 0.5000 0.0000  plane waves:   61280
 k-point   6 :   0.2500 0.2500 0.0000  plane waves:   61217
 k-point   7 :  -0.2500 0.2500 0.0000  plane waves:   61217
 k-point   8 :   0.5000 0.2500 0.0000  plane waves:   61214
 k-point   9 :  -0.2500 0.5000 0.0000  plane waves:   61214
 k-point  10 :   0.5000 0.5000 0.0000  plane waves:   61212

 maximum and minimum number of plane-waves per node :     61280    61212

 maximum number of plane-waves:     61280
 maximum index in each direction: 
   IXMAX=   18   IYMAX=   17   IZMAX=   45
   IXMIN=  -18   IYMIN=  -18   IZMIN=  -45


 serial   3D FFT for wavefunctions
 parallel 3D FFT for charge:
    minimum data exchange during FFTs selected (reduces bandwidth)


 total amount of memory used by VASP MPI-rank0  2428253. kBytes
=======================================================================

   base      :      30000. kBytes
   nonlr-proj:      83203. kBytes
   fftplans  :     272216. kBytes
   grid      :     487461. kBytes
   one-center:        964. kBytes
   wavefun   :    1554409. kBytes
 
     INWAV:  cpu time      0.0001: real time      0.0000
 Broyden mixing: mesh for mixing (old mesh)
   NGX = 35   NGY = 35   NGZ = 91
  (NGX  =144   NGY  =144   NGZ  =384)
  gives a total of 111475 points

 initial charge density was supplied:
 charge density of overlapping atoms calculated
 number of electron     866.0000000 magnetization 
 keeping initial charge density in first step


--------------------------------------------------------------------------------------------------------


 Maximum index for non-local projection operator         7681
 Maximum index for augmentation-charges        19177 (set IRDMAX)


--------------------------------------------------------------------------------------------------------


 First call to EWALD:  gamma=   0.136
 Maximum number of real-space cells 4x 4x 2
 Maximum number of reciprocal cells 2x 2x 5

    FEWALD:  cpu time      0.0121: real time      0.0061


--------------------------------------- Iteration      1(   1)  ---------------------------------------


    POTLOK:  cpu time     10.3414: real time      1.7084
    SETDIJ:  cpu time      1.0355: real time      0.1487
     EDDAV:  cpu time    146.3919: real time     21.0926
       DOS:  cpu time      0.0113: real time      0.0058
    --------------------------------------------
      LOOP:  cpu time    157.7802: real time     22.9555

 eigenvalue-minimisations  : 12596
 total energy-change (2. order) : 0.1065165E+05  (-0.5511153E+05)
 number of electron     866.0000000 magnetization 
 augmentation part      866.0000000 magnetization 

 Free energy of the ion-electron system (eV)
  ---------------------------------------------------
  alpha Z        PSCENC =      3183.80401474
  Ewald energy   TEWEN  =    384477.10216308
  -Hartree energ DENC   =   -489465.31702907
  -exchange      EXHF   =         0.00000000
  -V(xc)+E(xc)   XCENC  =      4092.29428653
  PAW double counting   =     92336.83737323   -91189.64360518
  entropy T*S    EENTRO =        -0.12316812
  eigenvalues    EBANDS =     -7630.46602041
  atomic energy  EATOM  =    114847.16282159
  Solvation  Ediel_sol  =         0.00000000
  ---------------------------------------------------
  free energy    TOTEN  =     10651.65083638 eV

  energy without entropy =    10651.77400450  energy(sigma->0) =    10651.71242044


--------------------------------------------------------------------------------------------------------




--------------------------------------- Iteration      1(   2)  ---------------------------------------


     EDDAV:  cpu time    136.6511: real time     19.7829
       DOS:  cpu time      0.0102: real time      0.0051
    --------------------------------------------
      LOOP:  cpu time    136.6613: real time     19.7880

 eigenvalue-minimisations  : 11496
 total energy-change (2. order) :-0.1079005E+05  (-0.1046299E+05)
 number of electron     866.0000000 magnetization 
 augmentation part      866.0000000 magnetization 

 Free energy of the ion-electron system (eV)
  ---------------------------------------------------
  alpha Z        PSCENC =      3183.80401474
  Ewald energy   TEWEN  =    384477.10216308
  -Hartree energ DENC   =   -489465.31702907
  -exchange      EXHF   =         0.00000000
  -V(xc)+E(xc)   XCENC  =      4092.29428653
  PAW double counting   =     92336.83737323   -91189.64360518
  entropy T*S    EENTRO =        -0.28065299
  eigenvalues    EBANDS =    -18420.35818332
  atomic energy  EATOM  =    114847.16282159
  Solvation  Ediel_sol  =         0.00000000
  ---------------------------------------------------
  free energy    TOTEN  =      -138.39881140 eV

  energy without entropy =     -138.11815841  energy(sigma->0) =     -138.25848490


--------------------------------------------------------------------------------------------------------




--------------------------------------- Iteration      1(   3)  ---------------------------------------


     EDDAV:  cpu time    167.2422: real time     24.1110
       DOS:  cpu time      0.0114: real time      0.0063
    --------------------------------------------
      LOOP:  cpu time    167.2536: real time     24.1173

 eigenvalue-minimisations  : 14936
 total energy-change (2. order) :-0.5217836E+03  (-0.4892713E+03)
 number of electron     866.0000000 magnetization 
 augmentation part      866.0000000 magnetization 

 Free energy of the ion-electron system (eV)
  ---------------------------------------------------
  alpha Z        PSCENC =      3183.80401474
  Ewald energy   TEWEN  =    384477.10216308
  -Hartree energ DENC   =   -489465.31702907
  -exchange      EXHF   =         0.00000000
  -V(xc)+E(xc)   XCENC  =      4092.29428653
  PAW double counting   =     92336.83737323   -91189.64360518
  entropy T*S    EENTRO =        -0.25604684
  eigenvalues    EBANDS =    -18942.16637088
  atomic energy  EATOM  =    114847.16282159
  Solvation  Ediel_sol  =         0.00000000
  ---------------------------------------------------
  free energy    TOTEN  =      -660.18239281 eV

  energy without entropy =     -659.92634597  energy(sigma->0) =     -660.05436939


--------------------------------------------------------------------------------------------------------




--------------------------------------- Iteration      1(   4)  ---------------------------------------


     EDDAV:  cpu time    162.4443: real time     23.5256
       DOS:  cpu time      0.0110: real time      0.0055
    --------------------------------------------
      LOOP:  cpu time    162.4552: real time     23.5311

 eigenvalue-minimisations  : 14384
 total energy-change (2. order) :-0.3486108E+02  (-0.3331053E+02)
 number of electron     866.0000000 magnetization 
 augmentation part      866.0000000 magnetization 

 Free energy of the ion-electron system (eV)
  ---------------------------------------------------
  alpha Z        PSCENC =      3183.80401474
  Ewald energy   TEWEN  =    384477.10216308
  -Hartree energ DENC   =   -489465.31702907
  -exchange      EXHF   =         0.00000000
  -V(xc)+E(xc)   XCENC  =      4092.29428653
  PAW double counting   =     92336.83737323   -91189.64360518
  entropy T*S    EENTRO =        -0.27140875
  eigenvalues    EBANDS =    -18977.01208514
  atomic energy  EATOM  =    114847.16282159
  Solvation  Ediel_sol  =         0.00000000
  ---------------------------------------------------
  free energy    TOTEN  =      -695.04346898 eV

  energy without entropy =     -694.77206023  energy(sigma->0) =     -694.90776461


--------------------------------------------------------------------------------------------------------




--------------------------------------- Iteration      1(   5)  ---------------------------------------


     EDDAV:  cpu time    212.2051: real time     30.7395
       DOS:  cpu time      0.0104: real time      0.0052
    CHARGE:  cpu time      2.3765: real time      0.7339
    MIXING:  cpu time      0.6825: real time      0.0977
    --------------------------------------------
      LOOP:  cpu time    215.2753: real time     31.5764

 eigenvalue-minimisations  : 20040
 total energy-change (2. order) :-0.3671827E+01  (-0.3594154E+01)
 number of electron     866.0000106 magnetization 
 augmentation part      140.6500801 magnetization 

 Broyden mixing:
  rms(total) = 0.10088E+02    rms(broyden)= 0.10088E+02
  rms(prec ) = 0.10505E+02
  weight for this iteration     100.00

 Free energy of the ion-electron system (eV)
  ---------------------------------------------------
  alpha Z        PSCENC =      3183.80401474
  Ewald energy   TEWEN  =    384477.10216308
  -Hartree energ DENC   =   -489465.31702907
  -exchange      EXHF   =         0.00000000
  -V(xc)+E(xc)   XCENC  =      4092.29428653
  PAW double counting   =     92336.83737323   -91189.64360518
  entropy T*S    EENTRO =        -0.28286946
  eigenvalues    EBANDS =    -18980.67245169
  atomic energy  EATOM  =    114847.16282159
  Solvation  Ediel_sol  =         0.00000000
  ---------------------------------------------------
  free energy    TOTEN  =      -698.71529624 eV

  energy without entropy =     -698.43242678  energy(sigma->0) =     -698.57386151


--------------------------------------------------------------------------------------------------------




--------------------------------------- Iteration      1(   6)  ---------------------------------------


    POTLOK:  cpu time     10.0572: real time      1.6245
    SETDIJ:  cpu time      1.0415: real time      0.1489
     EDDAV:  cpu time    160.1688: real time     23.1740
       DOS:  cpu time      0.0113: real time      0.0057
    CHARGE:  cpu time      2.3382: real time      0.7169
    MIXING:  cpu time      0.7292: real time      0.1042
    --------------------------------------------
      LOOP:  cpu time    174.3462: real time     25.7742

 eigenvalue-minimisations  : 14072
 total energy-change (2. order) :-0.2223324E+01  (-0.4087313E+02)
 number of electron     866.0000108 magnetization 
 augmentation part      148.6738923 magnetization 

 Broyden mixing:
  rms(total) = 0.62792E+01    rms(broyden)= 0.62791E+01
  rms(prec ) = 0.81841E+01
  weight for this iteration     100.00

 eigenvalues of (default mixing * dielectric matrix)
  average eigenvalue GAMMA=   0.9376
  0.9376

 Free energy of the ion-electron system (eV)
  ---------------------------------------------------
  alpha Z        PSCENC =      3183.80401474
  Ewald energy   TEWEN  =    384477.10216308
  -Hartree energ DENC   =   -489054.95572995
  -exchange      EXHF   =         0.00000000
  -V(xc)+E(xc)   XCENC  =      4041.50870230
  PAW double counting   =     97672.87955949   -96659.05428615
  entropy T*S    EENTRO =        -0.29094291
  eigenvalues    EBANDS =    -19209.09492208
  atomic energy  EATOM  =    114847.16282159
  Solvation  Ediel_sol  =         0.00000000
  ---------------------------------------------------
  free energy    TOTEN  =      -700.93861990 eV

  energy without entropy =     -700.64767699  energy(sigma->0) =     -700.79314844


--------------------------------------------------------------------------------------------------------




--------------------------------------- Iteration      1(   7)  ---------------------------------------


    POTLOK:  cpu time      9.9807: real time      1.6119
    SETDIJ:  cpu time      1.2663: real time      0.1809
     EDDAV:  cpu time    154.9555: real time     22.2824
       DOS:  cpu time      0.0108: real time      0.0054
    CHARGE:  cpu time      2.3464: real time      0.7212
    MIXING:  cpu time      0.7328: real time      0.1047
    --------------------------------------------
      LOOP:  cpu time    169.2924: real time     24.9065

 eigenvalue-minimisations  : 13306
 total energy-change (2. order) :-0.3297742E+02  (-0.8827567E+02)
 number of electron     866.0000124 magnetization 
 augmentation part      150.3036109 magnetization 

 Broyden mixing:
  rms(total) = 0.53478E+01    rms(broyden)= 0.53477E+01
  rms(prec ) = 0.86330E+01
  weight for this iteration     100.00

 eigenvalues of (default mixing * dielectric matrix)
  average eigenvalue GAMMA=   0.8975
  1.4705  0.3246

 Free energy of the ion-electron system (eV)
  ---------------------------------------------------
  alpha Z        PSCENC =      3183.80401474
  Ewald energy   TEWEN  =    384477.10216308
  -Hartree energ DENC   =   -488650.22807791
  -exchange      EXHF   =         0.00000000
  -V(xc)+E(xc)   XCENC  =      4040.06729988
  PAW double counting   =     99499.95631491   -98508.89500880
  entropy T*S    EENTRO =        -0.34735051
  eigenvalues    EBANDS =    -19622.53821579
  atomic energy  EATOM  =    114847.16282159
  Solvation  Ediel_sol  =         0.00000000
  ---------------------------------------------------
  free energy    TOTEN  =      -733.91603880 eV

  energy without entropy =     -733.56868829  energy(sigma->0) =     -733.74236355


--------------------------------------------------------------------------------------------------------




--------------------------------------- Iteration      1(   8)  ---------------------------------------


    POTLOK:  cpu time     10.0033: real time      1.6152
    SETDIJ:  cpu time      1.1554: real time      0.1651
     EDDAV:  cpu time    155.3145: real time     22.2669
       DOS:  cpu time      0.0104: real time      0.0052
    CHARGE:  cpu time      2.3433: real time      0.7221
    MIXING:  cpu time      0.7283: real time      0.1046
    --------------------------------------------
      LOOP:  cpu time    169.5553: real time     24.8791

 eigenvalue-minimisations  : 13603
 total energy-change (2. order) : 0.8140174E+02  (-0.1948114E+02)
 number of electron     866.0000113 magnetization 
 augmentation part      149.4473429 magnetization 

 Broyden mixing:
  rms(total) = 0.25371E+01    rms(broyden)= 0.25370E+01
  rms(prec ) = 0.29009E+01
  weight for this iteration     100.00

 eigenvalues of (default mixing * dielectric matrix)
  average eigenvalue GAMMA=   0.7011
  1.4502  0.3265  0.3265

 Free energy of the ion-electron system (eV)
  ---------------------------------------------------
  alpha Z        PSCENC =      3183.80401474
  Ewald energy   TEWEN  =    384477.10216308
  -Hartree energ DENC   =   -488830.23765881
  -exchange      EXHF   =         0.00000000
  -V(xc)+E(xc)   XCENC  =      4029.25609200
  PAW double counting   =    102256.95897930  -101296.56875888
  entropy T*S    EENTRO =        -0.27680667
  eigenvalues    EBANDS =    -19319.71514824
  atomic energy  EATOM  =    114847.16282159
  Solvation  Ediel_sol  =         0.00000000
  ---------------------------------------------------
  free energy    TOTEN  =      -652.51430189 eV

  energy without entropy =     -652.23749522  energy(sigma->0) =     -652.37589856


--------------------------------------------------------------------------------------------------------




--------------------------------------- Iteration      1(   9)  ---------------------------------------


    POTLOK:  cpu time     10.1306: real time      1.6386
    SETDIJ:  cpu time      1.0352: real time      0.1487
     EDDAV:  cpu time    158.5340: real time     22.7756
       DOS:  cpu time      0.0397: real time      0.0057
    CHARGE:  cpu time      2.7174: real time      0.7198
    MIXING:  cpu time      0.7725: real time      0.1107
    --------------------------------------------
      LOOP:  cpu time    173.2294: real time     25.3991

 eigenvalue-minimisations  : 13960
 total energy-change (2. order) : 0.1015741E+02  (-0.3363756E+01)
 number of electron     866.0000111 magnetization 
 augmentation part      149.2247958 magnetization 

 Broyden mixing:
  rms(total) = 0.14476E+01    rms(broyden)= 0.14476E+01
  rms(prec ) = 0.16456E+01
  weight for this iteration     100.00

 eigenvalues of (default mixing * dielectric matrix)
  average eigenvalue GAMMA=   0.6259
  1.4161  0.3019  0.3927  0.3927

 Free energy of the ion-electron system (eV)
  ---------------------------------------------------
  alpha Z        PSCENC =      3183.80401474
  Ewald energy   TEWEN  =    384477.10216308
  -Hartree energ DENC   =   -488834.83484394
  -exchange      EXHF   =         0.00000000
  -V(xc)+E(xc)   XCENC  =      4027.34157138
  PAW double counting   =    102035.24857821  -101080.95037102
  entropy T*S    EENTRO =        -0.24365156
  eigenvalues    EBANDS =    -19296.98717657
  atomic energy  EATOM  =    114847.16282159
  Solvation  Ediel_sol  =         0.00000000
  ---------------------------------------------------
  free energy    TOTEN  =      -642.35689410 eV

  energy without entropy =     -642.11324254  energy(sigma->0) =     -642.23506832


--------------------------------------------------------------------------------------------------------




--------------------------------------- Iteration      1(  10)  ---------------------------------------


    POTLOK:  cpu time     10.1435: real time      1.6403
    SETDIJ:  cpu time      1.0373: real time      0.1487
     EDDAV:  cpu time    169.1655: real time     24.2509
       DOS:  cpu time      0.0127: real time      0.0077
    CHARGE:  cpu time      2.3479: real time      0.7223
    MIXING:  cpu time      0.7578: real time      0.1083
    --------------------------------------------
      LOOP:  cpu time    183.4647: real time     26.8782

 eigenvalue-minimisations  : 15088
 total energy-change (2. order) : 0.4423879E+00  (-0.5870301E+00)
 number of electron     866.0000111 magnetization 
 augmentation part      149.2972352 magnetization 

 Broyden mixing:
  rms(total) = 0.11924E+01    rms(broyden)= 0.11924E+01
  rms(prec ) = 0.13464E+01
  weight for this iteration     100.00

 eigenvalues of (default mixing * dielectric matrix)
  average eigenvalue GAMMA=   0.6027
  1.3839  0.4936  0.4936  0.3110  0.3314

 Free energy of the ion-electron system (eV)
  ---------------------------------------------------
  alpha Z        PSCENC =      3183.80401474
  Ewald energy   TEWEN  =    384477.10216308
  -Hartree energ DENC   =   -488839.13362261
  -exchange      EXHF   =         0.00000000
  -V(xc)+E(xc)   XCENC  =      4026.01966993
  PAW double counting   =    101701.51742002  -100751.13872633
  entropy T*S    EENTRO =        -0.24751228
  eigenvalues    EBANDS =    -19287.00073431
  atomic energy  EATOM  =    114847.16282159
  Solvation  Ediel_sol  =         0.00000000
  ---------------------------------------------------
  free energy    TOTEN  =      -641.91450617 eV

  energy without entropy =     -641.66699389  energy(sigma->0) =     -641.79075003


--------------------------------------------------------------------------------------------------------




--------------------------------------- Iteration      1(  11)  ---------------------------------------


    POTLOK:  cpu time     10.0085: real time      1.6167
    SETDIJ:  cpu time      1.1593: real time      0.1684
     EDDAV:  cpu time    156.1287: real time     22.4054
       DOS:  cpu time      0.0358: real time      0.0051
    CHARGE:  cpu time      3.0175: real time      0.7244
    MIXING:  cpu time      0.8040: real time      0.1149
    --------------------------------------------
      LOOP:  cpu time    171.1536: real time     25.0348

 eigenvalue-minimisations  : 13592
 total energy-change (2. order) : 0.2827723E+00  (-0.1003655E+00)
 number of electron     866.0000111 magnetization 
 augmentation part      149.3522115 magnetization 

 Broyden mixing:
  rms(total) = 0.10664E+01    rms(broyden)= 0.10664E+01
  rms(prec ) = 0.12073E+01
  weight for this iteration     100.00

 eigenvalues of (default mixing * dielectric matrix)
  average eigenvalue GAMMA=   0.7094
  1.3173  0.9572  0.9572  0.3978  0.3221  0.3049

 Free energy of the ion-electron system (eV)
  ---------------------------------------------------
  alpha Z        PSCENC =      3183.80401474
  Ewald energy   TEWEN  =    384477.10216308
  -Hartree energ DENC   =   -488843.27762642
  -exchange      EXHF   =         0.00000000
  -V(xc)+E(xc)   XCENC  =      4025.44394480
  PAW double counting   =    101451.28616546  -100502.62267472
  entropy T*S    EENTRO =        -0.24256394
  eigenvalues    EBANDS =    -19280.28797851
  atomic energy  EATOM  =    114847.16282159
  Solvation  Ediel_sol  =         0.00000000
  ---------------------------------------------------
  free energy    TOTEN  =      -641.63173392 eV

  energy without entropy =     -641.38916999  energy(sigma->0) =     -641.51045195


--------------------------------------------------------------------------------------------------------




--------------------------------------- Iteration      1(  12)  ---------------------------------------


    POTLOK:  cpu time     10.0209: real time      1.6178
    SETDIJ:  cpu time      1.1017: real time      0.1574
     EDDAV:  cpu time    160.3612: real time     22.9786
       DOS:  cpu time      0.0354: real time      0.0051
    CHARGE:  cpu time      3.0188: real time      0.7237
    MIXING:  cpu time      0.7857: real time      0.1123
    --------------------------------------------
      LOOP:  cpu time    175.3237: real time     25.5948

 eigenvalue-minimisations  : 14112
 total energy-change (2. order) : 0.2845567E+00  (-0.1031835E+00)
 number of electron     866.0000111 magnetization 
 augmentation part      149.4178347 magnetization 

 Broyden mixing:
  rms(total) = 0.93984E+00    rms(broyden)= 0.93984E+00
  rms(prec ) = 0.11128E+01
  weight for this iteration     100.00

 eigenvalues of (default mixing * dielectric matrix)
  average eigenvalue GAMMA=   0.8403
  1.7054  1.7054  0.9939  0.4658  0.4658  0.3057  0.2401

 Free energy of the ion-electron system (eV)
  ---------------------------------------------------
  alpha Z        PSCENC =      3183.80401474
  Ewald energy   TEWEN  =    384477.10216308
  -Hartree energ DENC   =   -488872.87084346
  -exchange      EXHF   =         0.00000000
  -V(xc)+E(xc)   XCENC  =      4024.43982488
  PAW double counting   =    100953.98040248  -100007.77313333
  entropy T*S    EENTRO =        -0.25198545
  eigenvalues    EBANDS =    -19246.94044176
  atomic energy  EATOM  =    114847.16282159
  Solvation  Ediel_sol  =         0.00000000
  ---------------------------------------------------
  free energy    TOTEN  =      -641.34717722 eV

  energy without entropy =     -641.09519178  energy(sigma->0) =     -641.22118450


--------------------------------------------------------------------------------------------------------




--------------------------------------- Iteration      1(  13)  ---------------------------------------


    POTLOK:  cpu time     10.0010: real time      1.6150
    SETDIJ:  cpu time      1.1350: real time      0.1622
     EDDAV:  cpu time    152.4833: real time     21.8928
       DOS:  cpu time      0.0363: real time      0.0052
    CHARGE:  cpu time      3.0138: real time      0.7208
    MIXING:  cpu time      0.8065: real time      0.1160
    --------------------------------------------
      LOOP:  cpu time    167.4760: real time     24.5119

 eigenvalue-minimisations  : 13160
 total energy-change (2. order) : 0.6934322E+00  (-0.4331096E+00)
 number of electron     866.0000111 magnetization 
 augmentation part      149.8692126 magnetization 

 Broyden mixing:
  rms(total) = 0.61622E+00    rms(broyden)= 0.61622E+00
  rms(prec ) = 0.76428E+00
  weight for this iteration     100.00

 eigenvalues of (default mixing * dielectric matrix)
  average eigenvalue GAMMA=   0.8356
  2.0237  2.0237  0.7218  0.5189  0.5189  0.3119  0.3369  0.2286

 Free energy of the ion-electron system (eV)
  ---------------------------------------------------
  alpha Z        PSCENC =      3183.80401474
  Ewald energy   TEWEN  =    384477.10216308
  -Hartree energ DENC   =   -488942.93883426
  -exchange      EXHF   =         0.00000000
  -V(xc)+E(xc)   XCENC  =      4021.45432013
  PAW double counting   =     99593.23187444   -98656.18870983
  entropy T*S    EENTRO =        -0.25685312
  eigenvalues    EBANDS =    -19164.02454173
  atomic energy  EATOM  =    114847.16282159
  Solvation  Ediel_sol  =         0.00000000
  ---------------------------------------------------
  free energy    TOTEN  =      -640.65374499 eV

  energy without entropy =     -640.39689186  energy(sigma->0) =     -640.52531842


--------------------------------------------------------------------------------------------------------




--------------------------------------- Iteration      1(  14)  ---------------------------------------


    POTLOK:  cpu time     10.1977: real time      1.6523
    SETDIJ:  cpu time      1.0359: real time      0.1487
     EDDAV:  cpu time    165.2499: real time     23.9305
       DOS:  cpu time      0.0100: real time      0.0050
    CHARGE:  cpu time      2.3434: real time      0.7213
    MIXING:  cpu time      0.8364: real time      0.1203
    --------------------------------------------
      LOOP:  cpu time    179.6734: real time     26.5780

 eigenvalue-minimisations  : 14752
 total energy-change (2. order) : 0.4815024E+00  (-0.1677127E+00)
 number of electron     866.0000111 magnetization 
 augmentation part      150.0076487 magnetization 

 Broyden mixing:
  rms(total) = 0.38255E+00    rms(broyden)= 0.38255E+00
  rms(prec ) = 0.47104E+00
  weight for this iteration     100.00

 eigenvalues of (default mixing * dielectric matrix)
  average eigenvalue GAMMA=   0.8437
  2.0251  2.0251  0.7515  0.7515  0.5990  0.5990  0.3141  0.2957  0.2319

 Free energy of the ion-electron system (eV)
  ---------------------------------------------------
  alpha Z        PSCENC =      3183.80401474
  Ewald energy   TEWEN  =    384477.10216308
  -Hartree energ DENC   =   -488994.74697640
  -exchange      EXHF   =         0.00000000
  -V(xc)+E(xc)   XCENC  =      4020.02250279
  PAW double counting   =     99025.87972187   -98093.54047084
  entropy T*S    EENTRO =        -0.25747481
  eigenvalues    EBANDS =    -19105.59854457
  atomic energy  EATOM  =    114847.16282159
  Solvation  Ediel_sol  =         0.00000000
  ---------------------------------------------------
  free energy    TOTEN  =      -640.17224254 eV

  energy without entropy =     -639.91476774  energy(sigma->0) =     -640.04350514


--------------------------------------------------------------------------------------------------------




--------------------------------------- Iteration      1(  15)  ---------------------------------------


    POTLOK:  cpu time     10.0533: real time      1.6252
    SETDIJ:  cpu time      1.0398: real time      0.1486
     EDDAV:  cpu time    154.5075: real time     22.2305
       DOS:  cpu time      0.0333: real time      0.0048
    CHARGE:  cpu time      2.8002: real time      0.7424
    MIXING:  cpu time      0.8329: real time      0.1200
    --------------------------------------------
      LOOP:  cpu time    169.2670: real time     24.8714

 eigenvalue-minimisations  : 13424
 total energy-change (2. order) : 0.5295686E-01  (-0.4540278E-01)
 number of electron     866.0000111 magnetization 
 augmentation part      149.9613938 magnetization 

 Broyden mixing:
  rms(total) = 0.32274E+00    rms(broyden)= 0.32274E+00
  rms(prec ) = 0.39962E+00
  weight for this iteration     100.00

 eigenvalues of (default mixing * dielectric matrix)
  average eigenvalue GAMMA=   0.8181
  2.0260  2.0260  0.8911  0.8911  0.5870  0.5870  0.3347  0.3225  0.2862  0.2299

 Free energy of the ion-electron system (eV)
  ---------------------------------------------------
  alpha Z        PSCENC =      3183.80401474
  Ewald energy   TEWEN  =    384477.10216308
  -Hartree energ DENC   =   -489026.18114240
  -exchange      EXHF   =         0.00000000
  -V(xc)+E(xc)   XCENC  =      4020.04158938
  PAW double counting   =     99093.47710841   -98161.95274501
  entropy T*S    EENTRO =        -0.25591933
  eigenvalues    EBANDS =    -19073.31717614
  atomic energy  EATOM  =    114847.16282159
  Solvation  Ediel_sol  =         0.00000000
  ---------------------------------------------------
  free energy    TOTEN  =      -640.11928569 eV

  energy without entropy =     -639.86336636  energy(sigma->0) =     -639.99132602


--------------------------------------------------------------------------------------------------------




--------------------------------------- Iteration      1(  16)  ---------------------------------------


    POTLOK:  cpu time     10.1777: real time      1.6476
    SETDIJ:  cpu time      1.0327: real time      0.1486
     EDDAV:  cpu time    162.6381: real time     23.3740
       DOS:  cpu time      0.0102: real time      0.0051
    CHARGE:  cpu time      2.3414: real time      0.7204
    MIXING:  cpu time      1.0474: real time      0.1514
    --------------------------------------------
      LOOP:  cpu time    177.2476: real time     26.0471

 eigenvalue-minimisations  : 14464
 total energy-change (2. order) : 0.1131256E+00  (-0.3224267E-01)
 number of electron     866.0000111 magnetization 
 augmentation part      149.9306506 magnetization 

 Broyden mixing:
  rms(total) = 0.21903E+00    rms(broyden)= 0.21903E+00
  rms(prec ) = 0.29034E+00
  weight for this iteration     100.00

 eigenvalues of (default mixing * dielectric matrix)
  average eigenvalue GAMMA=   0.8216
  1.9634  1.9634  1.1576  1.1576  0.5821  0.5602  0.5602  0.3234  0.2939  0.2310
  0.2454

 Free energy of the ion-electron system (eV)
  ---------------------------------------------------
  alpha Z        PSCENC =      3183.80401474
  Ewald energy   TEWEN  =    384477.10216308
  -Hartree energ DENC   =   -489050.92392369
  -exchange      EXHF   =         0.00000000
  -V(xc)+E(xc)   XCENC  =      4020.11417703
  PAW double counting   =     99141.81311709   -98210.75668862
  entropy T*S    EENTRO =        -0.25834201
  eigenvalues    EBANDS =    -19048.06349930
  atomic energy  EATOM  =    114847.16282159
  Solvation  Ediel_sol  =         0.00000000
  ---------------------------------------------------
  free energy    TOTEN  =      -640.00616009 eV

  energy without entropy =     -639.74781808  energy(sigma->0) =     -639.87698909


--------------------------------------------------------------------------------------------------------




--------------------------------------- Iteration      1(  17)  ---------------------------------------


    POTLOK:  cpu time     10.0065: real time      1.6171
    SETDIJ:  cpu time      1.0918: real time      0.1560
     EDDAV:  cpu time    154.9429: real time     22.2221
       DOS:  cpu time      0.0106: real time      0.0053
    CHARGE:  cpu time      2.3459: real time      0.7216
    MIXING:  cpu time      0.9383: real time      0.1340
    --------------------------------------------
      LOOP:  cpu time    169.3361: real time     24.8562

 eigenvalue-minimisations  : 13472
 total energy-change (2. order) : 0.6457740E-01  (-0.1372981E-01)
 number of electron     866.0000111 magnetization 
 augmentation part      149.8916269 magnetization 

 Broyden mixing:
  rms(total) = 0.12725E+00    rms(broyden)= 0.12725E+00
  rms(prec ) = 0.19988E+00
  weight for this iteration     100.00

 eigenvalues of (default mixing * dielectric matrix)
  average eigenvalue GAMMA=   0.8046
  2.0269  1.6895  1.3675  1.3675  0.6316  0.5630  0.5630  0.3773  0.3087  0.2904
  0.2298  0.2399

 Free energy of the ion-electron system (eV)
  ---------------------------------------------------
  alpha Z        PSCENC =      3183.80401474
  Ewald energy   TEWEN  =    384477.10216308
  -Hartree energ DENC   =   -489083.80924234
  -exchange      EXHF   =         0.00000000
  -V(xc)+E(xc)   XCENC  =      4020.30653637
  PAW double counting   =     99253.85322724   -98322.85702629
  entropy T*S    EENTRO =        -0.25680116
  eigenvalues    EBANDS =    -19015.24727592
  atomic energy  EATOM  =    114847.16282159
  Solvation  Ediel_sol  =         0.00000000
  ---------------------------------------------------
  free energy    TOTEN  =      -639.94158269 eV

  energy without entropy =     -639.68478154  energy(sigma->0) =     -639.81318212


--------------------------------------------------------------------------------------------------------




--------------------------------------- Iteration      1(  18)  ---------------------------------------


    POTLOK:  cpu time     10.1395: real time      1.6409
    SETDIJ:  cpu time      1.0420: real time      0.1496
     EDDAV:  cpu time    156.8862: real time     22.5751
       DOS:  cpu time      0.0107: real time      0.0053
    CHARGE:  cpu time      2.3430: real time      0.7204
    MIXING:  cpu time      0.9758: real time      0.1394
    --------------------------------------------
      LOOP:  cpu time    171.3971: real time     25.2308

 eigenvalue-minimisations  : 13576
 total energy-change (2. order) : 0.4426870E-01  (-0.6342911E-02)
 number of electron     866.0000111 magnetization 
 augmentation part      149.8460583 magnetization 

 Broyden mixing:
  rms(total) = 0.82327E-01    rms(broyden)= 0.82327E-01
  rms(prec ) = 0.16442E+00
  weight for this iteration     100.00

 eigenvalues of (default mixing * dielectric matrix)
  average eigenvalue GAMMA=   0.7821
  2.1253  1.5787  1.4300  1.4300  0.5766  0.5766  0.5222  0.5222  0.3253  0.3253
  0.2938  0.2345  0.2272

 Free energy of the ion-electron system (eV)
  ---------------------------------------------------
  alpha Z        PSCENC =      3183.80401474
  Ewald energy   TEWEN  =    384477.10216308
  -Hartree energ DENC   =   -489119.20002299
  -exchange      EXHF   =         0.00000000
  -V(xc)+E(xc)   XCENC  =      4020.48296467
  PAW double counting   =     99351.85466510   -98420.84391820
  entropy T*S    EENTRO =        -0.25768812
  eigenvalues    EBANDS =    -18980.00231384
  atomic energy  EATOM  =    114847.16282159
  Solvation  Ediel_sol  =         0.00000000
  ---------------------------------------------------
  free energy    TOTEN  =      -639.89731400 eV

  energy without entropy =     -639.63962587  energy(sigma->0) =     -639.76846993


--------------------------------------------------------------------------------------------------------




--------------------------------------- Iteration      1(  19)  ---------------------------------------


    POTLOK:  cpu time      9.9853: real time      1.6174
    SETDIJ:  cpu time      1.1083: real time      0.1586
     EDDAV:  cpu time    158.9262: real time     22.7990
       DOS:  cpu time      0.0109: real time      0.0055
    CHARGE:  cpu time      2.2232: real time      0.7305
    MIXING:  cpu time      0.9668: real time      0.1387
    --------------------------------------------
      LOOP:  cpu time    173.2205: real time     25.4496

 eigenvalue-minimisations  : 13984
 total energy-change (2. order) : 0.2703915E-01  (-0.3919758E-02)
 number of electron     866.0000111 magnetization 
 augmentation part      149.8237764 magnetization 

 Broyden mixing:
  rms(total) = 0.75022E-01    rms(broyden)= 0.75022E-01
  rms(prec ) = 0.15421E+00
  weight for this iteration     100.00

 eigenvalues of (default mixing * dielectric matrix)
  average eigenvalue GAMMA=   0.8338
  2.3199  1.6263  1.6263  1.5398  0.8567  0.8567  0.5623  0.5623  0.4069  0.3161
  0.2922  0.2505  0.2330  0.2245

 Free energy of the ion-electron system (eV)
  ---------------------------------------------------
  alpha Z        PSCENC =      3183.80401474
  Ewald energy   TEWEN  =    384477.10216308
  -Hartree energ DENC   =   -489145.89879015
  -exchange      EXHF   =         0.00000000
  -V(xc)+E(xc)   XCENC  =      4020.54097958
  PAW double counting   =     99382.47536844   -98451.49684749
  entropy T*S    EENTRO =        -0.25821054
  eigenvalues    EBANDS =    -18953.30177409
  atomic energy  EATOM  =    114847.16282159
  Solvation  Ediel_sol  =         0.00000000
  ---------------------------------------------------
  free energy    TOTEN  =      -639.87027485 eV

  energy without entropy =     -639.61206430  energy(sigma->0) =     -639.74116958


--------------------------------------------------------------------------------------------------------




--------------------------------------- Iteration      1(  20)  ---------------------------------------


    POTLOK:  cpu time     10.1137: real time      1.6401
    SETDIJ:  cpu time      1.0349: real time      0.1485
     EDDAV:  cpu time    156.4337: real time     22.4444
       DOS:  cpu time      0.0386: real time      0.0055
    CHARGE:  cpu time      2.9252: real time      0.7198
    MIXING:  cpu time      1.0564: real time      0.1510
    --------------------------------------------
      LOOP:  cpu time    171.6025: real time     25.1093

 eigenvalue-minimisations  : 13752
 total energy-change (2. order) : 0.7986805E-01  (-0.4238615E-02)
 number of electron     866.0000111 magnetization 
 augmentation part      149.8095728 magnetization 

 Broyden mixing:
  rms(total) = 0.68334E-01    rms(broyden)= 0.68334E-01
  rms(prec ) = 0.12836E+00
  weight for this iteration     100.00

 eigenvalues of (default mixing * dielectric matrix)
  average eigenvalue GAMMA=   0.8427
  1.9726  1.9726  1.7103  1.7103  0.9666  0.9666  0.5745  0.5745  0.4997  0.3791
  0.3175  0.2928  0.2500  0.2311  0.2229

 Free energy of the ion-electron system (eV)
  ---------------------------------------------------
  alpha Z        PSCENC =      3183.80401474
  Ewald energy   TEWEN  =    384477.10216308
  -Hartree energ DENC   =   -489229.31795354
  -exchange      EXHF   =         0.00000000
  -V(xc)+E(xc)   XCENC  =      4020.64812787
  PAW double counting   =     99425.37238528   -98494.44884544
  entropy T*S    EENTRO =        -0.25922615
  eigenvalues    EBANDS =    -18869.85389423
  atomic energy  EATOM  =    114847.16282159
  Solvation  Ediel_sol  =         0.00000000
  ---------------------------------------------------
  free energy    TOTEN  =      -639.79040680 eV

  energy without entropy =     -639.53118065  energy(sigma->0) =     -639.66079372


--------------------------------------------------------------------------------------------------------




--------------------------------------- Iteration      1(  21)  ---------------------------------------


    POTLOK:  cpu time     10.0115: real time      1.6178
    SETDIJ:  cpu time      1.0924: real time      0.1561
     EDDAV:  cpu time    156.4503: real time     22.4734
       DOS:  cpu time      0.0343: real time      0.0049
    CHARGE:  cpu time      3.0238: real time      0.7276
    MIXING:  cpu time      1.0833: real time      0.1548
    --------------------------------------------
      LOOP:  cpu time    171.6955: real time     25.1347

 eigenvalue-minimisations  : 13688
 total energy-change (2. order) : 0.6081216E-01  (-0.3860039E-02)
 number of electron     866.0000111 magnetization 
 augmentation part      149.7681282 magnetization 

 Broyden mixing:
  rms(total) = 0.68733E-01    rms(broyden)= 0.68733E-01
  rms(prec ) = 0.10839E+00
  weight for this iteration     100.00

 eigenvalues of (default mixing * dielectric matrix)
  average eigenvalue GAMMA=   0.8852
  2.5449  2.5449  1.4453  1.4453  1.4533  0.7604  0.7604  0.5703  0.5703  0.4143
  0.3439  0.3153  0.2932  0.2473  0.2314  0.2228

 Free energy of the ion-electron system (eV)
  ---------------------------------------------------
  alpha Z        PSCENC =      3183.80401474
  Ewald energy   TEWEN  =    384477.10216308
  -Hartree energ DENC   =   -489303.64775138
  -exchange      EXHF   =         0.00000000
  -V(xc)+E(xc)   XCENC  =      4020.80650834
  PAW double counting   =     99460.43626772   -98529.27546027
  entropy T*S    EENTRO =        -0.26137859
  eigenvalues    EBANDS =    -18795.85677987
  atomic energy  EATOM  =    114847.16282159
  Solvation  Ediel_sol  =         0.00000000
  ---------------------------------------------------
  free energy    TOTEN  =      -639.72959464 eV

  energy without entropy =     -639.46821605  energy(sigma->0) =     -639.59890534


--------------------------------------------------------------------------------------------------------




--------------------------------------- Iteration      1(  22)  ---------------------------------------


    POTLOK:  cpu time     10.0165: real time      1.6178
    SETDIJ:  cpu time      1.6497: real time      0.2365
     EDDAV:  cpu time    153.4910: real time     22.0983
       DOS:  cpu time      0.0100: real time      0.0050
    CHARGE:  cpu time      2.3010: real time      0.7213
    MIXING:  cpu time      1.1358: real time      0.1624
    --------------------------------------------
      LOOP:  cpu time    168.6040: real time     24.8414

 eigenvalue-minimisations  : 13344
 total energy-change (2. order) : 0.5421395E-01  (-0.4293592E-02)
 number of electron     866.0000111 magnetization 
 augmentation part      149.7427054 magnetization 

 Broyden mixing:
  rms(total) = 0.78643E-01    rms(broyden)= 0.78643E-01
  rms(prec ) = 0.10518E+00
  weight for this iteration     100.00

 eigenvalues of (default mixing * dielectric matrix)
  average eigenvalue GAMMA=   0.9092
  2.8522  2.8522  1.5091  1.5091  1.5212  0.8142  0.8142  0.5728  0.5728  0.4763
  0.3632  0.3139  0.2989  0.2860  0.2465  0.2312  0.2229

 Free energy of the ion-electron system (eV)
  ---------------------------------------------------
  alpha Z        PSCENC =      3183.80401474
  Ewald energy   TEWEN  =    384477.10216308
  -Hartree energ DENC   =   -489380.88994644
  -exchange      EXHF   =         0.00000000
  -V(xc)+E(xc)   XCENC  =      4020.95244155
  PAW double counting   =     99476.68952763   -98545.39354587
  entropy T*S    EENTRO =        -0.26182451
  eigenvalues    EBANDS =    -18718.84103246
  atomic energy  EATOM  =    114847.16282159
  Solvation  Ediel_sol  =         0.00000000
  ---------------------------------------------------
  free energy    TOTEN  =      -639.67538069 eV

  energy without entropy =     -639.41355618  energy(sigma->0) =     -639.54446843


--------------------------------------------------------------------------------------------------------




--------------------------------------- Iteration      1(  23)  ---------------------------------------


    POTLOK:  cpu time      9.9611: real time      1.6098
    SETDIJ:  cpu time      1.1632: real time      0.1662
     EDDAV:  cpu time    152.9365: real time     21.9144
       DOS:  cpu time      0.0365: real time      0.0052
    CHARGE:  cpu time      3.0103: real time      0.7204
    MIXING:  cpu time      1.1710: real time      0.1673
    --------------------------------------------
      LOOP:  cpu time    168.2786: real time     24.5834

 eigenvalue-minimisations  : 13136
 total energy-change (2. order) : 0.4935663E-01  (-0.2729458E-02)
 number of electron     866.0000111 magnetization 
 augmentation part      149.7500257 magnetization 

 Broyden mixing:
  rms(total) = 0.55879E-01    rms(broyden)= 0.55879E-01
  rms(prec ) = 0.79494E-01
  weight for this iteration     100.00

 eigenvalues of (default mixing * dielectric matrix)
  average eigenvalue GAMMA=   0.9251
  3.3329  2.7201  1.6167  1.6167  1.4790  0.8640  0.8640  0.6121  0.5791  0.5791
  0.4009  0.4009  0.3167  0.2924  0.2752  0.2484  0.2310  0.2227

 Free energy of the ion-electron system (eV)
  ---------------------------------------------------
  alpha Z        PSCENC =      3183.80401474
  Ewald energy   TEWEN  =    384477.10216308
  -Hartree energ DENC   =   -489435.75113753
  -exchange      EXHF   =         0.00000000
  -V(xc)+E(xc)   XCENC  =      4020.95050405
  PAW double counting   =     99435.76687710   -98504.64707448
  entropy T*S    EENTRO =        -0.26205319
  eigenvalues    EBANDS =    -18663.75213941
  atomic energy  EATOM  =    114847.16282159
  Solvation  Ediel_sol  =         0.00000000
  ---------------------------------------------------
  free energy    TOTEN  =      -639.62602406 eV

  energy without entropy =     -639.36397087  energy(sigma->0) =     -639.49499746


--------------------------------------------------------------------------------------------------------




--------------------------------------- Iteration      1(  24)  ---------------------------------------


    POTLOK:  cpu time      9.8811: real time      1.5997
    SETDIJ:  cpu time      1.0651: real time      0.1528
     EDDAV:  cpu time    151.9640: real time     21.8410
       DOS:  cpu time      0.0102: real time      0.0051
    CHARGE:  cpu time      2.3398: real time      0.7176
    MIXING:  cpu time      1.2125: real time      0.1732
    --------------------------------------------
      LOOP:  cpu time    166.4726: real time     24.4894

 eigenvalue-minimisations  : 13200
 total energy-change (2. order) : 0.3755082E-01  (-0.1940709E-02)
 number of electron     866.0000111 magnetization 
 augmentation part      149.7506273 magnetization 

 Broyden mixing:
  rms(total) = 0.39190E-01    rms(broyden)= 0.39190E-01
  rms(prec ) = 0.59917E-01
  weight for this iteration     100.00

 eigenvalues of (default mixing * dielectric matrix)
  average eigenvalue GAMMA=   1.0079
  4.6806  2.7275  1.7943  1.7943  1.1691  1.1691  1.1576  0.7339  0.5871  0.5871
  0.4703  0.3866  0.3190  0.3190  0.2932  0.2227  0.2315  0.2458  0.2614

 Free energy of the ion-electron system (eV)
  ---------------------------------------------------
  alpha Z        PSCENC =      3183.80401474
  Ewald energy   TEWEN  =    384477.10216308
  -Hartree energ DENC   =   -489486.58046249
  -exchange      EXHF   =         0.00000000
  -V(xc)+E(xc)   XCENC  =      4020.90719096
  PAW double counting   =     99375.65381771   -98444.74329617
  entropy T*S    EENTRO =        -0.26242914
  eigenvalues    EBANDS =    -18612.63229352
  atomic energy  EATOM  =    114847.16282159
  Solvation  Ediel_sol  =         0.00000000
  ---------------------------------------------------
  free energy    TOTEN  =      -639.58847324 eV

  energy without entropy =     -639.32604410  energy(sigma->0) =     -639.45725867


--------------------------------------------------------------------------------------------------------




--------------------------------------- Iteration      1(  25)  ---------------------------------------


    POTLOK:  cpu time      9.7936: real time      1.5868
    SETDIJ:  cpu time      1.0910: real time      0.1569
     EDDAV:  cpu time    148.1552: real time     21.2652
       DOS:  cpu time      0.0353: real time      0.0051
    CHARGE:  cpu time      2.9966: real time      0.7192
    MIXING:  cpu time      1.2719: real time      0.1817
    --------------------------------------------
      LOOP:  cpu time    163.3434: real time     23.9148

 eigenvalue-minimisations  : 12736
 total energy-change (2. order) : 0.2169473E-01  (-0.2393202E-02)
 number of electron     866.0000111 magnetization 
 augmentation part      149.7507404 magnetization 

 Broyden mixing:
  rms(total) = 0.40523E-01    rms(broyden)= 0.40523E-01
  rms(prec ) = 0.54006E-01
  weight for this iteration     100.00

 eigenvalues of (default mixing * dielectric matrix)
  average eigenvalue GAMMA=   1.0288
  5.5733  2.7602  1.8057  1.8057  1.2831  1.2831  1.0803  0.6982  0.5947  0.5947
  0.5081  0.3685  0.3685  0.3201  0.2951  0.2927  0.2229  0.2312  0.2456  0.2456

 Free energy of the ion-electron system (eV)
  ---------------------------------------------------
  alpha Z        PSCENC =      3183.80401474
  Ewald energy   TEWEN  =    384477.10216308
  -Hartree energ DENC   =   -489563.05915421
  -exchange      EXHF   =         0.00000000
  -V(xc)+E(xc)   XCENC  =      4020.85976552
  PAW double counting   =     99292.22635852   -98361.56250139
  entropy T*S    EENTRO =        -0.26351335
  eigenvalues    EBANDS =    -18535.83673301
  atomic energy  EATOM  =    114847.16282159
  Solvation  Ediel_sol  =         0.00000000
  ---------------------------------------------------
  free energy    TOTEN  =      -639.56677851 eV

  energy without entropy =     -639.30326516  energy(sigma->0) =     -639.43502184


--------------------------------------------------------------------------------------------------------




--------------------------------------- Iteration      1(  26)  ---------------------------------------


    POTLOK:  cpu time      9.9389: real time      1.6158
    SETDIJ:  cpu time      1.1675: real time      0.1677
     EDDAV:  cpu time    161.2282: real time     23.2787
       DOS:  cpu time      0.0095: real time      0.0048
    CHARGE:  cpu time      2.3497: real time      0.7203
    MIXING:  cpu time      1.2977: real time      0.1855
    --------------------------------------------
      LOOP:  cpu time    175.9915: real time     25.9727

 eigenvalue-minimisations  : 14248
 total energy-change (2. order) :-0.4013932E-02  (-0.1079963E-02)
 number of electron     866.0000111 magnetization 
 augmentation part      149.7552662 magnetization 

 Broyden mixing:
  rms(total) = 0.36226E-01    rms(broyden)= 0.36226E-01
  rms(prec ) = 0.45093E-01
  weight for this iteration     100.00

 eigenvalues of (default mixing * dielectric matrix)
  average eigenvalue GAMMA=   1.0682
  6.5924  2.7874  1.7984  1.7984  1.3237  1.3237  1.1938  0.7442  0.7442  0.5619
  0.5619  0.4211  0.4211  0.3462  0.3165  0.2930  0.2683  0.2478  0.2227  0.2312
  0.2339

 Free energy of the ion-electron system (eV)
  ---------------------------------------------------
  alpha Z        PSCENC =      3183.80401474
  Ewald energy   TEWEN  =    384477.10216308
  -Hartree energ DENC   =   -489587.11056688
  -exchange      EXHF   =         0.00000000
  -V(xc)+E(xc)   XCENC  =      4020.83545805
  PAW double counting   =     99269.65311259   -98339.08416116
  entropy T*S    EENTRO =        -0.26382327
  eigenvalues    EBANDS =    -18511.66981118
  atomic energy  EATOM  =    114847.16282159
  Solvation  Ediel_sol  =         0.00000000
  ---------------------------------------------------
  free energy    TOTEN  =      -639.57079244 eV

  energy without entropy =     -639.30696917  energy(sigma->0) =     -639.43888080


--------------------------------------------------------------------------------------------------------




--------------------------------------- Iteration      1(  27)  ---------------------------------------


    POTLOK:  cpu time      9.8292: real time      1.5914
    SETDIJ:  cpu time      1.0397: real time      0.1486
     EDDAV:  cpu time    149.9394: real time     21.5357
       DOS:  cpu time      0.0373: real time      0.0053
    CHARGE:  cpu time      2.7550: real time      0.7232
    MIXING:  cpu time      1.3711: real time      0.1987
    --------------------------------------------
      LOOP:  cpu time    164.9717: real time     24.2029

 eigenvalue-minimisations  : 12952
 total energy-change (2. order) :-0.1765251E-01  (-0.9226036E-03)
 number of electron     866.0000111 magnetization 
 augmentation part      149.7577817 magnetization 

 Broyden mixing:
  rms(total) = 0.32488E-01    rms(broyden)= 0.32488E-01
  rms(prec ) = 0.40522E-01
  weight for this iteration     100.00

 eigenvalues of (default mixing * dielectric matrix)
  average eigenvalue GAMMA=   1.1630
  8.6066  2.8779  1.8027  1.8027  1.7851  1.2532  1.2532  0.8527  0.8527  0.5752
  0.5752  0.4378  0.4378  0.3693  0.3193  0.3029  0.2967  0.2612  0.2466  0.2316
  0.2222  0.2233

 Free energy of the ion-electron system (eV)
  ---------------------------------------------------
  alpha Z        PSCENC =      3183.80401474
  Ewald energy   TEWEN  =    384477.10216308
  -Hartree energ DENC   =   -489597.01984519
  -exchange      EXHF   =         0.00000000
  -V(xc)+E(xc)   XCENC  =      4020.80550895
  PAW double counting   =     99277.67189691   -98347.18443710
  entropy T*S    EENTRO =        -0.26364412
  eigenvalues    EBANDS =    -18501.66692380
  atomic energy  EATOM  =    114847.16282159
  Solvation  Ediel_sol  =         0.00000000
  ---------------------------------------------------
  free energy    TOTEN  =      -639.58844495 eV

  energy without entropy =     -639.32480083  energy(sigma->0) =     -639.45662289


--------------------------------------------------------------------------------------------------------




--------------------------------------- Iteration      1(  28)  ---------------------------------------


    POTLOK:  cpu time      9.8277: real time      1.5935
    SETDIJ:  cpu time      1.3616: real time      0.1955
     EDDAV:  cpu time    156.1758: real time     22.4061
       DOS:  cpu time      0.0374: real time      0.0053
    CHARGE:  cpu time      2.7540: real time      0.7212
    MIXING:  cpu time      1.4195: real time      0.2027
    --------------------------------------------
      LOOP:  cpu time    171.5761: real time     25.1244

 eigenvalue-minimisations  : 13656
 total energy-change (2. order) :-0.1746280E-01  (-0.7604440E-03)
 number of electron     866.0000111 magnetization 
 augmentation part      149.7522141 magnetization 

 Broyden mixing:
  rms(total) = 0.14768E-01    rms(broyden)= 0.14768E-01
  rms(prec ) = 0.20548E-01
  weight for this iteration     100.00

 eigenvalues of (default mixing * dielectric matrix)
  average eigenvalue GAMMA=   1.2351
 10.0159  3.2047  2.0319  1.7637  1.7637  1.4033  1.0738  1.0738  0.8192  0.7637
  0.5833  0.5833  0.4730  0.3944  0.3692  0.3154  0.3005  0.2916  0.2604  0.2469
  0.2313  0.2229  0.2217

 Free energy of the ion-electron system (eV)
  ---------------------------------------------------
  alpha Z        PSCENC =      3183.80401474
  Ewald energy   TEWEN  =    384477.10216308
  -Hartree energ DENC   =   -489607.66640674
  -exchange      EXHF   =         0.00000000
  -V(xc)+E(xc)   XCENC  =      4020.78045425
  PAW double counting   =     99290.41830959   -98360.01298445
  entropy T*S    EENTRO =        -0.26359962
  eigenvalues    EBANDS =    -18490.93068019
  atomic energy  EATOM  =    114847.16282159
  Solvation  Ediel_sol  =         0.00000000
  ---------------------------------------------------
  free energy    TOTEN  =      -639.60590775 eV

  energy without entropy =     -639.34230814  energy(sigma->0) =     -639.47410795


--------------------------------------------------------------------------------------------------------




--------------------------------------- Iteration      1(  29)  ---------------------------------------


    POTLOK:  cpu time      9.7805: real time      1.5828
    SETDIJ:  cpu time      1.3120: real time      0.1873
     EDDAV:  cpu time    151.8642: real time     21.7469
       DOS:  cpu time      0.0375: real time      0.0054
    CHARGE:  cpu time      3.0032: real time      0.7190
    MIXING:  cpu time      1.4648: real time      0.2093
    --------------------------------------------
      LOOP:  cpu time    167.4621: real time     24.4506

 eigenvalue-minimisations  : 13120
 total energy-change (2. order) :-0.1797761E-01  (-0.6782457E-03)
 number of electron     866.0000111 magnetization 
 augmentation part      149.7514710 magnetization 

 Broyden mixing:
  rms(total) = 0.12178E-01    rms(broyden)= 0.12178E-01
  rms(prec ) = 0.15613E-01
  weight for this iteration     100.00

 eigenvalues of (default mixing * dielectric matrix)
  average eigenvalue GAMMA=   1.3201
 11.1716  4.0172  2.2322  1.7683  1.7683  1.7879  1.1866  1.1866  0.8205  0.8205
  0.5794  0.5794  0.4636  0.4636  0.3904  0.3579  0.3158  0.2993  0.2909  0.2594
  0.2473  0.2312  0.2228  0.2218

 Free energy of the ion-electron system (eV)
  ---------------------------------------------------
  alpha Z        PSCENC =      3183.80401474
  Ewald energy   TEWEN  =    384477.10216308
  -Hartree energ DENC   =   -489623.69220257
  -exchange      EXHF   =         0.00000000
  -V(xc)+E(xc)   XCENC  =      4020.74777954
  PAW double counting   =     99290.37720220   -98360.07575672
  entropy T*S    EENTRO =        -0.26352342
  eigenvalues    EBANDS =    -18474.78638380
  atomic energy  EATOM  =    114847.16282159
  Solvation  Ediel_sol  =         0.00000000
  ---------------------------------------------------
  free energy    TOTEN  =      -639.62388537 eV

  energy without entropy =     -639.36036194  energy(sigma->0) =     -639.49212365


--------------------------------------------------------------------------------------------------------




--------------------------------------- Iteration      1(  30)  ---------------------------------------


    POTLOK:  cpu time      9.7731: real time      1.5826
    SETDIJ:  cpu time      1.1322: real time      0.1626
     EDDAV:  cpu time    158.4335: real time     22.7259
       DOS:  cpu time      0.0593: real time      0.0091
    CHARGE:  cpu time      2.3909: real time      0.7207
    MIXING:  cpu time      1.5352: real time      0.2194
    --------------------------------------------
      LOOP:  cpu time    173.3242: real time     25.4203

 eigenvalue-minimisations  : 13872
 total energy-change (2. order) :-0.1148105E-01  (-0.3492529E-03)
 number of electron     866.0000111 magnetization 
 augmentation part      149.7521049 magnetization 

 Broyden mixing:
  rms(total) = 0.11456E-01    rms(broyden)= 0.11456E-01
  rms(prec ) = 0.13459E-01
  weight for this iteration     100.00

 eigenvalues of (default mixing * dielectric matrix)
  average eigenvalue GAMMA=   1.3942
 12.6631  4.7273  2.2767  1.8230  1.8230  1.8755  1.2346  1.2346  0.8549  0.8549
  0.5875  0.5875  0.5737  0.4952  0.4132  0.3734  0.3697  0.3168  0.2978  0.2918
  0.2595  0.2469  0.2313  0.2229  0.2215

 Free energy of the ion-electron system (eV)
  ---------------------------------------------------
  alpha Z        PSCENC =      3183.80401474
  Ewald energy   TEWEN  =    384477.10216308
  -Hartree energ DENC   =   -489636.20500375
  -exchange      EXHF   =         0.00000000
  -V(xc)+E(xc)   XCENC  =      4020.72551732
  PAW double counting   =     99286.89346550   -98356.62412268
  entropy T*S    EENTRO =        -0.26346752
  eigenvalues    EBANDS =    -18462.23075469
  atomic energy  EATOM  =    114847.16282159
  Solvation  Ediel_sol  =         0.00000000
  ---------------------------------------------------
  free energy    TOTEN  =      -639.63536642 eV

  energy without entropy =     -639.37189889  energy(sigma->0) =     -639.50363266


--------------------------------------------------------------------------------------------------------




--------------------------------------- Iteration      1(  31)  ---------------------------------------


    POTLOK:  cpu time      9.8302: real time      1.5959
    SETDIJ:  cpu time      1.0605: real time      0.1516
     EDDAV:  cpu time    151.3808: real time     21.7332
       DOS:  cpu time      0.0339: real time      0.0049
    CHARGE:  cpu time      3.0105: real time      0.7212
    MIXING:  cpu time      1.5551: real time      0.2231
    --------------------------------------------
      LOOP:  cpu time    166.8709: real time     24.4298

 eigenvalue-minimisations  : 13016
 total energy-change (2. order) :-0.7058333E-02  (-0.1744453E-03)
 number of electron     866.0000111 magnetization 
 augmentation part      149.7501862 magnetization 

 Broyden mixing:
  rms(total) = 0.10994E-01    rms(broyden)= 0.10994E-01
  rms(prec ) = 0.13219E-01
  weight for this iteration     100.00

 eigenvalues of (default mixing * dielectric matrix)
  average eigenvalue GAMMA=   1.5355
 15.9869  5.6343  2.3923  1.9918  1.7939  1.7939  1.2251  1.2251  0.9865  0.9865
  0.7094  0.5836  0.5836  0.4898  0.4344  0.3874  0.3649  0.3169  0.2972  0.2922
  0.2617  0.2617  0.2470  0.2312  0.2229  0.2216

 Free energy of the ion-electron system (eV)
  ---------------------------------------------------
  alpha Z        PSCENC =      3183.80401474
  Ewald energy   TEWEN  =    384477.10216308
  -Hartree energ DENC   =   -489638.57811718
  -exchange      EXHF   =         0.00000000
  -V(xc)+E(xc)   XCENC  =      4020.72806337
  PAW double counting   =     99296.65412809   -98366.32841424
  entropy T*S    EENTRO =        -0.26351432
  eigenvalues    EBANDS =    -18459.92356988
  atomic energy  EATOM  =    114847.16282159
  Solvation  Ediel_sol  =         0.00000000
  ---------------------------------------------------
  free energy    TOTEN  =      -639.64242475 eV

  energy without entropy =     -639.37891043  energy(sigma->0) =     -639.51066759


--------------------------------------------------------------------------------------------------------




--------------------------------------- Iteration      1(  32)  ---------------------------------------


    POTLOK:  cpu time      9.9278: real time      1.6100
    SETDIJ:  cpu time      1.0354: real time      0.1491
     EDDAV:  cpu time    153.9282: real time     22.1148
       DOS:  cpu time      0.0353: real time      0.0050
    CHARGE:  cpu time      2.3891: real time      0.7208
    MIXING:  cpu time      1.5980: real time      0.2294
    --------------------------------------------
      LOOP:  cpu time    168.9138: real time     24.8291

 eigenvalue-minimisations  : 13344
 total energy-change (2. order) :-0.5124913E-02  (-0.1283468E-03)
 number of electron     866.0000111 magnetization 
 augmentation part      149.7490221 magnetization 

 Broyden mixing:
  rms(total) = 0.49560E-02    rms(broyden)= 0.49559E-02
  rms(prec ) = 0.59212E-02
  weight for this iteration     100.00

 eigenvalues of (default mixing * dielectric matrix)
  average eigenvalue GAMMA=   1.5662
 17.5500  5.8666  2.4265  2.0584  1.7691  1.7691  1.3679  1.0765  1.0765  0.9870
  0.7065  0.5828  0.5828  0.5217  0.4516  0.4212  0.3714  0.3714  0.3155  0.3001
  0.2914  0.2599  0.2312  0.2229  0.2216  0.2469  0.2406

 Free energy of the ion-electron system (eV)
  ---------------------------------------------------
  alpha Z        PSCENC =      3183.80401474
  Ewald energy   TEWEN  =    384477.10216308
  -Hartree energ DENC   =   -489638.87377750
  -exchange      EXHF   =         0.00000000
  -V(xc)+E(xc)   XCENC  =      4020.73389385
  PAW double counting   =     99307.06648287   -98376.67741098
  entropy T*S    EENTRO =        -0.26348893
  eigenvalues    EBANDS =    -18459.70224838
  atomic energy  EATOM  =    114847.16282159
  Solvation  Ediel_sol  =         0.00000000
  ---------------------------------------------------
  free energy    TOTEN  =      -639.64754966 eV

  energy without entropy =     -639.38406073  energy(sigma->0) =     -639.51580520


--------------------------------------------------------------------------------------------------------




--------------------------------------- Iteration      1(  33)  ---------------------------------------


    POTLOK:  cpu time      9.9679: real time      1.6177
    SETDIJ:  cpu time      1.0404: real time      0.1487
     EDDAV:  cpu time    158.9267: real time     22.8383
       DOS:  cpu time      0.0352: real time      0.0050
    CHARGE:  cpu time      3.0067: real time      0.7220
    MIXING:  cpu time      1.6754: real time      0.2405
    --------------------------------------------
      LOOP:  cpu time    174.6521: real time     25.5723

 eigenvalue-minimisations  : 13888
 total energy-change (2. order) :-0.1351329E-02  (-0.3052208E-04)
 number of electron     866.0000111 magnetization 
 augmentation part      149.7482223 magnetization 

 Broyden mixing:
  rms(total) = 0.30877E-02    rms(broyden)= 0.30877E-02
  rms(prec ) = 0.35828E-02
  weight for this iteration     100.00

 eigenvalues of (default mixing * dielectric matrix)
  average eigenvalue GAMMA=   1.5984
 18.9245  6.0256  2.4508  2.1485  1.7614  1.7614  1.4928  1.1254  1.1254  0.9130
  0.7769  0.7769  0.5811  0.5811  0.4861  0.4433  0.3824  0.3716  0.3155  0.3060
  0.2989  0.2909  0.2594  0.2470  0.2229  0.2215  0.2313  0.2333

 Free energy of the ion-electron system (eV)
  ---------------------------------------------------
  alpha Z        PSCENC =      3183.80401474
  Ewald energy   TEWEN  =    384477.10216308
  -Hartree energ DENC   =   -489639.09967741
  -exchange      EXHF   =         0.00000000
  -V(xc)+E(xc)   XCENC  =      4020.73824262
  PAW double counting   =     99309.55051844   -98379.13503496
  entropy T*S    EENTRO =        -0.26351061
  eigenvalues    EBANDS =    -18459.50843847
  atomic energy  EATOM  =    114847.16282159
  Solvation  Ediel_sol  =         0.00000000
  ---------------------------------------------------
  free energy    TOTEN  =      -639.64890099 eV

  energy without entropy =     -639.38539038  energy(sigma->0) =     -639.51714569


--------------------------------------------------------------------------------------------------------




--------------------------------------- Iteration      1(  34)  ---------------------------------------


    POTLOK:  cpu time     10.0033: real time      1.6214
    SETDIJ:  cpu time      1.0359: real time      0.1487
     EDDAV:  cpu time    142.6004: real time     21.2317
       DOS:  cpu time      0.0097: real time      0.0049
    CHARGE:  cpu time      2.3572: real time      0.7249
    MIXING:  cpu time      1.7184: real time      0.2467
    --------------------------------------------
      LOOP:  cpu time    157.7248: real time     23.9782

 eigenvalue-minimisations  : 12536
 total energy-change (2. order) :-0.1134412E-02  (-0.1483668E-04)
 number of electron     866.0000111 magnetization 
 augmentation part      149.7473198 magnetization 

 Broyden mixing:
  rms(total) = 0.23843E-02    rms(broyden)= 0.23843E-02
  rms(prec ) = 0.27444E-02
  weight for this iteration     100.00

 eigenvalues of (default mixing * dielectric matrix)
  average eigenvalue GAMMA=   1.6062
 19.8032  6.1175  2.4978  2.2118  1.7755  1.7755  1.5653  1.1641  1.1641  0.9148
  0.9148  0.7772  0.5817  0.5817  0.5119  0.4782  0.3956  0.3956  0.3538  0.3160
  0.3014  0.2915  0.2820  0.2598  0.2469  0.2312  0.2229  0.2216  0.2271

 Free energy of the ion-electron system (eV)
  ---------------------------------------------------
  alpha Z        PSCENC =      3183.80401474
  Ewald energy   TEWEN  =    384477.10216308
  -Hartree energ DENC   =   -489639.27894653
  -exchange      EXHF   =         0.00000000
  -V(xc)+E(xc)   XCENC  =      4020.74162988
  PAW double counting   =     99309.97065586   -98379.53173503
  entropy T*S    EENTRO =        -0.26353243
  eigenvalues    EBANDS =    -18459.35710657
  atomic energy  EATOM  =    114847.16282159
  Solvation  Ediel_sol  =         0.00000000
  ---------------------------------------------------
  free energy    TOTEN  =      -639.65003541 eV

  energy without entropy =     -639.38650298  energy(sigma->0) =     -639.51826919


--------------------------------------------------------------------------------------------------------




--------------------------------------- Iteration      1(  35)  ---------------------------------------


    POTLOK:  cpu time     10.0301: real time      1.6266
    SETDIJ:  cpu time      1.0353: real time      0.1486
     EDDAV:  cpu time    124.7284: real time     19.7531
       DOS:  cpu time      0.0345: real time      0.0049
    CHARGE:  cpu time      2.6493: real time      0.7203
    MIXING:  cpu time      1.8200: real time      0.2613
    --------------------------------------------
      LOOP:  cpu time    140.2975: real time     22.5149

 eigenvalue-minimisations  : 11456
 total energy-change (2. order) :-0.9147256E-03  (-0.1170653E-04)
 number of electron     866.0000111 magnetization 
 augmentation part      149.7470979 magnetization 

 Broyden mixing:
  rms(total) = 0.14217E-02    rms(broyden)= 0.14217E-02
  rms(prec ) = 0.16976E-02
  weight for this iteration     100.00

 eigenvalues of (default mixing * dielectric matrix)
  average eigenvalue GAMMA=   1.6268
 20.5725  6.2354  2.6094  2.3964  1.7858  1.7858  1.4886  1.4886  1.0465  1.0465
  1.0080  0.7555  0.7555  0.5819  0.5819  0.4931  0.4210  0.4210  0.3687  0.3687
  0.3163  0.2992  0.2914  0.2765  0.2595  0.2469  0.2312  0.2229  0.2216  0.2269

 Free energy of the ion-electron system (eV)
  ---------------------------------------------------
  alpha Z        PSCENC =      3183.80401474
  Ewald energy   TEWEN  =    384477.10216308
  -Hartree energ DENC   =   -489639.15555943
  -exchange      EXHF   =         0.00000000
  -V(xc)+E(xc)   XCENC  =      4020.74147432
  PAW double counting   =     99308.84233670   -98378.39100958
  entropy T*S    EENTRO =        -0.26354351
  eigenvalues    EBANDS =    -18459.49364803
  atomic energy  EATOM  =    114847.16282159
  Solvation  Ediel_sol  =         0.00000000
  ---------------------------------------------------
  free energy    TOTEN  =      -639.65095013 eV

  energy without entropy =     -639.38740662  energy(sigma->0) =     -639.51917838


--------------------------------------------------------------------------------------------------------




--------------------------------------- Iteration      1(  36)  ---------------------------------------


    POTLOK:  cpu time     10.0205: real time      1.6248
    SETDIJ:  cpu time      1.0190: real time      0.1503
     EDDAV:  cpu time    115.9392: real time     19.0233
       DOS:  cpu time      0.0359: real time      0.0051
    CHARGE:  cpu time      3.0144: real time      0.7225
    MIXING:  cpu time      1.8635: real time      0.2690
    --------------------------------------------
      LOOP:  cpu time    131.8927: real time     21.7950

 eigenvalue-minimisations  : 10800
 total energy-change (2. order) :-0.7762638E-03  (-0.1418905E-04)
 number of electron     866.0000111 magnetization 
 augmentation part      149.7476008 magnetization 

 Broyden mixing:
  rms(total) = 0.11189E-02    rms(broyden)= 0.11189E-02
  rms(prec ) = 0.13691E-02
  weight for this iteration     100.00

 eigenvalues of (default mixing * dielectric matrix)
  average eigenvalue GAMMA=   1.6354
 21.1071  6.3846  2.9678  2.5063  1.7636  1.7636  1.6422  1.6422  1.0921  1.0921
  0.9827  0.7798  0.7798  0.5814  0.5814  0.5080  0.4396  0.4396  0.3831  0.3572
  0.3201  0.3126  0.2989  0.2923  0.2716  0.2594  0.2470  0.2312  0.2229  0.2215
  0.2267

 Free energy of the ion-electron system (eV)
  ---------------------------------------------------
  alpha Z        PSCENC =      3183.80401474
  Ewald energy   TEWEN  =    384477.10216308
  -Hartree energ DENC   =   -489638.76630238
  -exchange      EXHF   =         0.00000000
  -V(xc)+E(xc)   XCENC  =      4020.73856959
  PAW double counting   =     99307.13293184   -98376.67693875
  entropy T*S    EENTRO =        -0.26355315
  eigenvalues    EBANDS =    -18459.88543295
  atomic energy  EATOM  =    114847.16282159
  Solvation  Ediel_sol  =         0.00000000
  ---------------------------------------------------
  free energy    TOTEN  =      -639.65172639 eV

  energy without entropy =     -639.38817324  energy(sigma->0) =     -639.51994982


--------------------------------------------------------------------------------------------------------




--------------------------------------- Iteration      1(  37)  ---------------------------------------


    POTLOK:  cpu time     10.0081: real time      1.6191
    SETDIJ:  cpu time      1.1146: real time      0.1594
     EDDAV:  cpu time    108.6477: real time     19.2205
       DOS:  cpu time      0.0355: real time      0.0051
    CHARGE:  cpu time      2.7272: real time      0.7288
    MIXING:  cpu time      1.8415: real time      0.2751
    --------------------------------------------
      LOOP:  cpu time    124.3746: real time     22.0079

 eigenvalue-minimisations  : 11000
 total energy-change (2. order) :-0.4244834E-03  (-0.8068291E-05)
 number of electron     866.0000111 magnetization 
 augmentation part      149.7480159 magnetization 

 Broyden mixing:
  rms(total) = 0.74837E-03    rms(broyden)= 0.74837E-03
  rms(prec ) = 0.82907E-03
  weight for this iteration     100.00

 eigenvalues of (default mixing * dielectric matrix)
  average eigenvalue GAMMA=   1.6235
 21.2012  6.5117  3.0723  2.5530  1.7839  1.7839  1.6525  1.6525  1.1083  1.1083
  1.0579  0.8068  0.8068  0.6989  0.5828  0.5828  0.4853  0.4451  0.4206  0.3745
  0.3745  0.3158  0.3057  0.2972  0.2914  0.2692  0.2595  0.2469  0.2312  0.2229
  0.2216  0.2266

 Free energy of the ion-electron system (eV)
  ---------------------------------------------------
  alpha Z        PSCENC =      3183.80401474
  Ewald energy   TEWEN  =    384477.10216308
  -Hartree energ DENC   =   -489638.41752398
  -exchange      EXHF   =         0.00000000
  -V(xc)+E(xc)   XCENC  =      4020.73669975
  PAW double counting   =     99306.22038041   -98375.76254297
  entropy T*S    EENTRO =        -0.26355790
  eigenvalues    EBANDS =    -18460.23460558
  atomic energy  EATOM  =    114847.16282159
  Solvation  Ediel_sol  =         0.00000000
  ---------------------------------------------------
  free energy    TOTEN  =      -639.65215088 eV

  energy without entropy =     -639.38859297  energy(sigma->0) =     -639.52037193


--------------------------------------------------------------------------------------------------------




--------------------------------------- Iteration      1(  38)  ---------------------------------------


    POTLOK:  cpu time     10.0376: real time      1.6346
    SETDIJ:  cpu time      1.0357: real time      0.1489
     EDDAV:  cpu time     95.5170: real time     17.5941
       DOS:  cpu time      0.0373: real time      0.0053
    CHARGE:  cpu time      2.9385: real time      0.7207
    MIXING:  cpu time      1.8987: real time      0.2875
    --------------------------------------------
      LOOP:  cpu time    111.4650: real time     20.3912

 eigenvalue-minimisations  :  9832
 total energy-change (2. order) :-0.1198501E-03  (-0.1254405E-05)
 number of electron     866.0000111 magnetization 
 augmentation part      149.7480602 magnetization 

 Broyden mixing:
  rms(total) = 0.50916E-03    rms(broyden)= 0.50916E-03
  rms(prec ) = 0.63636E-03
  weight for this iteration     100.00

 eigenvalues of (default mixing * dielectric matrix)
  average eigenvalue GAMMA=   1.6049
 21.2120  6.6017  3.1680  2.5511  1.8041  1.8041  1.6593  1.6593  1.2709  1.0893
  1.0893  0.8733  0.8733  0.7133  0.5825  0.5825  0.4996  0.4583  0.4583  0.3845
  0.3845  0.3609  0.3163  0.2983  0.2983  0.2907  0.2698  0.2596  0.2469  0.2312
  0.2229  0.2216  0.2266

 Free energy of the ion-electron system (eV)
  ---------------------------------------------------
  alpha Z        PSCENC =      3183.80401474
  Ewald energy   TEWEN  =    384477.10216308
  -Hartree energ DENC   =   -489638.18027341
  -exchange      EXHF   =         0.00000000
  -V(xc)+E(xc)   XCENC  =      4020.73614439
  PAW double counting   =     99306.29890694   -98375.84402955
  entropy T*S    EENTRO =        -0.26355372
  eigenvalues    EBANDS =    -18460.46846478
  atomic energy  EATOM  =    114847.16282159
  Solvation  Ediel_sol  =         0.00000000
  ---------------------------------------------------
  free energy    TOTEN  =      -639.65227073 eV

  energy without entropy =     -639.38871700  energy(sigma->0) =     -639.52049387


--------------------------------------------------------------------------------------------------------




--------------------------------------- Iteration      1(  39)  ---------------------------------------


    POTLOK:  cpu time     10.0173: real time      1.6208
    SETDIJ:  cpu time      1.0486: real time      0.1504
     EDDAV:  cpu time     76.4600: real time     16.3705
       DOS:  cpu time      0.0354: real time      0.0051
    CHARGE:  cpu time      3.0075: real time      0.7189
    MIXING:  cpu time      1.9339: real time      0.2993
    --------------------------------------------
      LOOP:  cpu time     92.5027: real time     19.1649

 eigenvalue-minimisations  :  8800
 total energy-change (2. order) :-0.5596968E-04  (-0.4138550E-06)
 number of electron     866.0000111 magnetization 
 augmentation part      149.7481162 magnetization 

 Broyden mixing:
  rms(total) = 0.38927E-03    rms(broyden)= 0.38927E-03
  rms(prec ) = 0.53932E-03
  weight for this iteration     100.00

 eigenvalues of (default mixing * dielectric matrix)
  average eigenvalue GAMMA=   1.5839
 21.1974  6.6665  3.2842  2.5381  1.8024  1.8024  1.6391  1.6391  1.5625  1.0982
  1.0982  0.8976  0.8976  0.6695  0.6695  0.5817  0.5817  0.4815  0.4544  0.4062
  0.3823  0.3668  0.3162  0.3013  0.3013  0.2907  0.2717  0.2598  0.2312  0.2216
  0.2229  0.2265  0.2465  0.2465

 Free energy of the ion-electron system (eV)
  ---------------------------------------------------
  alpha Z        PSCENC =      3183.80401474
  Ewald energy   TEWEN  =    384477.10216308
  -Hartree energ DENC   =   -489638.06018866
  -exchange      EXHF   =         0.00000000
  -V(xc)+E(xc)   XCENC  =      4020.73561254
  PAW double counting   =     99306.29301065   -98375.84163660
  entropy T*S    EENTRO =        -0.26355153
  eigenvalues    EBANDS =    -18460.58457251
  atomic energy  EATOM  =    114847.16282159
  Solvation  Ediel_sol  =         0.00000000
  ---------------------------------------------------
  free energy    TOTEN  =      -639.65232670 eV

  energy without entropy =     -639.38877517  energy(sigma->0) =     -639.52055094


--------------------------------------------------------------------------------------------------------




--------------------------------------- Iteration      1(  40)  ---------------------------------------


    POTLOK:  cpu time     10.0125: real time      1.6169
    SETDIJ:  cpu time      1.0746: real time      0.1535
     EDDAV:  cpu time     66.6620: real time     15.3927
       DOS:  cpu time      0.0375: real time      0.0054
    CHARGE:  cpu time      3.0054: real time      0.7183
    MIXING:  cpu time      1.9319: real time      0.3077
    --------------------------------------------
      LOOP:  cpu time     82.7239: real time     18.1945

 eigenvalue-minimisations  :  8136
 total energy-change (2. order) :-0.3224556E-04  (-0.2158858E-06)
 number of electron     866.0000111 magnetization 
 augmentation part      149.7481307 magnetization 

 Broyden mixing:
  rms(total) = 0.19936E-03    rms(broyden)= 0.19936E-03
  rms(prec ) = 0.33124E-03
  weight for this iteration     100.00

 eigenvalues of (default mixing * dielectric matrix)
  average eigenvalue GAMMA=   1.5777
 21.1410  6.7264  3.4520  2.5093  1.9990  1.7703  1.7703  1.6350  1.6350  1.1317
  1.1317  0.9219  0.9219  0.7972  0.7972  0.5817  0.5817  0.5010  0.5010  0.4367
  0.4144  0.3789  0.3657  0.3161  0.3023  0.2974  0.2915  0.2701  0.2595  0.2470
  0.2216  0.2229  0.2312  0.2266  0.2337

 Free energy of the ion-electron system (eV)
  ---------------------------------------------------
  alpha Z        PSCENC =      3183.80401474
  Ewald energy   TEWEN  =    384477.10216308
  -Hartree energ DENC   =   -489638.00284825
  -exchange      EXHF   =         0.00000000
  -V(xc)+E(xc)   XCENC  =      4020.73524140
  PAW double counting   =     99306.21735590   -98375.76858705
  entropy T*S    EENTRO =        -0.26354931
  eigenvalues    EBANDS =    -18460.63897103
  atomic energy  EATOM  =    114847.16282159
  Solvation  Ediel_sol  =         0.00000000
  ---------------------------------------------------
  free energy    TOTEN  =      -639.65235894 eV

  energy without entropy =     -639.38880963  energy(sigma->0) =     -639.52058429


--------------------------------------------------------------------------------------------------------




--------------------------------------- Iteration      1(  41)  ---------------------------------------


    POTLOK:  cpu time     10.0705: real time      1.6298
    SETDIJ:  cpu time      1.0394: real time      0.1492
     EDDAV:  cpu time     73.5029: real time     15.9121
       DOS:  cpu time      0.0350: real time      0.0050
    CHARGE:  cpu time      2.8739: real time      0.7216
    MIXING:  cpu time      1.9655: real time      0.3196
    --------------------------------------------
      LOOP:  cpu time     89.4872: real time     18.7373

 eigenvalue-minimisations  :  8576
 total energy-change (2. order) :-0.2652839E-04  (-0.2342712E-06)
 number of electron     866.0000111 magnetization 
 augmentation part      149.7481432 magnetization 

 Broyden mixing:
  rms(total) = 0.13825E-03    rms(broyden)= 0.13825E-03
  rms(prec ) = 0.24392E-03
  weight for this iteration     100.00

 eigenvalues of (default mixing * dielectric matrix)
  average eigenvalue GAMMA=   1.5630
 21.1339  6.7519  3.5816  2.5731  2.0996  1.7767  1.7767  1.6283  1.6283  1.1558
  1.1558  0.9801  0.9801  0.8001  0.8001  0.5821  0.5821  0.5907  0.5241  0.4498
  0.4498  0.3949  0.3863  0.3651  0.3162  0.3029  0.2974  0.2912  0.2700  0.2595
  0.2470  0.2216  0.2229  0.2312  0.2266  0.2346

 Free energy of the ion-electron system (eV)
  ---------------------------------------------------
  alpha Z        PSCENC =      3183.80401474
  Ewald energy   TEWEN  =    384477.10216308
  -Hartree energ DENC   =   -489637.98048159
  -exchange      EXHF   =         0.00000000
  -V(xc)+E(xc)   XCENC  =      4020.73486482
  PAW double counting   =     99306.03370395   -98375.58734505
  entropy T*S    EENTRO =        -0.26355111
  eigenvalues    EBANDS =    -18460.65857589
  atomic energy  EATOM  =    114847.16282159
  Solvation  Ediel_sol  =         0.00000000
  ---------------------------------------------------
  free energy    TOTEN  =      -639.65238547 eV

  energy without entropy =     -639.38883436  energy(sigma->0) =     -639.52060992


--------------------------------------------------------------------------------------------------------




--------------------------------------- Iteration      1(  42)  ---------------------------------------


    POTLOK:  cpu time     10.0019: real time      1.6155
    SETDIJ:  cpu time      1.1835: real time      0.1691
     EDDAV:  cpu time     62.4476: real time     15.2159
       DOS:  cpu time      0.0343: real time      0.0049
    CHARGE:  cpu time      2.8727: real time      0.7183
    MIXING:  cpu time      1.9750: real time      0.3286
    --------------------------------------------
      LOOP:  cpu time     78.5149: real time     18.0523

 eigenvalue-minimisations  :  7944
 total energy-change (2. order) :-0.8984905E-05  (-0.6984491E-07)
 number of electron     866.0000111 magnetization 
 augmentation part      149.7481463 magnetization 

 Broyden mixing:
  rms(total) = 0.10468E-03    rms(broyden)= 0.10468E-03
  rms(prec ) = 0.19774E-03
  weight for this iteration     100.00

 eigenvalues of (default mixing * dielectric matrix)
  average eigenvalue GAMMA=   1.5538
 21.1270  6.7712  3.6599  2.6191  2.2760  1.7912  1.7912  1.6469  1.6469  1.1373
  1.1373  1.0388  1.0388  0.9710  0.7540  0.7540  0.5818  0.5818  0.5526  0.4659
  0.4659  0.4087  0.4087  0.3760  0.3667  0.3162  0.3022  0.2974  0.2913  0.2701
  0.2595  0.2469  0.2216  0.2229  0.2312  0.2266  0.2345

 Free energy of the ion-electron system (eV)
  ---------------------------------------------------
  alpha Z        PSCENC =      3183.80401474
  Ewald energy   TEWEN  =    384477.10216308
  -Hartree energ DENC   =   -489637.97097372
  -exchange      EXHF   =         0.00000000
  -V(xc)+E(xc)   XCENC  =      4020.73473229
  PAW double counting   =     99305.95859275   -98375.51293257
  entropy T*S    EENTRO =        -0.26355189
  eigenvalues    EBANDS =    -18460.66726073
  atomic energy  EATOM  =    114847.16282159
  Solvation  Ediel_sol  =         0.00000000
  ---------------------------------------------------
  free energy    TOTEN  =      -639.65239446 eV

  energy without entropy =     -639.38884257  energy(sigma->0) =     -639.52061851


--------------------------------------------------------------------------------------------------------




--------------------------------------- Iteration      1(  43)  ---------------------------------------


    POTLOK:  cpu time     10.0984: real time      1.6348
    SETDIJ:  cpu time      1.0335: real time      0.1486
     EDDAV:  cpu time     63.0005: real time     15.0358
       DOS:  cpu time      0.0350: real time      0.0050
    CHARGE:  cpu time      2.6663: real time      0.7145
    MIXING:  cpu time      2.0013: real time      0.3412
    --------------------------------------------
      LOOP:  cpu time     78.8349: real time     17.8799

 eigenvalue-minimisations  :  7928
 total energy-change (2. order) :-0.6792194E-05  (-0.6552346E-07)
 number of electron     866.0000111 magnetization 
 augmentation part      149.7481642 magnetization 

 Broyden mixing:
  rms(total) = 0.83783E-04    rms(broyden)= 0.83782E-04
  rms(prec ) = 0.16030E-03
  weight for this iteration     100.00

 eigenvalues of (default mixing * dielectric matrix)
  average eigenvalue GAMMA=   1.5416
 21.1182  6.7887  3.7241  2.6702  2.4281  1.7929  1.7929  1.6876  1.6876  1.3176
  1.1569  1.1569  0.9588  0.9588  0.7611  0.7611  0.6552  0.5821  0.5821  0.4887
  0.4887  0.4400  0.4095  0.3790  0.3662  0.3162  0.3092  0.3030  0.2964  0.2912
  0.2700  0.2595  0.2470  0.2216  0.2229  0.2312  0.2266  0.2346

 Free energy of the ion-electron system (eV)
  ---------------------------------------------------
  alpha Z        PSCENC =      3183.80401474
  Ewald energy   TEWEN  =    384477.10216308
  -Hartree energ DENC   =   -489637.95149454
  -exchange      EXHF   =         0.00000000
  -V(xc)+E(xc)   XCENC  =      4020.73456425
  PAW double counting   =     99305.92056611   -98375.47560956
  entropy T*S    EENTRO =        -0.26355215
  eigenvalues    EBANDS =    -18460.68587478
  atomic energy  EATOM  =    114847.16282159
  Solvation  Ediel_sol  =         0.00000000
  ---------------------------------------------------
  free energy    TOTEN  =      -639.65240125 eV

  energy without entropy =     -639.38884910  energy(sigma->0) =     -639.52062518


--------------------------------------------------------------------------------------------------------




--------------------------------------- Iteration      1(  44)  ---------------------------------------


    POTLOK:  cpu time     10.0540: real time      1.6284
    SETDIJ:  cpu time      1.0364: real time      0.1486
     EDDAV:  cpu time     60.0548: real time     14.8882
       DOS:  cpu time      0.0100: real time      0.0050
    CHARGE:  cpu time      2.3492: real time      0.7215
    MIXING:  cpu time      2.0409: real time      0.3540
    --------------------------------------------
      LOOP:  cpu time     75.5455: real time     17.7457

 eigenvalue-minimisations  :  7656
 total energy-change (2. order) :-0.3926922E-05  (-0.3777110E-07)
 number of electron     866.0000111 magnetization 
 augmentation part      149.7481700 magnetization 

 Broyden mixing:
  rms(total) = 0.59615E-04    rms(broyden)= 0.59615E-04
  rms(prec ) = 0.12592E-03
  weight for this iteration     100.00

 eigenvalues of (default mixing * dielectric matrix)
  average eigenvalue GAMMA=   1.5365
 21.1038  6.8097  3.7803  2.8789  2.4984  1.7816  1.7816  1.7314  1.7314  1.4911
  1.2001  1.2001  0.9609  0.9609  0.8252  0.8252  0.6989  0.5820  0.5820  0.5419
  0.4902  0.4696  0.4440  0.4047  0.3820  0.3650  0.3162  0.3027  0.2976  0.2914
  0.2827  0.2701  0.2595  0.2469  0.2229  0.2216  0.2312  0.2266  0.2346

 Free energy of the ion-electron system (eV)
  ---------------------------------------------------
  alpha Z        PSCENC =      3183.80401474
  Ewald energy   TEWEN  =    384477.10216308
  -Hartree energ DENC   =   -489637.93602880
  -exchange      EXHF   =         0.00000000
  -V(xc)+E(xc)   XCENC  =      4020.73449779
  PAW double counting   =     99305.91719768   -98375.47253433
  entropy T*S    EENTRO =        -0.26355242
  eigenvalues    EBANDS =    -18460.70098450
  atomic energy  EATOM  =    114847.16282159
  Solvation  Ediel_sol  =         0.00000000
  ---------------------------------------------------
  free energy    TOTEN  =      -639.65240518 eV

  energy without entropy =     -639.38885275  energy(sigma->0) =     -639.52062896


--------------------------------------------------------------------------------------------------------




--------------------------------------- Iteration      1(  45)  ---------------------------------------


    POTLOK:  cpu time     10.0379: real time      1.6214
    SETDIJ:  cpu time      1.0854: real time      0.1551
     EDDAV:  cpu time     62.3246: real time     15.0955
       DOS:  cpu time      0.0355: real time      0.0051
    CHARGE:  cpu time      3.0016: real time      0.7198
    MIXING:  cpu time      2.0349: real time      0.3627
    --------------------------------------------
      LOOP:  cpu time     78.5198: real time     17.9596

 eigenvalue-minimisations  :  7808
 total energy-change (2. order) :-0.3027249E-05  (-0.4667331E-07)
 number of electron     866.0000111 magnetization 
 augmentation part      149.7481718 magnetization 

 Broyden mixing:
  rms(total) = 0.52478E-04    rms(broyden)= 0.52477E-04
  rms(prec ) = 0.10456E-03
  weight for this iteration     100.00

 eigenvalues of (default mixing * dielectric matrix)
  average eigenvalue GAMMA=   1.5315
 21.0924  6.8317  3.8928  3.1578  2.4511  1.9992  1.7810  1.7810  1.6396  1.6396
  1.2080  1.2080  1.0039  1.0039  0.8559  0.8559  0.7002  0.5817  0.5817  0.5970
  0.4872  0.4872  0.4343  0.4343  0.4013  0.3812  0.3657  0.3162  0.3024  0.2974
  0.2912  0.2854  0.2700  0.2595  0.2469  0.2216  0.2229  0.2312  0.2266  0.2346

 Free energy of the ion-electron system (eV)
  ---------------------------------------------------
  alpha Z        PSCENC =      3183.80401474
  Ewald energy   TEWEN  =    384477.10216308
  -Hartree energ DENC   =   -489637.93141785
  -exchange      EXHF   =         0.00000000
  -V(xc)+E(xc)   XCENC  =      4020.73451121
  PAW double counting   =     99305.93907583   -98375.49442324
  entropy T*S    EENTRO =        -0.26355250
  eigenvalues    EBANDS =    -18460.70560105
  atomic energy  EATOM  =    114847.16282159
  Solvation  Ediel_sol  =         0.00000000
  ---------------------------------------------------
  free energy    TOTEN  =      -639.65240820 eV

  energy without entropy =     -639.38885570  energy(sigma->0) =     -639.52063195


--------------------------------------------------------------------------------------------------------




--------------------------------------- Iteration      1(  46)  ---------------------------------------


    POTLOK:  cpu time     10.0274: real time      1.6260
    SETDIJ:  cpu time      1.0361: real time      0.1488
     EDDAV:  cpu time     58.2308: real time     14.9114
       DOS:  cpu time      0.0101: real time      0.0051
    CHARGE:  cpu time      2.3342: real time      0.7204
    MIXING:  cpu time      2.0583: real time      0.3737
    --------------------------------------------
      LOOP:  cpu time     73.6968: real time     17.7853

 eigenvalue-minimisations  :  7600
 total energy-change (2. order) :-0.1736160E-05  (-0.3141626E-07)
 number of electron     866.0000111 magnetization 
 augmentation part      149.7481611 magnetization 

 Broyden mixing:
  rms(total) = 0.44986E-04    rms(broyden)= 0.44986E-04
  rms(prec ) = 0.84412E-04
  weight for this iteration     100.00

 eigenvalues of (default mixing * dielectric matrix)
  average eigenvalue GAMMA=   1.5352
 21.0843  6.8470  4.0516  3.4157  2.3839  2.2088  1.7742  1.7742  1.6945  1.6945
  1.2837  1.2837  1.0490  1.0490  0.8847  0.8847  0.7589  0.7589  0.5818  0.5818
  0.5184  0.5184  0.4481  0.4481  0.4051  0.4051  0.3816  0.3650  0.3162  0.3025
  0.2972  0.2914  0.2884  0.2700  0.2595  0.2469  0.2216  0.2229  0.2312  0.2266
  0.2346

 Free energy of the ion-electron system (eV)
  ---------------------------------------------------
  alpha Z        PSCENC =      3183.80401474
  Ewald energy   TEWEN  =    384477.10216308
  -Hartree energ DENC   =   -489637.93781744
  -exchange      EXHF   =         0.00000000
  -V(xc)+E(xc)   XCENC  =      4020.73460597
  PAW double counting   =     99305.96080763   -98375.51580161
  entropy T*S    EENTRO =        -0.26355276
  eigenvalues    EBANDS =    -18460.69965114
  atomic energy  EATOM  =    114847.16282159
  Solvation  Ediel_sol  =         0.00000000
  ---------------------------------------------------
  free energy    TOTEN  =      -639.65240994 eV

  energy without entropy =     -639.38885718  energy(sigma->0) =     -639.52063356


--------------------------------------------------------------------------------------------------------




--------------------------------------- Iteration      1(  47)  ---------------------------------------


    POTLOK:  cpu time     10.0045: real time      1.6191
    SETDIJ:  cpu time      1.0403: real time      0.1487
     EDDAV:  cpu time     56.7916: real time     14.5422
       DOS:  cpu time      0.0413: real time      0.0059
    CHARGE:  cpu time      3.0134: real time      0.7236
    MIXING:  cpu time      2.0893: real time      0.3862
    --------------------------------------------
      LOOP:  cpu time     72.9804: real time     17.4257

 eigenvalue-minimisations  :  7424
 total energy-change (2. order) :-0.1388078E-05  (-0.2428752E-07)
 number of electron     866.0000111 magnetization 
 augmentation part      149.7481582 magnetization 

 Broyden mixing:
  rms(total) = 0.34185E-04    rms(broyden)= 0.34185E-04
  rms(prec ) = 0.57128E-04
  weight for this iteration     100.00

 eigenvalues of (default mixing * dielectric matrix)
  average eigenvalue GAMMA=   1.5491
 21.0810  6.8755  4.7186  3.6008  2.3773  2.3773  1.7712  1.7712  1.8614  1.8614
  1.3402  1.3402  1.0455  1.0455  0.9518  0.8331  0.8331  0.8161  0.5820  0.5820
  0.5555  0.5555  0.4613  0.4613  0.4130  0.4130  0.3810  0.3810  0.3645  0.3162
  0.3025  0.2974  0.2915  0.2906  0.2700  0.2595  0.2469  0.2216  0.2229  0.2312
  0.2266  0.2346

 Free energy of the ion-electron system (eV)
  ---------------------------------------------------
  alpha Z        PSCENC =      3183.80401474
  Ewald energy   TEWEN  =    384477.10216308
  -Hartree energ DENC   =   -489637.94815147
  -exchange      EXHF   =         0.00000000
  -V(xc)+E(xc)   XCENC  =      4020.73464030
  PAW double counting   =     99305.94388986   -98375.49860434
  entropy T*S    EENTRO =        -0.26355338
  eigenvalues    EBANDS =    -18460.68963170
  atomic energy  EATOM  =    114847.16282159
  Solvation  Ediel_sol  =         0.00000000
  ---------------------------------------------------
  free energy    TOTEN  =      -639.65241133 eV

  energy without entropy =     -639.38885794  energy(sigma->0) =     -639.52063464


--------------------------------------------------------------------------------------------------------




--------------------------------------- Iteration      1(  48)  ---------------------------------------


    POTLOK:  cpu time      9.9933: real time      1.6145
    SETDIJ:  cpu time      1.1439: real time      0.1639
     EDDAV:  cpu time     57.1900: real time     14.6576
       DOS:  cpu time      0.0109: real time      0.0054
    CHARGE:  cpu time      2.3506: real time      0.7223
    MIXING:  cpu time      2.0887: real time      0.3968
    --------------------------------------------
      LOOP:  cpu time     72.7774: real time     17.5605

 eigenvalue-minimisations  :  7528
 total energy-change (2. order) :-0.1074004E-05  (-0.2980618E-07)
 number of electron     866.0000111 magnetization 
 augmentation part      149.7481597 magnetization 

 Broyden mixing:
  rms(total) = 0.22907E-04    rms(broyden)= 0.22907E-04
  rms(prec ) = 0.34396E-04
  weight for this iteration     100.00

 eigenvalues of (default mixing * dielectric matrix)
  average eigenvalue GAMMA=   1.5723
 21.0817  6.9703  5.9203  3.7053  2.6335  2.3724  2.0310  1.7788  1.7788  1.7246
  1.3427  1.3427  1.0598  1.0598  1.0470  0.8881  0.8881  0.7458  0.7458  0.5819
  0.5819  0.5826  0.4881  0.4881  0.4313  0.4313  0.3925  0.3852  0.3651  0.3511
  0.3162  0.3025  0.2973  0.2918  0.2907  0.2700  0.2595  0.2469  0.2216  0.2229
  0.2312  0.2266  0.2346

 Free energy of the ion-electron system (eV)
  ---------------------------------------------------
  alpha Z        PSCENC =      3183.80401474
  Ewald energy   TEWEN  =    384477.10216308
  -Hartree energ DENC   =   -489637.95126257
  -exchange      EXHF   =         0.00000000
  -V(xc)+E(xc)   XCENC  =      4020.73463525
  PAW double counting   =     99305.92385797   -98375.47839074
  entropy T*S    EENTRO =        -0.26355405
  eigenvalues    EBANDS =    -18460.68669766
  atomic energy  EATOM  =    114847.16282159
  Solvation  Ediel_sol  =         0.00000000
  ---------------------------------------------------
  free energy    TOTEN  =      -639.65241240 eV

  energy without entropy =     -639.38885835  energy(sigma->0) =     -639.52063538


--------------------------------------------------------------------------------------------------------




--------------------------------------- Iteration      1(  49)  ---------------------------------------


    POTLOK:  cpu time     10.2088: real time      1.6519
    SETDIJ:  cpu time      1.0360: real time      0.1487
     EDDAV:  cpu time     47.0756: real time     13.6721
       DOS:  cpu time      0.0102: real time      0.0051
    --------------------------------------------
      LOOP:  cpu time     58.3297: real time     15.4777

 eigenvalue-minimisations  :  6640
 total energy-change (2. order) :-0.5367183E-06  (-0.1003539E-07)
 number of electron     866.0000111 magnetization 
 augmentation part      149.7481597 magnetization 

 Free energy of the ion-electron system (eV)
  ---------------------------------------------------
  alpha Z        PSCENC =      3183.80401474
  Ewald energy   TEWEN  =    384477.10216308
  -Hartree energ DENC   =   -489637.94808363
  -exchange      EXHF   =         0.00000000
  -V(xc)+E(xc)   XCENC  =      4020.73459914
  PAW double counting   =     99305.91933219   -98375.47388083
  entropy T*S    EENTRO =        -0.26355405
  eigenvalues    EBANDS =    -18460.68982516
  atomic energy  EATOM  =    114847.16282159
  Solvation  Ediel_sol  =         0.00000000
  ---------------------------------------------------
  free energy    TOTEN  =      -639.65241294 eV

  energy without entropy =     -639.38885889  energy(sigma->0) =     -639.52063591


--------------------------------------------------------------------------------------------------------




 average (electrostatic) potential at core
  the test charge radii are     1.0818  1.0703
  (the norm of the test charge is              1.0000)
       1 -78.0804       2 -78.0704       3 -78.2742       4 -78.0843       5 -78.0213
       6 -78.2770       7 -78.0758       8 -78.0416       9 -78.2704      10 -78.0847
      11 -78.2775      12 -78.0866      13 -78.2778      14 -78.0895      15 -78.2739
      16 -78.0766      17 -78.0446      18 -78.2704      19 -78.0890      20 -78.2735
      21 -78.0763      22 -78.0611      23 -78.2714      24 -78.3871      25 -78.2515
      26 -78.3872      27 -78.2479      28 -78.3836      29 -78.2407      30 -78.3895
      31 -78.2464      32 -78.3973      33 -78.2466      34 -78.3938      35 -78.2438
      36 -78.3840      37 -78.2395      38 -78.3936      39 -78.2423      40 -78.3715
      41 -78.2528      42 -78.3828      43 -78.1804      44 -78.3908      45 -78.1111
      46 -78.3667      47 -78.2405      48 -78.3889      49 -78.1077      50 -78.2654
      51 -77.9902      52 -78.3952      53 -78.2358      54 -78.3656      55 -78.2431
      56 -78.3959      57 -78.2349      58 -78.3494      59 -78.2189      60 -78.0150
      61 -85.4261      62 -85.4249
 
 
 
 E-fermi :   3.4330     XC(G=0):  -6.8833     alpha+bet : -8.7940

 Fermi energy:         3.4330166831

 k-point     1 :       0.0000    0.0000    0.0000
  band No.  band energies     occupation 
      1     -57.7676      2.00000
      2     -57.6974      2.00000
      3     -57.6776      2.00000
      4     -57.6711      2.00000
      5     -57.6693      2.00000
      6     -57.6659      2.00000
      7     -57.6421      2.00000
      8     -57.6374      2.00000
      9     -57.6311      2.00000
     10     -57.6303      2.00000
     11     -57.6256      2.00000
     12     -57.6238      2.00000
     13     -57.6182      2.00000
     14     -57.6149      2.00000
     15     -57.6062      2.00000
     16     -57.6047      2.00000
     17     -57.5885      2.00000
     18     -57.5511      2.00000
     19     -57.5334      2.00000
     20     -57.5073      2.00000
     21     -57.5032      2.00000
     22     -57.5000      2.00000
     23     -57.4995      2.00000
     24     -57.4962      2.00000
     25     -57.4947      2.00000
     26     -57.4879      2.00000
     27     -57.4856      2.00000
     28     -57.4853      2.00000
     29     -57.4850      2.00000
     30     -57.4831      2.00000
     31     -57.4778      2.00000
     32     -57.4734      2.00000
     33     -57.4643      2.00000
     34     -57.4639      2.00000
     35     -57.4619      2.00000
     36     -57.4608      2.00000
     37     -57.4499      2.00000
     38     -57.4484      2.00000
     39     -57.4468      2.00000
     40     -57.4461      2.00000
     41     -57.4234      2.00000
     42     -57.3932      2.00000
     43     -57.3660      2.00000
     44     -57.3486      2.00000
     45     -57.2956      2.00000
     46     -57.2933      2.00000
     47     -57.2920      2.00000
     48     -57.2914      2.00000
     49     -57.2911      2.00000
     50     -57.2878      2.00000
     51     -57.2852      2.00000
     52     -57.2829      2.00000
     53     -57.2810      2.00000
     54     -57.2780      2.00000
     55     -57.2668      2.00000
     56     -57.2627      2.00000
     57     -57.2543      2.00000
     58     -57.2378      2.00000
     59     -57.2278      2.00000
     60     -57.2053      2.00000
     61     -51.5836      2.00000
     62     -51.5813      2.00000
     63     -32.3346      2.00000
     64     -32.3181      2.00000
     65     -32.2843      2.00000
     66     -32.2793      2.00000
     67     -32.2757      2.00000
     68     -32.2709      2.00000
     69     -32.2624      2.00000
     70     -32.2621      2.00000
     71     -32.2611      2.00000
     72     -32.2577      2.00000
     73     -32.2486      2.00000
     74     -32.2464      2.00000
     75     -32.1896      2.00000
     76     -32.1724      2.00000
     77     -32.1461      2.00000
     78     -32.1445      2.00000
     79     -32.1268      2.00000
     80     -32.1253      2.00000
     81     -32.1229      2.00000
     82     -32.1201      2.00000
     83     -32.1197      2.00000
     84     -32.1160      2.00000
     85     -32.1148      2.00000
     86     -32.1102      2.00000
     87     -32.1067      2.00000
     88     -32.1012      2.00000
     89     -32.0921      2.00000
     90     -32.0893      2.00000
     91     -32.0828      2.00000
     92     -32.0746      2.00000
     93     -32.0576      2.00000
     94     -32.0512      2.00000
     95     -32.0474      2.00000
     96     -32.0441      2.00000
     97     -32.0366      2.00000
     98     -32.0172      2.00000
     99     -32.0056      2.00000
    100     -31.9799      2.00000
    101     -31.9731      2.00000
    102     -31.9725      2.00000
    103     -31.9567      2.00000
    104     -31.9518      2.00000
    105     -31.9480      2.00000
    106     -31.9257      2.00000
    107     -31.8904      2.00000
    108     -31.8783      2.00000
    109     -31.8606      2.00000
    110     -31.8493      2.00000
    111     -31.8444      2.00000
    112     -31.8405      2.00000
    113     -31.8323      2.00000
    114     -31.8272      2.00000
    115     -31.8205      2.00000
    116     -31.8090      2.00000
    117     -31.7822      2.00000
    118     -31.7730      2.00000
    119     -31.7718      2.00000
    120     -31.7612      2.00000
    121     -31.7587      2.00000
    122     -31.7452      2.00000
    123     -31.7410      2.00000
    124     -31.7406      2.00000
    125     -31.7399      2.00000
    126     -31.7373      2.00000
    127     -31.7312      2.00000
    128     -31.7259      2.00000
    129     -31.7155      2.00000
    130     -31.7153      2.00000
    131     -31.6817      2.00000
    132     -31.6803      2.00000
    133     -31.6708      2.00000
    134     -31.6656      2.00000
    135     -31.6577      2.00000
    136     -31.6574      2.00000
    137     -31.6492      2.00000
    138     -31.6448      2.00000
    139     -31.6238      2.00000
    140     -31.6137      2.00000
    141     -31.6110      2.00000
    142     -31.6008      2.00000
    143     -31.5904      2.00000
    144     -31.5883      2.00000
    145     -31.5844      2.00000
    146     -31.5746      2.00000
    147     -31.5709      2.00000
    148     -31.5411      2.00000
    149     -31.5267      2.00000
    150     -31.5228      2.00000
    151     -31.4899      2.00000
    152     -31.4880      2.00000
    153     -31.4819      2.00000
    154     -31.4789      2.00000
    155     -31.4755      2.00000
    156     -31.4609      2.00000
    157     -31.4588      2.00000
    158     -31.4583      2.00000
    159     -31.4562      2.00000
    160     -31.4504      2.00000
    161     -31.4479      2.00000
    162     -31.4286      2.00000
    163     -31.4258      2.00000
    164     -31.4188      2.00000
    165     -31.4031      2.00000
    166     -31.4016      2.00000
    167     -31.3985      2.00000
    168     -31.3968      2.00000
    169     -31.3947      2.00000
    170     -31.3814      2.00000
    171     -31.3725      2.00000
    172     -31.3655      2.00000
    173     -31.3567      2.00000
    174     -31.3518      2.00000
    175     -31.3471      2.00000
    176     -31.3454      2.00000
    177     -31.3446      2.00000
    178     -31.3406      2.00000
    179     -31.3327      2.00000
    180     -31.3281      2.00000
    181     -31.3246      2.00000
    182     -31.3208      2.00000
    183     -31.3185      2.00000
    184     -31.3141      2.00000
    185     -31.2992      2.00000
    186     -31.2969      2.00000
    187     -31.2949      2.00000
    188     -31.2920      2.00000
    189     -31.2860      2.00000
    190     -31.2855      2.00000
    191     -31.2773      2.00000
    192     -31.2755      2.00000
    193     -31.2744      2.00000
    194     -31.2727      2.00000
    195     -31.2675      2.00000
    196     -31.2667      2.00000
    197     -31.2510      2.00000
    198     -31.2309      2.00000
    199     -31.2177      2.00000
    200     -31.2135      2.00000
    201     -31.2117      2.00000
    202     -31.1919      2.00000
    203     -31.1909      2.00000
    204     -31.1766      2.00000
    205     -31.1736      2.00000
    206     -31.1718      2.00000
    207     -31.1713      2.00000
    208     -31.1696      2.00000
    209     -31.1687      2.00000
    210     -31.1598      2.00000
    211     -31.1592      2.00000
    212     -31.1571      2.00000
    213     -31.1563      2.00000
    214     -31.1557      2.00000
    215     -31.1549      2.00000
    216     -31.1343      2.00000
    217     -31.1307      2.00000
    218     -31.1186      2.00000
    219     -31.1138      2.00000
    220     -31.1131      2.00000
    221     -31.1095      2.00000
    222     -31.1081      2.00000
    223     -31.1007      2.00000
    224     -31.0937      2.00000
    225     -31.0875      2.00000
    226     -31.0829      2.00000
    227     -31.0797      2.00000
    228     -31.0780      2.00000
    229     -31.0760      2.00000
    230     -31.0727      2.00000
    231     -31.0604      2.00000
    232     -31.0595      2.00000
    233     -31.0525      2.00000
    234     -31.0409      2.00000
    235     -31.0152      2.00000
    236     -31.0081      2.00000
    237     -30.9960      2.00000
    238     -30.9850      2.00000
    239     -30.9764      2.00000
    240     -30.9551      2.00000
    241     -30.9473      2.00000
    242     -30.9376      2.00000
    243     -27.7446      2.00000
    244     -27.7341      2.00000
    245     -27.6129      2.00000
    246     -27.6014      2.00000
    247     -27.5376      2.00000
    248     -27.5347      2.00000
    249      -3.2881      2.00000
    250      -2.2839      2.00000
    251      -1.6328      2.00000
    252      -1.5032      2.00000
    253      -1.4870      2.00000
    254      -1.4834      2.00000
    255      -1.4815      2.00000
    256      -1.4752      2.00000
    257      -1.4109      2.00000
    258      -1.3919      2.00000
    259      -1.3814      2.00000
    260      -1.3803      2.00000
    261      -1.2882      2.00000
    262      -1.2542      2.00000
    263      -1.2032      2.00000
    264      -1.2013      2.00000
    265      -1.0746      2.00000
    266      -1.0682      2.00000
    267      -1.0631      2.00000
    268      -1.0519      2.00000
    269      -1.0498      2.00000
    270      -1.0225      2.00000
    271      -0.9413      2.00000
    272      -0.9200      2.00000
    273      -0.8833      2.00000
    274      -0.8718      2.00000
    275      -0.6897      2.00000
    276      -0.6598      2.00000
    277      -0.6518      2.00000
    278      -0.6402      2.00000
    279      -0.6343      2.00000
    280      -0.6200      2.00000
    281      -0.6077      2.00000
    282      -0.6054      2.00000
    283      -0.5753      2.00000
    284      -0.2356      2.00000
    285      -0.2201      2.00000
    286      -0.2150      2.00000
    287      -0.1806      2.00000
    288      -0.1773      2.00000
    289      -0.1498      2.00000
    290      -0.1232      2.00000
    291      -0.1025      2.00000
    292      -0.0846      2.00000
    293      -0.0786      2.00000
    294      -0.0509      2.00000
    295      -0.0484      2.00000
    296      -0.0381      2.00000
    297      -0.0309      2.00000
    298      -0.0281      2.00000
    299      -0.0262      2.00000
    300      -0.0117      2.00000
    301      -0.0025      2.00000
    302       0.0061      2.00000
    303       0.0216      2.00000
    304       0.0357      2.00000
    305       0.0367      2.00000
    306       0.0385      2.00000
    307       0.0404      2.00000
    308       0.1547      2.00000
    309       0.3360      2.00000
    310       0.3669      2.00000
    311       0.4101      2.00000
    312       0.4151      2.00000
    313       0.4610      2.00000
    314       0.4985      2.00000
    315       0.5049      2.00000
    316       0.5225      2.00000
    317       0.5230      2.00000
    318       0.5365      2.00000
    319       0.5375      2.00000
    320       0.5391      2.00000
    321       0.5517      2.00000
    322       0.5568      2.00000
    323       0.6243      2.00000
    324       0.6405      2.00000
    325       0.6460      2.00000
    326       0.6705      2.00000
    327       0.6923      2.00000
    328       0.7153      2.00000
    329       0.7236      2.00000
    330       0.7360      2.00000
    331       0.7399      2.00000
    332       0.7566      2.00000
    333       0.7666      2.00000
    334       0.8038      2.00000
    335       0.8126      2.00000
    336       0.8310      2.00000
    337       0.8410      2.00000
    338       0.8458      2.00000
    339       0.8488      2.00000
    340       0.8655      2.00000
    341       0.8891      2.00000
    342       0.9267      2.00000
    343       0.9768      2.00000
    344       0.9850      2.00000
    345       0.9979      2.00000
    346       1.1044      2.00000
    347       1.1204      2.00000
    348       1.1337      2.00000
    349       1.1625      2.00000
    350       1.1795      2.00000
    351       1.1923      2.00000
    352       1.2033      2.00000
    353       1.2100      2.00000
    354       1.2844      2.00000
    355       1.2979      2.00000
    356       1.3174      2.00000
    357       1.3348      2.00000
    358       1.3447      2.00000
    359       1.3578      2.00000
    360       1.3728      2.00000
    361       1.3743      2.00000
    362       1.4056      2.00000
    363       1.4209      2.00000
    364       1.4374      2.00000
    365       1.4388      2.00000
    366       1.4681      2.00000
    367       1.4775      2.00000
    368       1.5489      2.00000
    369       1.5901      2.00000
    370       1.6094      2.00000
    371       1.6112      2.00000
    372       1.6572      2.00000
    373       1.6746      2.00000
    374       1.6840      2.00000
    375       1.7171      2.00000
    376       1.7534      2.00000
    377       1.7733      2.00000
    378       1.7893      2.00000
    379       1.8208      2.00000
    380       1.9267      2.00000
    381       1.9341      2.00000
    382       2.0093      2.00000
    383       2.0242      2.00000
    384       2.0632      2.00000
    385       2.0666      2.00000
    386       2.0915      2.00000
    387       2.1275      2.00000
    388       2.1363      2.00000
    389       2.1641      2.00000
    390       2.1658      2.00000
    391       2.1912      2.00000
    392       2.1954      2.00000
    393       2.2219      2.00000
    394       2.2242      2.00000
    395       2.2670      2.00000
    396       2.2720      2.00000
    397       2.2901      2.00000
    398       2.2937      2.00000
    399       2.3070      2.00000
    400       2.3236      2.00000
    401       2.3417      2.00000
    402       2.3467      2.00000
    403       2.3790      2.00000
    404       2.3849      2.00000
    405       2.4140      2.00000
    406       2.4302      2.00000
    407       2.5213      2.00000
    408       2.5352      2.00000
    409       2.5976      2.00000
    410       2.6631      2.00000
    411       2.6942      2.00000
    412       2.7095      2.00000
    413       2.7126      2.00000
    414       2.7386      2.00000
    415       2.7487      2.00000
    416       2.7887      2.00000
    417       2.7965      2.00000
    418       2.8864      2.00000
    419       2.8913      2.00000
    420       2.9080      2.00000
    421       2.9202      2.00000
    422       2.9329      2.00000
    423       2.9366      2.00000
    424       3.1619      1.99987
    425       3.2114      1.99827
    426       3.2225      1.99709
    427       3.2387      1.99400
    428       3.2574      1.98697
    429       3.3540      1.73595
    430       3.3651      1.66334
    431       3.3695      1.63094
    432       3.5080      0.28883
    433       3.5316      0.16347
    434       3.5677      0.05689
    435       3.6203      0.00808
    436       3.6238      0.00697
    437       3.6537      0.00180
    438       3.6661      0.00098
    439       3.6882      0.00031
    440       3.6893      0.00029
    441       3.6897      0.00028
    442       3.6905      0.00027
    443       3.7470      0.00001
    444       3.7579      0.00000
    445       3.7618      0.00000
    446       3.7680      0.00000
    447       3.7911      0.00000
    448       3.8082      0.00000
    449       3.8456      0.00000
    450       3.8749      0.00000
    451       3.8823      0.00000
    452       3.8886      0.00000
    453       3.8993      0.00000
    454       3.9267      0.00000
    455       3.9340      0.00000
    456       3.9353      0.00000
    457       4.0146      0.00000
    458       4.0322      0.00000
    459       4.0553      0.00000
    460       4.0779      0.00000
    461       4.0864      0.00000
    462       4.0947      0.00000
    463       4.1170      0.00000
    464       4.1268      0.00000
    465       4.1613      0.00000
    466       4.2009      0.00000
    467       4.2161      0.00000
    468       4.2483      0.00000
    469       4.4171      0.00000
    470       4.4315      0.00000
    471       4.4696      0.00000
    472       4.4979      0.00000
    473       4.5039      0.00000
    474       4.5309      0.00000
    475       4.5359      0.00000
    476       4.5589      0.00000
    477       4.5869      0.00000
    478       4.5958      0.00000
    479       4.6313      0.00000
    480       4.6748      0.00000
    481       4.6898      0.00000
    482       4.7228      0.00000
    483       4.7424      0.00000
    484       4.7661      0.00000
    485       4.7711      0.00000
    486       4.7724      0.00000
    487       4.7989      0.00000
    488       4.8261      0.00000
    489       4.8454      0.00000
    490       4.8594      0.00000
    491       4.8941      0.00000
    492       4.9105      0.00000
    493       4.9200      0.00000
    494       4.9358      0.00000
    495       4.9730      0.00000
    496       4.9874      0.00000
    497       5.0650      0.00000
    498       5.0751      0.00000
    499       5.0910      0.00000
    500       5.1235      0.00000
    501       5.1738      0.00000
    502       5.1764      0.00000
    503       5.1895      0.00000
    504       5.2164      0.00000
    505       5.2486      0.00000
    506       5.2547      0.00000
    507       5.2771      0.00000
    508       5.3068      0.00000
    509       5.3289      0.00000
    510       5.3338      0.00000
    511       5.3390      0.00000
    512       5.3674      0.00000
    513       5.3713      0.00000
    514       5.3993      0.00000
    515       5.4409      0.00000
    516       5.4743      0.00000
    517       5.4841      0.00000
    518       5.4875      0.00000
    519       5.5050      0.00000

 k-point     2 :       0.2500    0.0000    0.0000
  band No.  band energies     occupation 
      1     -57.7605      2.00000
      2     -57.7094      2.00000
      3     -57.6912      2.00000
      4     -57.6693      2.00000
      5     -57.6659      2.00000
      6     -57.6559      2.00000
      7     -57.6443      2.00000
      8     -57.6394      2.00000
      9     -57.6370      2.00000
     10     -57.6300      2.00000
     11     -57.6283      2.00000
     12     -57.6197      2.00000
     13     -57.6129      2.00000
     14     -57.6100      2.00000
     15     -57.6049      2.00000
     16     -57.6012      2.00000
     17     -57.5858      2.00000
     18     -57.5482      2.00000
     19     -57.5335      2.00000
     20     -57.5111      2.00000
     21     -57.5048      2.00000
     22     -57.4993      2.00000
     23     -57.4974      2.00000
     24     -57.4963      2.00000
     25     -57.4948      2.00000
     26     -57.4903      2.00000
     27     -57.4884      2.00000
     28     -57.4857      2.00000
     29     -57.4850      2.00000
     30     -57.4828      2.00000
     31     -57.4780      2.00000
     32     -57.4731      2.00000
     33     -57.4718      2.00000
     34     -57.4655      2.00000
     35     -57.4644      2.00000
     36     -57.4589      2.00000
     37     -57.4556      2.00000
     38     -57.4498      2.00000
     39     -57.4471      2.00000
     40     -57.4317      2.00000
     41     -57.4182      2.00000
     42     -57.3960      2.00000
     43     -57.3652      2.00000
     44     -57.3491      2.00000
     45     -57.2987      2.00000
     46     -57.2931      2.00000
     47     -57.2930      2.00000
     48     -57.2920      2.00000
     49     -57.2905      2.00000
     50     -57.2870      2.00000
     51     -57.2846      2.00000
     52     -57.2813      2.00000
     53     -57.2802      2.00000
     54     -57.2780      2.00000
     55     -57.2686      2.00000
     56     -57.2655      2.00000
     57     -57.2534      2.00000
     58     -57.2339      2.00000
     59     -57.2264      2.00000
     60     -57.2077      2.00000
     61     -51.5836      2.00000
     62     -51.5813      2.00000
     63     -32.3560      2.00000
     64     -32.3266      2.00000
     65     -32.3104      2.00000
     66     -32.2927      2.00000
     67     -32.2746      2.00000
     68     -32.2656      2.00000
     69     -32.2579      2.00000
     70     -32.2463      2.00000
     71     -32.2328      2.00000
     72     -32.2198      2.00000
     73     -32.2076      2.00000
     74     -32.1993      2.00000
     75     -32.1986      2.00000
     76     -32.1933      2.00000
     77     -32.1863      2.00000
     78     -32.1799      2.00000
     79     -32.1676      2.00000
     80     -32.1525      2.00000
     81     -32.1501      2.00000
     82     -32.1429      2.00000
     83     -32.1400      2.00000
     84     -32.1317      2.00000
     85     -32.1217      2.00000
     86     -32.1148      2.00000
     87     -32.1066      2.00000
     88     -32.1009      2.00000
     89     -32.0939      2.00000
     90     -32.0846      2.00000
     91     -32.0678      2.00000
     92     -32.0644      2.00000
     93     -32.0527      2.00000
     94     -32.0452      2.00000
     95     -32.0296      2.00000
     96     -32.0232      2.00000
     97     -32.0177      2.00000
     98     -32.0079      2.00000
     99     -31.9937      2.00000
    100     -31.9799      2.00000
    101     -31.9535      2.00000
    102     -31.9466      2.00000
    103     -31.9370      2.00000
    104     -31.9245      2.00000
    105     -31.9236      2.00000
    106     -31.9139      2.00000
    107     -31.8946      2.00000
    108     -31.8805      2.00000
    109     -31.8691      2.00000
    110     -31.8675      2.00000
    111     -31.8614      2.00000
    112     -31.8507      2.00000
    113     -31.8429      2.00000
    114     -31.8351      2.00000
    115     -31.8224      2.00000
    116     -31.8038      2.00000
    117     -31.7923      2.00000
    118     -31.7761      2.00000
    119     -31.7683      2.00000
    120     -31.7613      2.00000
    121     -31.7527      2.00000
    122     -31.7482      2.00000
    123     -31.7441      2.00000
    124     -31.7344      2.00000
    125     -31.7300      2.00000
    126     -31.7208      2.00000
    127     -31.7152      2.00000
    128     -31.7110      2.00000
    129     -31.7057      2.00000
    130     -31.6991      2.00000
    131     -31.6981      2.00000
    132     -31.6865      2.00000
    133     -31.6782      2.00000
    134     -31.6677      2.00000
    135     -31.6609      2.00000
    136     -31.6510      2.00000
    137     -31.6480      2.00000
    138     -31.6251      2.00000
    139     -31.6150      2.00000
    140     -31.6103      2.00000
    141     -31.6062      2.00000
    142     -31.5968      2.00000
    143     -31.5874      2.00000
    144     -31.5807      2.00000
    145     -31.5698      2.00000
    146     -31.5626      2.00000
    147     -31.5553      2.00000
    148     -31.5519      2.00000
    149     -31.5380      2.00000
    150     -31.5218      2.00000
    151     -31.5138      2.00000
    152     -31.5047      2.00000
    153     -31.4977      2.00000
    154     -31.4866      2.00000
    155     -31.4790      2.00000
    156     -31.4770      2.00000
    157     -31.4722      2.00000
    158     -31.4684      2.00000
    159     -31.4650      2.00000
    160     -31.4606      2.00000
    161     -31.4567      2.00000
    162     -31.4486      2.00000
    163     -31.4458      2.00000
    164     -31.4416      2.00000
    165     -31.4243      2.00000
    166     -31.4192      2.00000
    167     -31.4145      2.00000
    168     -31.4091      2.00000
    169     -31.3976      2.00000
    170     -31.3924      2.00000
    171     -31.3856      2.00000
    172     -31.3714      2.00000
    173     -31.3646      2.00000
    174     -31.3582      2.00000
    175     -31.3495      2.00000
    176     -31.3375      2.00000
    177     -31.3340      2.00000
    178     -31.3317      2.00000
    179     -31.3270      2.00000
    180     -31.3225      2.00000
    181     -31.3211      2.00000
    182     -31.3131      2.00000
    183     -31.3113      2.00000
    184     -31.3081      2.00000
    185     -31.3031      2.00000
    186     -31.2971      2.00000
    187     -31.2902      2.00000
    188     -31.2868      2.00000
    189     -31.2839      2.00000
    190     -31.2778      2.00000
    191     -31.2672      2.00000
    192     -31.2608      2.00000
    193     -31.2581      2.00000
    194     -31.2529      2.00000
    195     -31.2461      2.00000
    196     -31.2407      2.00000
    197     -31.2370      2.00000
    198     -31.2275      2.00000
    199     -31.2205      2.00000
    200     -31.2143      2.00000
    201     -31.2109      2.00000
    202     -31.2059      2.00000
    203     -31.1995      2.00000
    204     -31.1957      2.00000
    205     -31.1848      2.00000
    206     -31.1812      2.00000
    207     -31.1676      2.00000
    208     -31.1623      2.00000
    209     -31.1605      2.00000
    210     -31.1524      2.00000
    211     -31.1487      2.00000
    212     -31.1464      2.00000
    213     -31.1446      2.00000
    214     -31.1431      2.00000
    215     -31.1340      2.00000
    216     -31.1319      2.00000
    217     -31.1284      2.00000
    218     -31.1257      2.00000
    219     -31.1241      2.00000
    220     -31.1184      2.00000
    221     -31.1150      2.00000
    222     -31.1068      2.00000
    223     -31.1055      2.00000
    224     -31.0986      2.00000
    225     -31.0934      2.00000
    226     -31.0918      2.00000
    227     -31.0840      2.00000
    228     -31.0790      2.00000
    229     -31.0705      2.00000
    230     -31.0686      2.00000
    231     -31.0624      2.00000
    232     -31.0585      2.00000
    233     -31.0452      2.00000
    234     -31.0364      2.00000
    235     -31.0192      2.00000
    236     -31.0074      2.00000
    237     -30.9979      2.00000
    238     -30.9871      2.00000
    239     -30.9800      2.00000
    240     -30.9606      2.00000
    241     -30.9506      2.00000
    242     -30.9406      2.00000
    243     -27.7446      2.00000
    244     -27.7341      2.00000
    245     -27.6129      2.00000
    246     -27.6014      2.00000
    247     -27.5377      2.00000
    248     -27.5347      2.00000
    249      -3.1449      2.00000
    250      -2.1821      2.00000
    251      -2.1215      2.00000
    252      -1.5525      2.00000
    253      -1.5204      2.00000
    254      -1.4453      2.00000
    255      -1.4390      2.00000
    256      -1.4035      2.00000
    257      -1.3855      2.00000
    258      -1.3808      2.00000
    259      -1.2600      2.00000
    260      -1.2382      2.00000
    261      -1.1423      2.00000
    262      -1.0936      2.00000
    263      -1.0867      2.00000
    264      -1.0813      2.00000
    265      -1.0741      2.00000
    266      -1.0524      2.00000
    267      -1.0438      2.00000
    268      -0.9853      2.00000
    269      -0.9627      2.00000
    270      -0.9434      2.00000
    271      -0.9174      2.00000
    272      -0.9064      2.00000
    273      -0.8793      2.00000
    274      -0.8714      2.00000
    275      -0.8202      2.00000
    276      -0.7827      2.00000
    277      -0.7423      2.00000
    278      -0.6083      2.00000
    279      -0.5319      2.00000
    280      -0.4724      2.00000
    281      -0.4648      2.00000
    282      -0.4182      2.00000
    283      -0.4089      2.00000
    284      -0.3977      2.00000
    285      -0.3465      2.00000
    286      -0.3340      2.00000
    287      -0.3281      2.00000
    288      -0.2789      2.00000
    289      -0.2507      2.00000
    290      -0.2344      2.00000
    291      -0.2192      2.00000
    292      -0.1740      2.00000
    293      -0.1478      2.00000
    294      -0.1358      2.00000
    295      -0.0919      2.00000
    296      -0.0617      2.00000
    297      -0.0525      2.00000
    298      -0.0381      2.00000
    299      -0.0247      2.00000
    300      -0.0169      2.00000
    301      -0.0035      2.00000
    302       0.0232      2.00000
    303       0.0589      2.00000
    304       0.1457      2.00000
    305       0.1487      2.00000
    306       0.1562      2.00000
    307       0.2878      2.00000
    308       0.2975      2.00000
    309       0.3154      2.00000
    310       0.3258      2.00000
    311       0.3340      2.00000
    312       0.3623      2.00000
    313       0.3686      2.00000
    314       0.3724      2.00000
    315       0.3919      2.00000
    316       0.4203      2.00000
    317       0.4541      2.00000
    318       0.4591      2.00000
    319       0.4820      2.00000
    320       0.4979      2.00000
    321       0.5091      2.00000
    322       0.5344      2.00000
    323       0.5601      2.00000
    324       0.5817      2.00000
    325       0.5863      2.00000
    326       0.5975      2.00000
    327       0.6151      2.00000
    328       0.6319      2.00000
    329       0.6460      2.00000
    330       0.6904      2.00000
    331       0.7049      2.00000
    332       0.7210      2.00000
    333       0.7244      2.00000
    334       0.7388      2.00000
    335       0.7686      2.00000
    336       0.7782      2.00000
    337       0.7943      2.00000
    338       0.8250      2.00000
    339       0.8371      2.00000
    340       0.8703      2.00000
    341       0.8868      2.00000
    342       0.9196      2.00000
    343       0.9443      2.00000
    344       0.9688      2.00000
    345       0.9910      2.00000
    346       1.0044      2.00000
    347       1.0154      2.00000
    348       1.0439      2.00000
    349       1.0816      2.00000
    350       1.0947      2.00000
    351       1.1084      2.00000
    352       1.1575      2.00000
    353       1.1698      2.00000
    354       1.1813      2.00000
    355       1.2339      2.00000
    356       1.2424      2.00000
    357       1.2856      2.00000
    358       1.3172      2.00000
    359       1.3483      2.00000
    360       1.3903      2.00000
    361       1.4460      2.00000
    362       1.4519      2.00000
    363       1.4633      2.00000
    364       1.4768      2.00000
    365       1.5106      2.00000
    366       1.5358      2.00000
    367       1.6012      2.00000
    368       1.6198      2.00000
    369       1.6334      2.00000
    370       1.6544      2.00000
    371       1.6907      2.00000
    372       1.7079      2.00000
    373       1.7284      2.00000
    374       1.7390      2.00000
    375       1.7676      2.00000
    376       1.8053      2.00000
    377       1.8311      2.00000
    378       1.8610      2.00000
    379       1.8671      2.00000
    380       1.9262      2.00000
    381       1.9366      2.00000
    382       1.9501      2.00000
    383       1.9649      2.00000
    384       1.9794      2.00000
    385       1.9953      2.00000
    386       2.0061      2.00000
    387       2.0312      2.00000
    388       2.0647      2.00000
    389       2.0859      2.00000
    390       2.1208      2.00000
    391       2.1402      2.00000
    392       2.1604      2.00000
    393       2.1848      2.00000
    394       2.2052      2.00000
    395       2.2133      2.00000
    396       2.2330      2.00000
    397       2.2575      2.00000
    398       2.2724      2.00000
    399       2.3054      2.00000
    400       2.3397      2.00000
    401       2.3665      2.00000
    402       2.4070      2.00000
    403       2.4172      2.00000
    404       2.4417      2.00000
    405       2.4676      2.00000
    406       2.4780      2.00000
    407       2.5155      2.00000
    408       2.5695      2.00000
    409       2.5918      2.00000
    410       2.6174      2.00000
    411       2.6444      2.00000
    412       2.6717      2.00000
    413       2.7348      2.00000
    414       2.7678      2.00000
    415       2.8141      2.00000
    416       2.8296      2.00000
    417       2.8398      2.00000
    418       2.8555      2.00000
    419       2.8969      2.00000
    420       2.9574      2.00000
    421       2.9690      2.00000
    422       3.0012      2.00000
    423       3.0567      2.00000
    424       3.0744      2.00000
    425       3.1483      1.99994
    426       3.1714      1.99978
    427       3.1890      1.99944
    428       3.2136      1.99808
    429       3.2577      1.98685
    430       3.2721      1.97718
    431       3.3042      1.93141
    432       3.3472      1.77500
    433       3.4098      1.25772
    434       3.4707      0.59363
    435       3.4887      0.43064
    436       3.5094      0.27978
    437       3.5249      0.19378
    438       3.5431      0.11952
    439       3.6820      0.00043
    440       3.7243      0.00004
    441       3.7651      0.00000
    442       3.7789      0.00000
    443       3.8028      0.00000
    444       3.8313      0.00000
    445       3.8343      0.00000
    446       3.8518      0.00000
    447       3.8801      0.00000
    448       3.9036      0.00000
    449       3.9273      0.00000
    450       3.9443      0.00000
    451       3.9615      0.00000
    452       3.9784      0.00000
    453       4.0085      0.00000
    454       4.0314      0.00000
    455       4.0655      0.00000
    456       4.0874      0.00000
    457       4.1536      0.00000
    458       4.1733      0.00000
    459       4.2425      0.00000
    460       4.2800      0.00000
    461       4.2935      0.00000
    462       4.3053      0.00000
    463       4.3328      0.00000
    464       4.3695      0.00000
    465       4.3823      0.00000
    466       4.3870      0.00000
    467       4.4048      0.00000
    468       4.4234      0.00000
    469       4.4532      0.00000
    470       4.4695      0.00000
    471       4.4810      0.00000
    472       4.5012      0.00000
    473       4.5185      0.00000
    474       4.5525      0.00000
    475       4.5865      0.00000
    476       4.6016      0.00000
    477       4.6313      0.00000
    478       4.6469      0.00000
    479       4.6588      0.00000
    480       4.6710      0.00000
    481       4.6830      0.00000
    482       4.7223      0.00000
    483       4.7327      0.00000
    484       4.7647      0.00000
    485       4.7868      0.00000
    486       4.8034      0.00000
    487       4.8261      0.00000
    488       4.8378      0.00000
    489       4.8676      0.00000
    490       4.8812      0.00000
    491       4.8883      0.00000
    492       4.9022      0.00000
    493       4.9140      0.00000
    494       4.9337      0.00000
    495       4.9817      0.00000
    496       5.0137      0.00000
    497       5.0404      0.00000
    498       5.0602      0.00000
    499       5.0973      0.00000
    500       5.1522      0.00000
    501       5.1644      0.00000
    502       5.1721      0.00000
    503       5.1842      0.00000
    504       5.2022      0.00000
    505       5.2080      0.00000
    506       5.2160      0.00000
    507       5.2478      0.00000
    508       5.2561      0.00000
    509       5.2617      0.00000
    510       5.2692      0.00000
    511       5.2791      0.00000
    512       5.3145      0.00000
    513       5.3309      0.00000
    514       5.3620      0.00000
    515       5.3824      0.00000
    516       5.4276      0.00000
    517       5.4496      0.00000
    518       5.4936      0.00000
    519       5.5043      0.00000

 k-point     3 :       0.0000    0.2500    0.0000
  band No.  band energies     occupation 
      1     -57.7605      2.00000
      2     -57.7096      2.00000
      3     -57.6908      2.00000
      4     -57.6696      2.00000
      5     -57.6660      2.00000
      6     -57.6554      2.00000
      7     -57.6448      2.00000
      8     -57.6394      2.00000
      9     -57.6372      2.00000
     10     -57.6299      2.00000
     11     -57.6282      2.00000
     12     -57.6201      2.00000
     13     -57.6123      2.00000
     14     -57.6101      2.00000
     15     -57.6050      2.00000
     16     -57.6009      2.00000
     17     -57.5859      2.00000
     18     -57.5482      2.00000
     19     -57.5336      2.00000
     20     -57.5113      2.00000
     21     -57.5040      2.00000
     22     -57.4996      2.00000
     23     -57.4976      2.00000
     24     -57.4966      2.00000
     25     -57.4947      2.00000
     26     -57.4902      2.00000
     27     -57.4887      2.00000
     28     -57.4862      2.00000
     29     -57.4850      2.00000
     30     -57.4829      2.00000
     31     -57.4763      2.00000
     32     -57.4731      2.00000
     33     -57.4726      2.00000
     34     -57.4652      2.00000
     35     -57.4647      2.00000
     36     -57.4587      2.00000
     37     -57.4559      2.00000
     38     -57.4491      2.00000
     39     -57.4473      2.00000
     40     -57.4321      2.00000
     41     -57.4181      2.00000
     42     -57.3961      2.00000
     43     -57.3657      2.00000
     44     -57.3488      2.00000
     45     -57.2986      2.00000
     46     -57.2933      2.00000
     47     -57.2925      2.00000
     48     -57.2920      2.00000
     49     -57.2903      2.00000
     50     -57.2869      2.00000
     51     -57.2844      2.00000
     52     -57.2817      2.00000
     53     -57.2800      2.00000
     54     -57.2778      2.00000
     55     -57.2686      2.00000
     56     -57.2655      2.00000
     57     -57.2542      2.00000
     58     -57.2340      2.00000
     59     -57.2262      2.00000
     60     -57.2076      2.00000
     61     -51.5836      2.00000
     62     -51.5813      2.00000
     63     -32.3529      2.00000
     64     -32.3312      2.00000
     65     -32.3116      2.00000
     66     -32.2902      2.00000
     67     -32.2751      2.00000
     68     -32.2653      2.00000
     69     -32.2579      2.00000
     70     -32.2467      2.00000
     71     -32.2316      2.00000
     72     -32.2203      2.00000
     73     -32.2069      2.00000
     74     -32.1997      2.00000
     75     -32.1983      2.00000
     76     -32.1938      2.00000
     77     -32.1862      2.00000
     78     -32.1799      2.00000
     79     -32.1674      2.00000
     80     -32.1512      2.00000
     81     -32.1494      2.00000
     82     -32.1437      2.00000
     83     -32.1405      2.00000
     84     -32.1327      2.00000
     85     -32.1201      2.00000
     86     -32.1136      2.00000
     87     -32.1054      2.00000
     88     -32.1029      2.00000
     89     -32.0953      2.00000
     90     -32.0840      2.00000
     91     -32.0688      2.00000
     92     -32.0628      2.00000
     93     -32.0538      2.00000
     94     -32.0436      2.00000
     95     -32.0331      2.00000
     96     -32.0217      2.00000
     97     -32.0184      2.00000
     98     -32.0069      2.00000
     99     -31.9937      2.00000
    100     -31.9795      2.00000
    101     -31.9556      2.00000
    102     -31.9470      2.00000
    103     -31.9371      2.00000
    104     -31.9272      2.00000
    105     -31.9226      2.00000
    106     -31.9117      2.00000
    107     -31.8935      2.00000
    108     -31.8822      2.00000
    109     -31.8709      2.00000
    110     -31.8659      2.00000
    111     -31.8589      2.00000
    112     -31.8487      2.00000
    113     -31.8435      2.00000
    114     -31.8357      2.00000
    115     -31.8214      2.00000
    116     -31.8057      2.00000
    117     -31.7938      2.00000
    118     -31.7758      2.00000
    119     -31.7670      2.00000
    120     -31.7629      2.00000
    121     -31.7543      2.00000
    122     -31.7498      2.00000
    123     -31.7450      2.00000
    124     -31.7323      2.00000
    125     -31.7301      2.00000
    126     -31.7192      2.00000
    127     -31.7148      2.00000
    128     -31.7101      2.00000
    129     -31.7050      2.00000
    130     -31.6993      2.00000
    131     -31.6971      2.00000
    132     -31.6850      2.00000
    133     -31.6781      2.00000
    134     -31.6686      2.00000
    135     -31.6629      2.00000
    136     -31.6524      2.00000
    137     -31.6480      2.00000
    138     -31.6262      2.00000
    139     -31.6143      2.00000
    140     -31.6098      2.00000
    141     -31.6054      2.00000
    142     -31.5969      2.00000
    143     -31.5878      2.00000
    144     -31.5819      2.00000
    145     -31.5700      2.00000
    146     -31.5620      2.00000
    147     -31.5555      2.00000
    148     -31.5527      2.00000
    149     -31.5359      2.00000
    150     -31.5211      2.00000
    151     -31.5131      2.00000
    152     -31.5033      2.00000
    153     -31.4979      2.00000
    154     -31.4849      2.00000
    155     -31.4785      2.00000
    156     -31.4770      2.00000
    157     -31.4723      2.00000
    158     -31.4686      2.00000
    159     -31.4647      2.00000
    160     -31.4606      2.00000
    161     -31.4558      2.00000
    162     -31.4501      2.00000
    163     -31.4456      2.00000
    164     -31.4419      2.00000
    165     -31.4267      2.00000
    166     -31.4192      2.00000
    167     -31.4137      2.00000
    168     -31.4073      2.00000
    169     -31.3985      2.00000
    170     -31.3909      2.00000
    171     -31.3889      2.00000
    172     -31.3716      2.00000
    173     -31.3653      2.00000
    174     -31.3574      2.00000
    175     -31.3496      2.00000
    176     -31.3384      2.00000
    177     -31.3329      2.00000
    178     -31.3316      2.00000
    179     -31.3277      2.00000
    180     -31.3236      2.00000
    181     -31.3212      2.00000
    182     -31.3138      2.00000
    183     -31.3117      2.00000
    184     -31.3077      2.00000
    185     -31.3024      2.00000
    186     -31.2972      2.00000
    187     -31.2896      2.00000
    188     -31.2866      2.00000
    189     -31.2839      2.00000
    190     -31.2781      2.00000
    191     -31.2679      2.00000
    192     -31.2610      2.00000
    193     -31.2569      2.00000
    194     -31.2520      2.00000
    195     -31.2461      2.00000
    196     -31.2405      2.00000
    197     -31.2386      2.00000
    198     -31.2269      2.00000
    199     -31.2218      2.00000
    200     -31.2153      2.00000
    201     -31.2112      2.00000
    202     -31.2058      2.00000
    203     -31.1995      2.00000
    204     -31.1953      2.00000
    205     -31.1846      2.00000
    206     -31.1803      2.00000
    207     -31.1684      2.00000
    208     -31.1623      2.00000
    209     -31.1607      2.00000
    210     -31.1515      2.00000
    211     -31.1492      2.00000
    212     -31.1463      2.00000
    213     -31.1447      2.00000
    214     -31.1430      2.00000
    215     -31.1331      2.00000
    216     -31.1319      2.00000
    217     -31.1273      2.00000
    218     -31.1247      2.00000
    219     -31.1228      2.00000
    220     -31.1179      2.00000
    221     -31.1154      2.00000
    222     -31.1069      2.00000
    223     -31.1058      2.00000
    224     -31.0989      2.00000
    225     -31.0934      2.00000
    226     -31.0917      2.00000
    227     -31.0856      2.00000
    228     -31.0790      2.00000
    229     -31.0691      2.00000
    230     -31.0686      2.00000
    231     -31.0625      2.00000
    232     -31.0589      2.00000
    233     -31.0441      2.00000
    234     -31.0381      2.00000
    235     -31.0211      2.00000
    236     -31.0049      2.00000
    237     -30.9990      2.00000
    238     -30.9875      2.00000
    239     -30.9803      2.00000
    240     -30.9586      2.00000
    241     -30.9515      2.00000
    242     -30.9410      2.00000
    243     -27.7446      2.00000
    244     -27.7341      2.00000
    245     -27.6129      2.00000
    246     -27.6013      2.00000
    247     -27.5377      2.00000
    248     -27.5347      2.00000
    249      -3.1449      2.00000
    250      -2.1821      2.00000
    251      -2.1213      2.00000
    252      -1.5531      2.00000
    253      -1.5206      2.00000
    254      -1.4460      2.00000
    255      -1.4390      2.00000
    256      -1.4031      2.00000
    257      -1.3863      2.00000
    258      -1.3803      2.00000
    259      -1.2592      2.00000
    260      -1.2381      2.00000
    261      -1.1414      2.00000
    262      -1.0933      2.00000
    263      -1.0861      2.00000
    264      -1.0830      2.00000
    265      -1.0735      2.00000
    266      -1.0524      2.00000
    267      -1.0439      2.00000
    268      -0.9862      2.00000
    269      -0.9626      2.00000
    270      -0.9432      2.00000
    271      -0.9174      2.00000
    272      -0.9073      2.00000
    273      -0.8791      2.00000
    274      -0.8716      2.00000
    275      -0.8188      2.00000
    276      -0.7836      2.00000
    277      -0.7410      2.00000
    278      -0.6077      2.00000
    279      -0.5311      2.00000
    280      -0.4739      2.00000
    281      -0.4638      2.00000
    282      -0.4192      2.00000
    283      -0.4087      2.00000
    284      -0.3974      2.00000
    285      -0.3462      2.00000
    286      -0.3336      2.00000
    287      -0.3286      2.00000
    288      -0.2778      2.00000
    289      -0.2511      2.00000
    290      -0.2354      2.00000
    291      -0.2209      2.00000
    292      -0.1750      2.00000
    293      -0.1475      2.00000
    294      -0.1355      2.00000
    295      -0.0894      2.00000
    296      -0.0626      2.00000
    297      -0.0518      2.00000
    298      -0.0385      2.00000
    299      -0.0256      2.00000
    300      -0.0168      2.00000
    301      -0.0044      2.00000
    302       0.0237      2.00000
    303       0.0604      2.00000
    304       0.1459      2.00000
    305       0.1486      2.00000
    306       0.1583      2.00000
    307       0.2864      2.00000
    308       0.2949      2.00000
    309       0.3121      2.00000
    310       0.3267      2.00000
    311       0.3355      2.00000
    312       0.3621      2.00000
    313       0.3677      2.00000
    314       0.3722      2.00000
    315       0.3909      2.00000
    316       0.4191      2.00000
    317       0.4561      2.00000
    318       0.4622      2.00000
    319       0.4812      2.00000
    320       0.4992      2.00000
    321       0.5074      2.00000
    322       0.5353      2.00000
    323       0.5663      2.00000
    324       0.5822      2.00000
    325       0.5846      2.00000
    326       0.5996      2.00000
    327       0.6156      2.00000
    328       0.6326      2.00000
    329       0.6454      2.00000
    330       0.6895      2.00000
    331       0.7079      2.00000
    332       0.7195      2.00000
    333       0.7245      2.00000
    334       0.7370      2.00000
    335       0.7713      2.00000
    336       0.7809      2.00000
    337       0.7935      2.00000
    338       0.8234      2.00000
    339       0.8372      2.00000
    340       0.8696      2.00000
    341       0.8862      2.00000
    342       0.9195      2.00000
    343       0.9461      2.00000
    344       0.9673      2.00000
    345       0.9915      2.00000
    346       1.0062      2.00000
    347       1.0132      2.00000
    348       1.0439      2.00000
    349       1.0809      2.00000
    350       1.0914      2.00000
    351       1.1109      2.00000
    352       1.1611      2.00000
    353       1.1666      2.00000
    354       1.1804      2.00000
    355       1.2308      2.00000
    356       1.2431      2.00000
    357       1.2878      2.00000
    358       1.3164      2.00000
    359       1.3492      2.00000
    360       1.3860      2.00000
    361       1.4460      2.00000
    362       1.4543      2.00000
    363       1.4620      2.00000
    364       1.4771      2.00000
    365       1.5111      2.00000
    366       1.5370      2.00000
    367       1.6015      2.00000
    368       1.6179      2.00000
    369       1.6325      2.00000
    370       1.6532      2.00000
    371       1.6921      2.00000
    372       1.7093      2.00000
    373       1.7298      2.00000
    374       1.7366      2.00000
    375       1.7627      2.00000
    376       1.8075      2.00000
    377       1.8352      2.00000
    378       1.8570      2.00000
    379       1.8691      2.00000
    380       1.9265      2.00000
    381       1.9349      2.00000
    382       1.9469      2.00000
    383       1.9659      2.00000
    384       1.9797      2.00000
    385       1.9974      2.00000
    386       2.0054      2.00000
    387       2.0321      2.00000
    388       2.0616      2.00000
    389       2.0873      2.00000
    390       2.1228      2.00000
    391       2.1377      2.00000
    392       2.1548      2.00000
    393       2.1839      2.00000
    394       2.2022      2.00000
    395       2.2153      2.00000
    396       2.2314      2.00000
    397       2.2569      2.00000
    398       2.2717      2.00000
    399       2.3084      2.00000
    400       2.3390      2.00000
    401       2.3613      2.00000
    402       2.4095      2.00000
    403       2.4182      2.00000
    404       2.4409      2.00000
    405       2.4644      2.00000
    406       2.4793      2.00000
    407       2.5121      2.00000
    408       2.5629      2.00000
    409       2.5907      2.00000
    410       2.6201      2.00000
    411       2.6433      2.00000
    412       2.6730      2.00000
    413       2.7469      2.00000
    414       2.7681      2.00000
    415       2.8157      2.00000
    416       2.8307      2.00000
    417       2.8403      2.00000
    418       2.8552      2.00000
    419       2.8898      2.00000
    420       2.9496      2.00000
    421       2.9728      2.00000
    422       2.9943      2.00000
    423       3.0573      2.00000
    424       3.0753      2.00000
    425       3.1426      1.99996
    426       3.1773      1.99970
    427       3.1901      1.99941
    428       3.2135      1.99810
    429       3.2576      1.98687
    430       3.2717      1.97745
    431       3.3072      1.92474
    432       3.3405      1.80916
    433       3.4178      1.17010
    434       3.4709      0.59166
    435       3.4911      0.41180
    436       3.5096      0.27850
    437       3.5224      0.20629
    438       3.5578      0.07758
    439       3.6867      0.00033
    440       3.7269      0.00003
    441       3.7658      0.00000
    442       3.7954      0.00000
    443       3.8033      0.00000
    444       3.8314      0.00000
    445       3.8342      0.00000
    446       3.8475      0.00000
    447       3.8748      0.00000
    448       3.9025      0.00000
    449       3.9262      0.00000
    450       3.9431      0.00000
    451       3.9662      0.00000
    452       3.9735      0.00000
    453       4.0228      0.00000
    454       4.0298      0.00000
    455       4.0679      0.00000
    456       4.0901      0.00000
    457       4.1524      0.00000
    458       4.1751      0.00000
    459       4.2408      0.00000
    460       4.2759      0.00000
    461       4.2945      0.00000
    462       4.3004      0.00000
    463       4.3230      0.00000
    464       4.3692      0.00000
    465       4.3824      0.00000
    466       4.3869      0.00000
    467       4.4022      0.00000
    468       4.4221      0.00000
    469       4.4533      0.00000
    470       4.4674      0.00000
    471       4.4779      0.00000
    472       4.4993      0.00000
    473       4.5189      0.00000
    474       4.5586      0.00000
    475       4.5876      0.00000
    476       4.6035      0.00000
    477       4.6320      0.00000
    478       4.6482      0.00000
    479       4.6560      0.00000
    480       4.6713      0.00000
    481       4.6836      0.00000
    482       4.7239      0.00000
    483       4.7385      0.00000
    484       4.7653      0.00000
    485       4.7824      0.00000
    486       4.8048      0.00000
    487       4.8218      0.00000
    488       4.8370      0.00000
    489       4.8582      0.00000
    490       4.8797      0.00000
    491       4.8908      0.00000
    492       4.9061      0.00000
    493       4.9163      0.00000
    494       4.9330      0.00000
    495       4.9838      0.00000
    496       5.0146      0.00000
    497       5.0408      0.00000
    498       5.0560      0.00000
    499       5.1103      0.00000
    500       5.1518      0.00000
    501       5.1645      0.00000
    502       5.1734      0.00000
    503       5.1802      0.00000
    504       5.1967      0.00000
    505       5.2084      0.00000
    506       5.2170      0.00000
    507       5.2469      0.00000
    508       5.2530      0.00000
    509       5.2636      0.00000
    510       5.2699      0.00000
    511       5.2794      0.00000
    512       5.3112      0.00000
    513       5.3277      0.00000
    514       5.3633      0.00000
    515       5.3810      0.00000
    516       5.4229      0.00000
    517       5.4544      0.00000
    518       5.4876      0.00000
    519       5.5035      0.00000

 k-point     4 :       0.5000    0.0000    0.0000
  band No.  band energies     occupation 
      1     -57.7416      2.00000
      2     -57.7384      2.00000
      3     -57.6812      2.00000
      4     -57.6742      2.00000
      5     -57.6608      2.00000
      6     -57.6589      2.00000
      7     -57.6536      2.00000
      8     -57.6495      2.00000
      9     -57.6299      2.00000
     10     -57.6270      2.00000
     11     -57.6260      2.00000
     12     -57.6169      2.00000
     13     -57.6140      2.00000
     14     -57.6065      2.00000
     15     -57.5999      2.00000
     16     -57.5973      2.00000
     17     -57.5835      2.00000
     18     -57.5434      2.00000
     19     -57.5355      2.00000
     20     -57.5144      2.00000
     21     -57.5039      2.00000
     22     -57.5006      2.00000
     23     -57.4980      2.00000
     24     -57.4959      2.00000
     25     -57.4939      2.00000
     26     -57.4933      2.00000
     27     -57.4909      2.00000
     28     -57.4864      2.00000
     29     -57.4855      2.00000
     30     -57.4830      2.00000
     31     -57.4813      2.00000
     32     -57.4779      2.00000
     33     -57.4713      2.00000
     34     -57.4660      2.00000
     35     -57.4642      2.00000
     36     -57.4574      2.00000
     37     -57.4536      2.00000
     38     -57.4502      2.00000
     39     -57.4483      2.00000
     40     -57.4286      2.00000
     41     -57.4070      2.00000
     42     -57.4031      2.00000
     43     -57.3643      2.00000
     44     -57.3497      2.00000
     45     -57.3007      2.00000
     46     -57.2946      2.00000
     47     -57.2929      2.00000
     48     -57.2918      2.00000
     49     -57.2908      2.00000
     50     -57.2867      2.00000
     51     -57.2845      2.00000
     52     -57.2809      2.00000
     53     -57.2780      2.00000
     54     -57.2757      2.00000
     55     -57.2721      2.00000
     56     -57.2674      2.00000
     57     -57.2531      2.00000
     58     -57.2316      2.00000
     59     -57.2225      2.00000
     60     -57.2115      2.00000
     61     -51.5836      2.00000
     62     -51.5813      2.00000
     63     -32.3713      2.00000
     64     -32.3404      2.00000
     65     -32.3052      2.00000
     66     -32.2881      2.00000
     67     -32.2666      2.00000
     68     -32.2611      2.00000
     69     -32.2482      2.00000
     70     -32.2317      2.00000
     71     -32.2284      2.00000
     72     -32.2253      2.00000
     73     -32.2124      2.00000
     74     -32.2087      2.00000
     75     -32.2051      2.00000
     76     -32.1983      2.00000
     77     -32.1951      2.00000
     78     -32.1818      2.00000
     79     -32.1691      2.00000
     80     -32.1629      2.00000
     81     -32.1493      2.00000
     82     -32.1442      2.00000
     83     -32.1347      2.00000
     84     -32.1251      2.00000
     85     -32.1159      2.00000
     86     -32.1147      2.00000
     87     -32.1061      2.00000
     88     -32.1009      2.00000
     89     -32.0976      2.00000
     90     -32.0959      2.00000
     91     -32.0896      2.00000
     92     -32.0834      2.00000
     93     -32.0693      2.00000
     94     -32.0599      2.00000
     95     -32.0537      2.00000
     96     -32.0322      2.00000
     97     -31.9996      2.00000
     98     -31.9793      2.00000
     99     -31.9654      2.00000
    100     -31.9493      2.00000
    101     -31.9447      2.00000
    102     -31.9377      2.00000
    103     -31.9166      2.00000
    104     -31.9121      2.00000
    105     -31.9048      2.00000
    106     -31.9009      2.00000
    107     -31.8929      2.00000
    108     -31.8842      2.00000
    109     -31.8736      2.00000
    110     -31.8562      2.00000
    111     -31.8536      2.00000
    112     -31.8529      2.00000
    113     -31.8408      2.00000
    114     -31.8293      2.00000
    115     -31.8215      2.00000
    116     -31.8034      2.00000
    117     -31.7983      2.00000
    118     -31.7850      2.00000
    119     -31.7760      2.00000
    120     -31.7658      2.00000
    121     -31.7612      2.00000
    122     -31.7577      2.00000
    123     -31.7566      2.00000
    124     -31.7464      2.00000
    125     -31.7267      2.00000
    126     -31.7203      2.00000
    127     -31.7172      2.00000
    128     -31.7095      2.00000
    129     -31.7032      2.00000
    130     -31.6979      2.00000
    131     -31.6848      2.00000
    132     -31.6682      2.00000
    133     -31.6602      2.00000
    134     -31.6566      2.00000
    135     -31.6514      2.00000
    136     -31.6453      2.00000
    137     -31.6351      2.00000
    138     -31.6244      2.00000
    139     -31.5969      2.00000
    140     -31.5914      2.00000
    141     -31.5891      2.00000
    142     -31.5847      2.00000
    143     -31.5802      2.00000
    144     -31.5732      2.00000
    145     -31.5667      2.00000
    146     -31.5653      2.00000
    147     -31.5622      2.00000
    148     -31.5588      2.00000
    149     -31.5471      2.00000
    150     -31.5416      2.00000
    151     -31.5291      2.00000
    152     -31.5199      2.00000
    153     -31.5145      2.00000
    154     -31.5097      2.00000
    155     -31.5025      2.00000
    156     -31.4958      2.00000
    157     -31.4873      2.00000
    158     -31.4828      2.00000
    159     -31.4823      2.00000
    160     -31.4726      2.00000
    161     -31.4700      2.00000
    162     -31.4577      2.00000
    163     -31.4474      2.00000
    164     -31.4473      2.00000
    165     -31.4426      2.00000
    166     -31.4342      2.00000
    167     -31.4163      2.00000
    168     -31.4086      2.00000
    169     -31.4014      2.00000
    170     -31.3940      2.00000
    171     -31.3834      2.00000
    172     -31.3725      2.00000
    173     -31.3639      2.00000
    174     -31.3619      2.00000
    175     -31.3595      2.00000
    176     -31.3529      2.00000
    177     -31.3469      2.00000
    178     -31.3403      2.00000
    179     -31.3366      2.00000
    180     -31.3301      2.00000
    181     -31.3032      2.00000
    182     -31.2999      2.00000
    183     -31.2961      2.00000
    184     -31.2884      2.00000
    185     -31.2859      2.00000
    186     -31.2807      2.00000
    187     -31.2783      2.00000
    188     -31.2736      2.00000
    189     -31.2732      2.00000
    190     -31.2677      2.00000
    191     -31.2653      2.00000
    192     -31.2584      2.00000
    193     -31.2570      2.00000
    194     -31.2555      2.00000
    195     -31.2418      2.00000
    196     -31.2368      2.00000
    197     -31.2336      2.00000
    198     -31.2256      2.00000
    199     -31.2210      2.00000
    200     -31.2139      2.00000
    201     -31.2105      2.00000
    202     -31.2047      2.00000
    203     -31.2034      2.00000
    204     -31.1928      2.00000
    205     -31.1851      2.00000
    206     -31.1774      2.00000
    207     -31.1719      2.00000
    208     -31.1686      2.00000
    209     -31.1587      2.00000
    210     -31.1529      2.00000
    211     -31.1522      2.00000
    212     -31.1397      2.00000
    213     -31.1286      2.00000
    214     -31.1280      2.00000
    215     -31.1270      2.00000
    216     -31.1257      2.00000
    217     -31.1237      2.00000
    218     -31.1232      2.00000
    219     -31.1212      2.00000
    220     -31.1084      2.00000
    221     -31.1075      2.00000
    222     -31.1065      2.00000
    223     -31.1063      2.00000
    224     -31.1053      2.00000
    225     -31.0992      2.00000
    226     -31.0956      2.00000
    227     -31.0933      2.00000
    228     -31.0873      2.00000
    229     -31.0781      2.00000
    230     -31.0759      2.00000
    231     -31.0705      2.00000
    232     -31.0564      2.00000
    233     -31.0413      2.00000
    234     -31.0293      2.00000
    235     -31.0217      2.00000
    236     -31.0045      2.00000
    237     -30.9962      2.00000
    238     -30.9903      2.00000
    239     -30.9861      2.00000
    240     -30.9663      2.00000
    241     -30.9537      2.00000
    242     -30.9439      2.00000
    243     -27.7445      2.00000
    244     -27.7342      2.00000
    245     -27.6130      2.00000
    246     -27.6013      2.00000
    247     -27.5378      2.00000
    248     -27.5347      2.00000
    249      -2.7529      2.00000
    250      -2.7207      2.00000
    251      -1.9100      2.00000
    252      -1.8365      2.00000
    253      -1.5150      2.00000
    254      -1.4841      2.00000
    255      -1.3120      2.00000
    256      -1.2578      2.00000
    257      -1.2012      2.00000
    258      -1.1871      2.00000
    259      -1.1799      2.00000
    260      -1.1610      2.00000
    261      -1.0932      2.00000
    262      -1.0706      2.00000
    263      -1.0528      2.00000
    264      -1.0307      2.00000
    265      -1.0105      2.00000
    266      -1.0016      2.00000
    267      -0.9784      2.00000
    268      -0.9122      2.00000
    269      -0.8868      2.00000
    270      -0.8822      2.00000
    271      -0.8567      2.00000
    272      -0.8477      2.00000
    273      -0.8314      2.00000
    274      -0.8130      2.00000
    275      -0.8083      2.00000
    276      -0.7780      2.00000
    277      -0.7553      2.00000
    278      -0.7315      2.00000
    279      -0.7234      2.00000
    280      -0.6682      2.00000
    281      -0.4488      2.00000
    282      -0.4161      2.00000
    283      -0.4009      2.00000
    284      -0.3820      2.00000
    285      -0.3525      2.00000
    286      -0.3458      2.00000
    287      -0.3114      2.00000
    288      -0.2894      2.00000
    289      -0.2777      2.00000
    290      -0.2655      2.00000
    291      -0.2345      2.00000
    292      -0.2272      2.00000
    293      -0.2139      2.00000
    294      -0.2037      2.00000
    295      -0.1802      2.00000
    296      -0.1382      2.00000
    297      -0.0950      2.00000
    298      -0.0812      2.00000
    299      -0.0202      2.00000
    300      -0.0079      2.00000
    301       0.0102      2.00000
    302       0.0342      2.00000
    303       0.0931      2.00000
    304       0.0949      2.00000
    305       0.1042      2.00000
    306       0.1111      2.00000
    307       0.1390      2.00000
    308       0.2162      2.00000
    309       0.2549      2.00000
    310       0.3442      2.00000
    311       0.3706      2.00000
    312       0.3825      2.00000
    313       0.3869      2.00000
    314       0.3949      2.00000
    315       0.4059      2.00000
    316       0.4069      2.00000
    317       0.4095      2.00000
    318       0.4332      2.00000
    319       0.4465      2.00000
    320       0.4720      2.00000
    321       0.4877      2.00000
    322       0.5316      2.00000
    323       0.5384      2.00000
    324       0.5484      2.00000
    325       0.5505      2.00000
    326       0.5588      2.00000
    327       0.5961      2.00000
    328       0.6073      2.00000
    329       0.6416      2.00000
    330       0.6489      2.00000
    331       0.6544      2.00000
    332       0.6591      2.00000
    333       0.6719      2.00000
    334       0.6840      2.00000
    335       0.6976      2.00000
    336       0.7123      2.00000
    337       0.7426      2.00000
    338       0.7704      2.00000
    339       0.7780      2.00000
    340       0.7884      2.00000
    341       0.8298      2.00000
    342       0.8382      2.00000
    343       0.8480      2.00000
    344       0.8580      2.00000
    345       1.0123      2.00000
    346       1.0181      2.00000
    347       1.0651      2.00000
    348       1.0741      2.00000
    349       1.0934      2.00000
    350       1.1170      2.00000
    351       1.1370      2.00000
    352       1.1644      2.00000
    353       1.1803      2.00000
    354       1.2021      2.00000
    355       1.2253      2.00000
    356       1.3040      2.00000
    357       1.3155      2.00000
    358       1.3564      2.00000
    359       1.3708      2.00000
    360       1.3737      2.00000
    361       1.3901      2.00000
    362       1.4164      2.00000
    363       1.4506      2.00000
    364       1.4805      2.00000
    365       1.4964      2.00000
    366       1.5085      2.00000
    367       1.5355      2.00000
    368       1.5427      2.00000
    369       1.5592      2.00000
    370       1.5773      2.00000
    371       1.6059      2.00000
    372       1.6430      2.00000
    373       1.6851      2.00000
    374       1.7081      2.00000
    375       1.8159      2.00000
    376       1.8499      2.00000
    377       1.8618      2.00000
    378       1.8700      2.00000
    379       1.8923      2.00000
    380       1.9120      2.00000
    381       1.9348      2.00000
    382       1.9604      2.00000
    383       1.9780      2.00000
    384       1.9961      2.00000
    385       2.0050      2.00000
    386       2.0180      2.00000
    387       2.0211      2.00000
    388       2.0435      2.00000
    389       2.0564      2.00000
    390       2.0699      2.00000
    391       2.0805      2.00000
    392       2.1061      2.00000
    393       2.1284      2.00000
    394       2.1473      2.00000
    395       2.1773      2.00000
    396       2.1868      2.00000
    397       2.2193      2.00000
    398       2.2414      2.00000
    399       2.2629      2.00000
    400       2.2804      2.00000
    401       2.3370      2.00000
    402       2.3438      2.00000
    403       2.3829      2.00000
    404       2.4028      2.00000
    405       2.5541      2.00000
    406       2.5799      2.00000
    407       2.5928      2.00000
    408       2.6595      2.00000
    409       2.6979      2.00000
    410       2.7331      2.00000
    411       2.7495      2.00000
    412       2.7522      2.00000
    413       2.7711      2.00000
    414       2.7732      2.00000
    415       2.8142      2.00000
    416       2.8356      2.00000
    417       2.8596      2.00000
    418       2.9030      2.00000
    419       2.9525      2.00000
    420       2.9935      2.00000
    421       3.0159      2.00000
    422       3.0598      2.00000
    423       3.0946      2.00000
    424       3.1063      2.00000
    425       3.1141      1.99999
    426       3.1352      1.99997
    427       3.1578      1.99990
    428       3.1855      1.99954
    429       3.2658      1.98199
    430       3.2725      1.97677
    431       3.3053      1.92916
    432       3.3379      1.82124
    433       3.3674      1.64644
    434       3.3927      1.43170
    435       3.4488      0.82294
    436       3.5056      0.30448
    437       3.5447      0.11432
    438       3.5815      0.03576
    439       3.6012      0.01737
    440       3.6407      0.00332
    441       3.6753      0.00061
    442       3.7045      0.00012
    443       3.7381      0.00002
    444       3.7840      0.00000
    445       3.8395      0.00000
    446       3.8659      0.00000
    447       3.8696      0.00000
    448       3.9044      0.00000
    449       3.9829      0.00000
    450       4.0509      0.00000
    451       4.0679      0.00000
    452       4.0939      0.00000
    453       4.1327      0.00000
    454       4.1472      0.00000
    455       4.1619      0.00000
    456       4.2072      0.00000
    457       4.2221      0.00000
    458       4.2308      0.00000
    459       4.2556      0.00000
    460       4.2680      0.00000
    461       4.3641      0.00000
    462       4.3997      0.00000
    463       4.4172      0.00000
    464       4.5220      0.00000
    465       4.5318      0.00000
    466       4.5434      0.00000
    467       4.5456      0.00000
    468       4.5530      0.00000
    469       4.5667      0.00000
    470       4.5825      0.00000
    471       4.5920      0.00000
    472       4.5960      0.00000
    473       4.6069      0.00000
    474       4.6139      0.00000
    475       4.6223      0.00000
    476       4.6316      0.00000
    477       4.6697      0.00000
    478       4.6983      0.00000
    479       4.7239      0.00000
    480       4.7350      0.00000
    481       4.7686      0.00000
    482       4.8230      0.00000
    483       4.8260      0.00000
    484       4.8342      0.00000
    485       4.8649      0.00000
    486       4.8751      0.00000
    487       4.8845      0.00000
    488       4.8847      0.00000
    489       4.8930      0.00000
    490       4.8968      0.00000
    491       4.9215      0.00000
    492       4.9295      0.00000
    493       4.9358      0.00000
    494       4.9555      0.00000
    495       4.9818      0.00000
    496       4.9927      0.00000
    497       5.0058      0.00000
    498       5.0277      0.00000
    499       5.0376      0.00000
    500       5.0571      0.00000
    501       5.0896      0.00000
    502       5.0963      0.00000
    503       5.1651      0.00000
    504       5.1788      0.00000
    505       5.1986      0.00000
    506       5.2183      0.00000
    507       5.2335      0.00000
    508       5.2500      0.00000
    509       5.2653      0.00000
    510       5.2939      0.00000
    511       5.3375      0.00000
    512       5.3459      0.00000
    513       5.3572      0.00000
    514       5.3795      0.00000
    515       5.3933      0.00000
    516       5.4119      0.00000
    517       5.4209      0.00000
    518       5.4542      0.00000
    519       5.4685      0.00000

 k-point     5 :       0.0000    0.5000    0.0000
  band No.  band energies     occupation 
      1     -57.7416      2.00000
      2     -57.7384      2.00000
      3     -57.6811      2.00000
      4     -57.6736      2.00000
      5     -57.6609      2.00000
      6     -57.6589      2.00000
      7     -57.6541      2.00000
      8     -57.6495      2.00000
      9     -57.6300      2.00000
     10     -57.6274      2.00000
     11     -57.6257      2.00000
     12     -57.6169      2.00000
     13     -57.6143      2.00000
     14     -57.6062      2.00000
     15     -57.5999      2.00000
     16     -57.5970      2.00000
     17     -57.5836      2.00000
     18     -57.5436      2.00000
     19     -57.5358      2.00000
     20     -57.5143      2.00000
     21     -57.5031      2.00000
     22     -57.5007      2.00000
     23     -57.4986      2.00000
     24     -57.4960      2.00000
     25     -57.4943      2.00000
     26     -57.4932      2.00000
     27     -57.4908      2.00000
     28     -57.4873      2.00000
     29     -57.4855      2.00000
     30     -57.4834      2.00000
     31     -57.4813      2.00000
     32     -57.4758      2.00000
     33     -57.4718      2.00000
     34     -57.4656      2.00000
     35     -57.4648      2.00000
     36     -57.4573      2.00000
     37     -57.4538      2.00000
     38     -57.4496      2.00000
     39     -57.4483      2.00000
     40     -57.4292      2.00000
     41     -57.4067      2.00000
     42     -57.4034      2.00000
     43     -57.3653      2.00000
     44     -57.3490      2.00000
     45     -57.3006      2.00000
     46     -57.2937      2.00000
     47     -57.2932      2.00000
     48     -57.2918      2.00000
     49     -57.2907      2.00000
     50     -57.2866      2.00000
     51     -57.2843      2.00000
     52     -57.2811      2.00000
     53     -57.2777      2.00000
     54     -57.2757      2.00000
     55     -57.2720      2.00000
     56     -57.2677      2.00000
     57     -57.2541      2.00000
     58     -57.2319      2.00000
     59     -57.2220      2.00000
     60     -57.2113      2.00000
     61     -51.5836      2.00000
     62     -51.5813      2.00000
     63     -32.3685      2.00000
     64     -32.3429      2.00000
     65     -32.3088      2.00000
     66     -32.2855      2.00000
     67     -32.2668      2.00000
     68     -32.2609      2.00000
     69     -32.2505      2.00000
     70     -32.2317      2.00000
     71     -32.2289      2.00000
     72     -32.2207      2.00000
     73     -32.2127      2.00000
     74     -32.2085      2.00000
     75     -32.2053      2.00000
     76     -32.1982      2.00000
     77     -32.1951      2.00000
     78     -32.1827      2.00000
     79     -32.1684      2.00000
     80     -32.1621      2.00000
     81     -32.1524      2.00000
     82     -32.1397      2.00000
     83     -32.1347      2.00000
     84     -32.1249      2.00000
     85     -32.1170      2.00000
     86     -32.1142      2.00000
     87     -32.1059      2.00000
     88     -32.1014      2.00000
     89     -32.0984      2.00000
     90     -32.0958      2.00000
     91     -32.0896      2.00000
     92     -32.0837      2.00000
     93     -32.0688      2.00000
     94     -32.0603      2.00000
     95     -32.0536      2.00000
     96     -32.0291      2.00000
     97     -32.0070      2.00000
     98     -31.9767      2.00000
     99     -31.9673      2.00000
    100     -31.9484      2.00000
    101     -31.9451      2.00000
    102     -31.9388      2.00000
    103     -31.9144      2.00000
    104     -31.9140      2.00000
    105     -31.9052      2.00000
    106     -31.8999      2.00000
    107     -31.8930      2.00000
    108     -31.8831      2.00000
    109     -31.8757      2.00000
    110     -31.8552      2.00000
    111     -31.8531      2.00000
    112     -31.8522      2.00000
    113     -31.8397      2.00000
    114     -31.8297      2.00000
    115     -31.8206      2.00000
    116     -31.8051      2.00000
    117     -31.7974      2.00000
    118     -31.7828      2.00000
    119     -31.7747      2.00000
    120     -31.7639      2.00000
    121     -31.7625      2.00000
    122     -31.7580      2.00000
    123     -31.7566      2.00000
    124     -31.7477      2.00000
    125     -31.7329      2.00000
    126     -31.7247      2.00000
    127     -31.7183      2.00000
    128     -31.7083      2.00000
    129     -31.7009      2.00000
    130     -31.6961      2.00000
    131     -31.6839      2.00000
    132     -31.6693      2.00000
    133     -31.6579      2.00000
    134     -31.6551      2.00000
    135     -31.6523      2.00000
    136     -31.6465      2.00000
    137     -31.6315      2.00000
    138     -31.6242      2.00000
    139     -31.5973      2.00000
    140     -31.5914      2.00000
    141     -31.5892      2.00000
    142     -31.5844      2.00000
    143     -31.5792      2.00000
    144     -31.5752      2.00000
    145     -31.5688      2.00000
    146     -31.5655      2.00000
    147     -31.5641      2.00000
    148     -31.5593      2.00000
    149     -31.5469      2.00000
    150     -31.5394      2.00000
    151     -31.5277      2.00000
    152     -31.5182      2.00000
    153     -31.5144      2.00000
    154     -31.5112      2.00000
    155     -31.5024      2.00000
    156     -31.4941      2.00000
    157     -31.4870      2.00000
    158     -31.4826      2.00000
    159     -31.4788      2.00000
    160     -31.4704      2.00000
    161     -31.4701      2.00000
    162     -31.4578      2.00000
    163     -31.4474      2.00000
    164     -31.4470      2.00000
    165     -31.4445      2.00000
    166     -31.4330      2.00000
    167     -31.4180      2.00000
    168     -31.4078      2.00000
    169     -31.4022      2.00000
    170     -31.3935      2.00000
    171     -31.3870      2.00000
    172     -31.3728      2.00000
    173     -31.3638      2.00000
    174     -31.3608      2.00000
    175     -31.3587      2.00000
    176     -31.3527      2.00000
    177     -31.3474      2.00000
    178     -31.3407      2.00000
    179     -31.3381      2.00000
    180     -31.3294      2.00000
    181     -31.3052      2.00000
    182     -31.3031      2.00000
    183     -31.2966      2.00000
    184     -31.2884      2.00000
    185     -31.2864      2.00000
    186     -31.2809      2.00000
    187     -31.2780      2.00000
    188     -31.2743      2.00000
    189     -31.2727      2.00000
    190     -31.2678      2.00000
    191     -31.2656      2.00000
    192     -31.2591      2.00000
    193     -31.2563      2.00000
    194     -31.2514      2.00000
    195     -31.2431      2.00000
    196     -31.2372      2.00000
    197     -31.2339      2.00000
    198     -31.2262      2.00000
    199     -31.2196      2.00000
    200     -31.2151      2.00000
    201     -31.2105      2.00000
    202     -31.2041      2.00000
    203     -31.2033      2.00000
    204     -31.1923      2.00000
    205     -31.1871      2.00000
    206     -31.1762      2.00000
    207     -31.1718      2.00000
    208     -31.1677      2.00000
    209     -31.1583      2.00000
    210     -31.1524      2.00000
    211     -31.1523      2.00000
    212     -31.1407      2.00000
    213     -31.1286      2.00000
    214     -31.1279      2.00000
    215     -31.1270      2.00000
    216     -31.1256      2.00000
    217     -31.1237      2.00000
    218     -31.1230      2.00000
    219     -31.1210      2.00000
    220     -31.1084      2.00000
    221     -31.1070      2.00000
    222     -31.1066      2.00000
    223     -31.1051      2.00000
    224     -31.1028      2.00000
    225     -31.0987      2.00000
    226     -31.0949      2.00000
    227     -31.0931      2.00000
    228     -31.0878      2.00000
    229     -31.0772      2.00000
    230     -31.0759      2.00000
    231     -31.0706      2.00000
    232     -31.0553      2.00000
    233     -31.0462      2.00000
    234     -31.0310      2.00000
    235     -31.0204      2.00000
    236     -31.0038      2.00000
    237     -30.9994      2.00000
    238     -30.9893      2.00000
    239     -30.9859      2.00000
    240     -30.9623      2.00000
    241     -30.9555      2.00000
    242     -30.9447      2.00000
    243     -27.7445      2.00000
    244     -27.7342      2.00000
    245     -27.6130      2.00000
    246     -27.6013      2.00000
    247     -27.5378      2.00000
    248     -27.5347      2.00000
    249      -2.7529      2.00000
    250      -2.7207      2.00000
    251      -1.9098      2.00000
    252      -1.8366      2.00000
    253      -1.5163      2.00000
    254      -1.4840      2.00000
    255      -1.3136      2.00000
    256      -1.2572      2.00000
    257      -1.2015      2.00000
    258      -1.1869      2.00000
    259      -1.1809      2.00000
    260      -1.1605      2.00000
    261      -1.0927      2.00000
    262      -1.0702      2.00000
    263      -1.0523      2.00000
    264      -1.0302      2.00000
    265      -1.0101      2.00000
    266      -1.0020      2.00000
    267      -0.9792      2.00000
    268      -0.9127      2.00000
    269      -0.8860      2.00000
    270      -0.8824      2.00000
    271      -0.8572      2.00000
    272      -0.8482      2.00000
    273      -0.8308      2.00000
    274      -0.8121      2.00000
    275      -0.8082      2.00000
    276      -0.7742      2.00000
    277      -0.7575      2.00000
    278      -0.7314      2.00000
    279      -0.7233      2.00000
    280      -0.6678      2.00000
    281      -0.4484      2.00000
    282      -0.4167      2.00000
    283      -0.4008      2.00000
    284      -0.3812      2.00000
    285      -0.3535      2.00000
    286      -0.3444      2.00000
    287      -0.3105      2.00000
    288      -0.2902      2.00000
    289      -0.2778      2.00000
    290      -0.2633      2.00000
    291      -0.2339      2.00000
    292      -0.2284      2.00000
    293      -0.2153      2.00000
    294      -0.2067      2.00000
    295      -0.1799      2.00000
    296      -0.1377      2.00000
    297      -0.0953      2.00000
    298      -0.0810      2.00000
    299      -0.0168      2.00000
    300      -0.0077      2.00000
    301       0.0054      2.00000
    302       0.0315      2.00000
    303       0.0936      2.00000
    304       0.0947      2.00000
    305       0.1032      2.00000
    306       0.1130      2.00000
    307       0.1420      2.00000
    308       0.2158      2.00000
    309       0.2595      2.00000
    310       0.3395      2.00000
    311       0.3714      2.00000
    312       0.3819      2.00000
    313       0.3870      2.00000
    314       0.3956      2.00000
    315       0.4054      2.00000
    316       0.4073      2.00000
    317       0.4099      2.00000
    318       0.4312      2.00000
    319       0.4399      2.00000
    320       0.4841      2.00000
    321       0.4935      2.00000
    322       0.5311      2.00000
    323       0.5391      2.00000
    324       0.5463      2.00000
    325       0.5582      2.00000
    326       0.5585      2.00000
    327       0.5931      2.00000
    328       0.6069      2.00000
    329       0.6438      2.00000
    330       0.6491      2.00000
    331       0.6539      2.00000
    332       0.6606      2.00000
    333       0.6695      2.00000
    334       0.6834      2.00000
    335       0.6990      2.00000
    336       0.7082      2.00000
    337       0.7449      2.00000
    338       0.7708      2.00000
    339       0.7742      2.00000
    340       0.7888      2.00000
    341       0.8270      2.00000
    342       0.8443      2.00000
    343       0.8505      2.00000
    344       0.8547      2.00000
    345       1.0127      2.00000
    346       1.0204      2.00000
    347       1.0638      2.00000
    348       1.0805      2.00000
    349       1.0967      2.00000
    350       1.1141      2.00000
    351       1.1305      2.00000
    352       1.1649      2.00000
    353       1.1790      2.00000
    354       1.2064      2.00000
    355       1.2262      2.00000
    356       1.2995      2.00000
    357       1.3119      2.00000
    358       1.3544      2.00000
    359       1.3708      2.00000
    360       1.3759      2.00000
    361       1.3921      2.00000
    362       1.4134      2.00000
    363       1.4525      2.00000
    364       1.4799      2.00000
    365       1.4926      2.00000
    366       1.5084      2.00000
    367       1.5342      2.00000
    368       1.5428      2.00000
    369       1.5613      2.00000
    370       1.5766      2.00000
    371       1.6064      2.00000
    372       1.6413      2.00000
    373       1.6901      2.00000
    374       1.7027      2.00000
    375       1.8153      2.00000
    376       1.8405      2.00000
    377       1.8616      2.00000
    378       1.8730      2.00000
    379       1.8851      2.00000
    380       1.9099      2.00000
    381       1.9314      2.00000
    382       1.9575      2.00000
    383       1.9811      2.00000
    384       1.9952      2.00000
    385       2.0101      2.00000
    386       2.0165      2.00000
    387       2.0261      2.00000
    388       2.0458      2.00000
    389       2.0562      2.00000
    390       2.0629      2.00000
    391       2.0829      2.00000
    392       2.1086      2.00000
    393       2.1250      2.00000
    394       2.1445      2.00000
    395       2.1841      2.00000
    396       2.1900      2.00000
    397       2.2217      2.00000
    398       2.2389      2.00000
    399       2.2578      2.00000
    400       2.2766      2.00000
    401       2.3286      2.00000
    402       2.3395      2.00000
    403       2.3810      2.00000
    404       2.4024      2.00000
    405       2.5535      2.00000
    406       2.5795      2.00000
    407       2.5968      2.00000
    408       2.6677      2.00000
    409       2.6916      2.00000
    410       2.7229      2.00000
    411       2.7445      2.00000
    412       2.7526      2.00000
    413       2.7688      2.00000
    414       2.7713      2.00000
    415       2.8033      2.00000
    416       2.8405      2.00000
    417       2.8608      2.00000
    418       2.9028      2.00000
    419       2.9523      2.00000
    420       2.9909      2.00000
    421       3.0348      2.00000
    422       3.0677      2.00000
    423       3.0949      2.00000
    424       3.1100      2.00000
    425       3.1146      1.99999
    426       3.1326      1.99998
    427       3.1525      1.99993
    428       3.1872      1.99949
    429       3.2661      1.98173
    430       3.2740      1.97544
    431       3.3127      1.91126
    432       3.3355      1.83213
    433       3.3610      1.69157
    434       3.3942      1.41654
    435       3.4461      0.85371
    436       3.5142      0.25102
    437       3.5288      0.17561
    438       3.5844      0.03224
    439       3.5952      0.02185
    440       3.6542      0.00176
    441       3.6798      0.00048
    442       3.7256      0.00004
    443       3.7533      0.00001
    444       3.7816      0.00000
    445       3.8251      0.00000
    446       3.8662      0.00000
    447       3.8703      0.00000
    448       3.9205      0.00000
    449       3.9863      0.00000
    450       4.0546      0.00000
    451       4.0870      0.00000
    452       4.0995      0.00000
    453       4.1264      0.00000
    454       4.1394      0.00000
    455       4.1648      0.00000
    456       4.1997      0.00000
    457       4.2207      0.00000
    458       4.2306      0.00000
    459       4.2552      0.00000
    460       4.2710      0.00000
    461       4.3642      0.00000
    462       4.3990      0.00000
    463       4.4197      0.00000
    464       4.5144      0.00000
    465       4.5227      0.00000
    466       4.5432      0.00000
    467       4.5453      0.00000
    468       4.5532      0.00000
    469       4.5664      0.00000
    470       4.5820      0.00000
    471       4.5880      0.00000
    472       4.5944      0.00000
    473       4.5989      0.00000
    474       4.6152      0.00000
    475       4.6250      0.00000
    476       4.6420      0.00000
    477       4.6709      0.00000
    478       4.6933      0.00000
    479       4.7266      0.00000
    480       4.7293      0.00000
    481       4.7672      0.00000
    482       4.8216      0.00000
    483       4.8303      0.00000
    484       4.8312      0.00000
    485       4.8662      0.00000
    486       4.8734      0.00000
    487       4.8800      0.00000
    488       4.8849      0.00000
    489       4.8894      0.00000
    490       4.9066      0.00000
    491       4.9274      0.00000
    492       4.9294      0.00000
    493       4.9364      0.00000
    494       4.9521      0.00000
    495       4.9778      0.00000
    496       4.9888      0.00000
    497       5.0064      0.00000
    498       5.0310      0.00000
    499       5.0395      0.00000
    500       5.0559      0.00000
    501       5.0852      0.00000
    502       5.0982      0.00000
    503       5.1527      0.00000
    504       5.1792      0.00000
    505       5.2109      0.00000
    506       5.2170      0.00000
    507       5.2310      0.00000
    508       5.2510      0.00000
    509       5.2670      0.00000
    510       5.2926      0.00000
    511       5.3393      0.00000
    512       5.3454      0.00000
    513       5.3558      0.00000
    514       5.3832      0.00000
    515       5.3901      0.00000
    516       5.4059      0.00000
    517       5.4265      0.00000
    518       5.4567      0.00000
    519       5.4795      0.00000

 k-point     6 :       0.2500    0.2500    0.0000
  band No.  band energies     occupation 
      1     -57.7536      2.00000
      2     -57.7055      2.00000
      3     -57.7030      2.00000
      4     -57.6847      2.00000
      5     -57.6670      2.00000
      6     -57.6556      2.00000
      7     -57.6483      2.00000
      8     -57.6363      2.00000
      9     -57.6338      2.00000
     10     -57.6267      2.00000
     11     -57.6208      2.00000
     12     -57.6174      2.00000
     13     -57.6161      2.00000
     14     -57.6047      2.00000
     15     -57.6018      2.00000
     16     -57.6003      2.00000
     17     -57.5840      2.00000
     18     -57.5456      2.00000
     19     -57.5326      2.00000
     20     -57.5120      2.00000
     21     -57.5093      2.00000
     22     -57.4986      2.00000
     23     -57.4964      2.00000
     24     -57.4960      2.00000
     25     -57.4947      2.00000
     26     -57.4943      2.00000
     27     -57.4888      2.00000
     28     -57.4875      2.00000
     29     -57.4861      2.00000
     30     -57.4815      2.00000
     31     -57.4755      2.00000
     32     -57.4744      2.00000
     33     -57.4718      2.00000
     34     -57.4703      2.00000
     35     -57.4673      2.00000
     36     -57.4649      2.00000
     37     -57.4623      2.00000
     38     -57.4448      2.00000
     39     -57.4370      2.00000
     40     -57.4268      2.00000
     41     -57.4166      2.00000
     42     -57.3988      2.00000
     43     -57.3645      2.00000
     44     -57.3493      2.00000
     45     -57.2986      2.00000
     46     -57.2964      2.00000
     47     -57.2937      2.00000
     48     -57.2911      2.00000
     49     -57.2904      2.00000
     50     -57.2868      2.00000
     51     -57.2819      2.00000
     52     -57.2810      2.00000
     53     -57.2797      2.00000
     54     -57.2777      2.00000
     55     -57.2711      2.00000
     56     -57.2701      2.00000
     57     -57.2484      2.00000
     58     -57.2319      2.00000
     59     -57.2269      2.00000
     60     -57.2091      2.00000
     61     -51.5836      2.00000
     62     -51.5813      2.00000
     63     -32.3531      2.00000
     64     -32.3378      2.00000
     65     -32.3229      2.00000
     66     -32.3091      2.00000
     67     -32.2996      2.00000
     68     -32.2890      2.00000
     69     -32.2401      2.00000
     70     -32.2340      2.00000
     71     -32.2159      2.00000
     72     -32.2077      2.00000
     73     -32.2055      2.00000
     74     -32.1977      2.00000
     75     -32.1872      2.00000
     76     -32.1844      2.00000
     77     -32.1759      2.00000
     78     -32.1718      2.00000
     79     -32.1684      2.00000
     80     -32.1631      2.00000
     81     -32.1577      2.00000
     82     -32.1418      2.00000
     83     -32.1404      2.00000
     84     -32.1298      2.00000
     85     -32.1243      2.00000
     86     -32.1147      2.00000
     87     -32.1111      2.00000
     88     -32.1043      2.00000
     89     -32.0994      2.00000
     90     -32.0870      2.00000
     91     -32.0826      2.00000
     92     -32.0585      2.00000
     93     -32.0481      2.00000
     94     -32.0352      2.00000
     95     -32.0314      2.00000
     96     -32.0139      2.00000
     97     -32.0099      2.00000
     98     -31.9992      2.00000
     99     -31.9915      2.00000
    100     -31.9771      2.00000
    101     -31.9626      2.00000
    102     -31.9482      2.00000
    103     -31.9430      2.00000
    104     -31.9224      2.00000
    105     -31.9149      2.00000
    106     -31.9083      2.00000
    107     -31.8878      2.00000
    108     -31.8745      2.00000
    109     -31.8710      2.00000
    110     -31.8666      2.00000
    111     -31.8606      2.00000
    112     -31.8568      2.00000
    113     -31.8538      2.00000
    114     -31.8399      2.00000
    115     -31.8371      2.00000
    116     -31.8038      2.00000
    117     -31.8000      2.00000
    118     -31.7864      2.00000
    119     -31.7703      2.00000
    120     -31.7591      2.00000
    121     -31.7546      2.00000
    122     -31.7444      2.00000
    123     -31.7371      2.00000
    124     -31.7259      2.00000
    125     -31.7243      2.00000
    126     -31.7193      2.00000
    127     -31.7156      2.00000
    128     -31.7127      2.00000
    129     -31.7076      2.00000
    130     -31.6862      2.00000
    131     -31.6804      2.00000
    132     -31.6717      2.00000
    133     -31.6617      2.00000
    134     -31.6598      2.00000
    135     -31.6436      2.00000
    136     -31.6416      2.00000
    137     -31.6362      2.00000
    138     -31.6233      2.00000
    139     -31.6228      2.00000
    140     -31.6105      2.00000
    141     -31.6008      2.00000
    142     -31.5985      2.00000
    143     -31.5904      2.00000
    144     -31.5773      2.00000
    145     -31.5674      2.00000
    146     -31.5626      2.00000
    147     -31.5524      2.00000
    148     -31.5490      2.00000
    149     -31.5348      2.00000
    150     -31.5316      2.00000
    151     -31.5208      2.00000
    152     -31.5139      2.00000
    153     -31.5098      2.00000
    154     -31.4999      2.00000
    155     -31.4921      2.00000
    156     -31.4815      2.00000
    157     -31.4799      2.00000
    158     -31.4790      2.00000
    159     -31.4776      2.00000
    160     -31.4687      2.00000
    161     -31.4608      2.00000
    162     -31.4536      2.00000
    163     -31.4504      2.00000
    164     -31.4404      2.00000
    165     -31.4329      2.00000
    166     -31.4278      2.00000
    167     -31.4198      2.00000
    168     -31.4087      2.00000
    169     -31.3999      2.00000
    170     -31.3966      2.00000
    171     -31.3925      2.00000
    172     -31.3887      2.00000
    173     -31.3801      2.00000
    174     -31.3742      2.00000
    175     -31.3600      2.00000
    176     -31.3573      2.00000
    177     -31.3484      2.00000
    178     -31.3378      2.00000
    179     -31.3269      2.00000
    180     -31.3220      2.00000
    181     -31.3134      2.00000
    182     -31.3092      2.00000
    183     -31.2920      2.00000
    184     -31.2894      2.00000
    185     -31.2849      2.00000
    186     -31.2818      2.00000
    187     -31.2721      2.00000
    188     -31.2678      2.00000
    189     -31.2668      2.00000
    190     -31.2645      2.00000
    191     -31.2629      2.00000
    192     -31.2538      2.00000
    193     -31.2535      2.00000
    194     -31.2465      2.00000
    195     -31.2420      2.00000
    196     -31.2414      2.00000
    197     -31.2371      2.00000
    198     -31.2280      2.00000
    199     -31.2241      2.00000
    200     -31.2206      2.00000
    201     -31.2167      2.00000
    202     -31.2120      2.00000
    203     -31.2054      2.00000
    204     -31.1993      2.00000
    205     -31.1808      2.00000
    206     -31.1769      2.00000
    207     -31.1669      2.00000
    208     -31.1667      2.00000
    209     -31.1633      2.00000
    210     -31.1625      2.00000
    211     -31.1606      2.00000
    212     -31.1449      2.00000
    213     -31.1425      2.00000
    214     -31.1363      2.00000
    215     -31.1321      2.00000
    216     -31.1297      2.00000
    217     -31.1260      2.00000
    218     -31.1207      2.00000
    219     -31.1193      2.00000
    220     -31.1150      2.00000
    221     -31.1100      2.00000
    222     -31.1050      2.00000
    223     -31.1046      2.00000
    224     -31.0971      2.00000
    225     -31.0964      2.00000
    226     -31.0943      2.00000
    227     -31.0869      2.00000
    228     -31.0864      2.00000
    229     -31.0788      2.00000
    230     -31.0658      2.00000
    231     -31.0594      2.00000
    232     -31.0563      2.00000
    233     -31.0429      2.00000
    234     -31.0355      2.00000
    235     -31.0183      2.00000
    236     -31.0104      2.00000
    237     -30.9971      2.00000
    238     -30.9884      2.00000
    239     -30.9838      2.00000
    240     -30.9614      2.00000
    241     -30.9541      2.00000
    242     -30.9381      2.00000
    243     -27.7445      2.00000
    244     -27.7342      2.00000
    245     -27.6130      2.00000
    246     -27.6013      2.00000
    247     -27.5378      2.00000
    248     -27.5346      2.00000
    249      -3.0048      2.00000
    250      -2.0729      2.00000
    251      -2.0250      2.00000
    252      -1.9960      2.00000
    253      -1.4292      2.00000
    254      -1.4057      2.00000
    255      -1.3968      2.00000
    256      -1.3474      2.00000
    257      -1.3178      2.00000
    258      -1.3050      2.00000
    259      -1.3006      2.00000
    260      -1.2988      2.00000
    261      -1.2927      2.00000
    262      -1.2389      2.00000
    263      -1.1454      2.00000
    264      -0.9765      2.00000
    265      -0.9333      2.00000
    266      -0.8868      2.00000
    267      -0.8773      2.00000
    268      -0.8637      2.00000
    269      -0.8628      2.00000
    270      -0.8415      2.00000
    271      -0.8380      2.00000
    272      -0.8021      2.00000
    273      -0.7930      2.00000
    274      -0.7809      2.00000
    275      -0.7754      2.00000
    276      -0.6798      2.00000
    277      -0.6666      2.00000
    278      -0.5559      2.00000
    279      -0.5406      2.00000
    280      -0.5381      2.00000
    281      -0.5254      2.00000
    282      -0.4794      2.00000
    283      -0.4708      2.00000
    284      -0.4251      2.00000
    285      -0.4190      2.00000
    286      -0.4131      2.00000
    287      -0.3537      2.00000
    288      -0.3389      2.00000
    289      -0.3280      2.00000
    290      -0.3048      2.00000
    291      -0.2924      2.00000
    292      -0.2471      2.00000
    293      -0.2255      2.00000
    294      -0.1533      2.00000
    295      -0.1492      2.00000
    296      -0.1062      2.00000
    297      -0.0864      2.00000
    298      -0.0136      2.00000
    299      -0.0099      2.00000
    300       0.0208      2.00000
    301       0.0755      2.00000
    302       0.0853      2.00000
    303       0.1082      2.00000
    304       0.1370      2.00000
    305       0.1588      2.00000
    306       0.1795      2.00000
    307       0.2011      2.00000
    308       0.2316      2.00000
    309       0.2705      2.00000
    310       0.2808      2.00000
    311       0.2964      2.00000
    312       0.2984      2.00000
    313       0.3610      2.00000
    314       0.3928      2.00000
    315       0.3961      2.00000
    316       0.4020      2.00000
    317       0.4035      2.00000
    318       0.4230      2.00000
    319       0.4308      2.00000
    320       0.4659      2.00000
    321       0.4754      2.00000
    322       0.4778      2.00000
    323       0.5012      2.00000
    324       0.5069      2.00000
    325       0.5350      2.00000
    326       0.5421      2.00000
    327       0.5531      2.00000
    328       0.5565      2.00000
    329       0.5831      2.00000
    330       0.5908      2.00000
    331       0.6231      2.00000
    332       0.6544      2.00000
    333       0.6813      2.00000
    334       0.7088      2.00000
    335       0.7661      2.00000
    336       0.7847      2.00000
    337       0.8006      2.00000
    338       0.8231      2.00000
    339       0.8295      2.00000
    340       0.8476      2.00000
    341       0.8586      2.00000
    342       0.9217      2.00000
    343       0.9457      2.00000
    344       0.9475      2.00000
    345       0.9802      2.00000
    346       0.9845      2.00000
    347       0.9953      2.00000
    348       1.0077      2.00000
    349       1.0176      2.00000
    350       1.0478      2.00000
    351       1.0794      2.00000
    352       1.1689      2.00000
    353       1.1718      2.00000
    354       1.1979      2.00000
    355       1.2247      2.00000
    356       1.2873      2.00000
    357       1.3320      2.00000
    358       1.3365      2.00000
    359       1.3495      2.00000
    360       1.3742      2.00000
    361       1.4011      2.00000
    362       1.4089      2.00000
    363       1.4664      2.00000
    364       1.4832      2.00000
    365       1.4980      2.00000
    366       1.5184      2.00000
    367       1.5488      2.00000
    368       1.5568      2.00000
    369       1.5868      2.00000
    370       1.6046      2.00000
    371       1.6100      2.00000
    372       1.6619      2.00000
    373       1.7186      2.00000
    374       1.7268      2.00000
    375       1.7576      2.00000
    376       1.7602      2.00000
    377       1.7684      2.00000
    378       1.7845      2.00000
    379       1.8497      2.00000
    380       1.8532      2.00000
    381       1.8792      2.00000
    382       1.9162      2.00000
    383       1.9240      2.00000
    384       1.9387      2.00000
    385       1.9639      2.00000
    386       1.9832      2.00000
    387       1.9908      2.00000
    388       2.0259      2.00000
    389       2.0397      2.00000
    390       2.0431      2.00000
    391       2.0521      2.00000
    392       2.0870      2.00000
    393       2.1248      2.00000
    394       2.1660      2.00000
    395       2.1825      2.00000
    396       2.2155      2.00000
    397       2.2405      2.00000
    398       2.3022      2.00000
    399       2.3197      2.00000
    400       2.3302      2.00000
    401       2.3330      2.00000
    402       2.3780      2.00000
    403       2.3922      2.00000
    404       2.4615      2.00000
    405       2.5193      2.00000
    406       2.5256      2.00000
    407       2.5741      2.00000
    408       2.6970      2.00000
    409       2.7601      2.00000
    410       2.7765      2.00000
    411       2.8158      2.00000
    412       2.8373      2.00000
    413       2.8424      2.00000
    414       2.8619      2.00000
    415       2.8678      2.00000
    416       2.8964      2.00000
    417       2.9200      2.00000
    418       2.9381      2.00000
    419       2.9602      2.00000
    420       3.0104      2.00000
    421       3.0504      2.00000
    422       3.0674      2.00000
    423       3.0975      2.00000
    424       3.1130      1.99999
    425       3.1813      1.99963
    426       3.1869      1.99950
    427       3.1875      1.99948
    428       3.2140      1.99805
    429       3.2420      1.99309
    430       3.2548      1.98829
    431       3.3095      1.91939
    432       3.3507      1.75559
    433       3.3602      1.69702
    434       3.4191      1.15628
    435       3.4565      0.73934
    436       3.5421      0.12297
    437       3.5487      0.10191
    438       3.6083      0.01319
    439       3.6161      0.00962
    440       3.6925      0.00024
    441       3.6959      0.00020
    442       3.7511      0.00001
    443       3.8298      0.00000
    444       3.8491      0.00000
    445       3.8970      0.00000
    446       3.9168      0.00000
    447       3.9290      0.00000
    448       3.9452      0.00000
    449       3.9482      0.00000
    450       3.9646      0.00000
    451       4.0164      0.00000
    452       4.0425      0.00000
    453       4.0870      0.00000
    454       4.1193      0.00000
    455       4.1431      0.00000
    456       4.1781      0.00000
    457       4.2116      0.00000
    458       4.2223      0.00000
    459       4.2377      0.00000
    460       4.3006      0.00000
    461       4.3189      0.00000
    462       4.3652      0.00000
    463       4.3997      0.00000
    464       4.4212      0.00000
    465       4.4465      0.00000
    466       4.4579      0.00000
    467       4.4838      0.00000
    468       4.4900      0.00000
    469       4.4974      0.00000
    470       4.5202      0.00000
    471       4.5390      0.00000
    472       4.5584      0.00000
    473       4.5821      0.00000
    474       4.5938      0.00000
    475       4.6009      0.00000
    476       4.6886      0.00000
    477       4.6935      0.00000
    478       4.7176      0.00000
    479       4.7284      0.00000
    480       4.7320      0.00000
    481       4.7545      0.00000
    482       4.7722      0.00000
    483       4.7838      0.00000
    484       4.8070      0.00000
    485       4.8134      0.00000
    486       4.8414      0.00000
    487       4.8617      0.00000
    488       4.8908      0.00000
    489       4.9267      0.00000
    490       4.9331      0.00000
    491       4.9499      0.00000
    492       4.9750      0.00000
    493       4.9875      0.00000
    494       4.9942      0.00000
    495       5.0199      0.00000
    496       5.0259      0.00000
    497       5.0511      0.00000
    498       5.0559      0.00000
    499       5.0896      0.00000
    500       5.0940      0.00000
    501       5.1079      0.00000
    502       5.1310      0.00000
    503       5.1492      0.00000
    504       5.1512      0.00000
    505       5.1721      0.00000
    506       5.2204      0.00000
    507       5.2385      0.00000
    508       5.2630      0.00000
    509       5.2800      0.00000
    510       5.2951      0.00000
    511       5.2989      0.00000
    512       5.3308      0.00000
    513       5.3350      0.00000
    514       5.3456      0.00000
    515       5.3602      0.00000
    516       5.3877      0.00000
    517       5.3975      0.00000
    518       5.4455      0.00000
    519       5.5032      0.00000

 k-point     7 :      -0.2500    0.2500    0.0000
  band No.  band energies     occupation 
      1     -57.7536      2.00000
      2     -57.7071      2.00000
      3     -57.7012      2.00000
      4     -57.6847      2.00000
      5     -57.6677      2.00000
      6     -57.6560      2.00000
      7     -57.6463      2.00000
      8     -57.6371      2.00000
      9     -57.6341      2.00000
     10     -57.6271      2.00000
     11     -57.6206      2.00000
     12     -57.6174      2.00000
     13     -57.6159      2.00000
     14     -57.6037      2.00000
     15     -57.6031      2.00000
     16     -57.6002      2.00000
     17     -57.5839      2.00000
     18     -57.5455      2.00000
     19     -57.5329      2.00000
     20     -57.5115      2.00000
     21     -57.5080      2.00000
     22     -57.4997      2.00000
     23     -57.4987      2.00000
     24     -57.4960      2.00000
     25     -57.4952      2.00000
     26     -57.4917      2.00000
     27     -57.4889      2.00000
     28     -57.4878      2.00000
     29     -57.4860      2.00000
     30     -57.4814      2.00000
     31     -57.4757      2.00000
     32     -57.4740      2.00000
     33     -57.4721      2.00000
     34     -57.4708      2.00000
     35     -57.4664      2.00000
     36     -57.4651      2.00000
     37     -57.4622      2.00000
     38     -57.4461      2.00000
     39     -57.4340      2.00000
     40     -57.4276      2.00000
     41     -57.4175      2.00000
     42     -57.3985      2.00000
     43     -57.3648      2.00000
     44     -57.3493      2.00000
     45     -57.2991      2.00000
     46     -57.2954      2.00000
     47     -57.2935      2.00000
     48     -57.2918      2.00000
     49     -57.2902      2.00000
     50     -57.2864      2.00000
     51     -57.2833      2.00000
     52     -57.2806      2.00000
     53     -57.2791      2.00000
     54     -57.2783      2.00000
     55     -57.2702      2.00000
     56     -57.2701      2.00000
     57     -57.2499      2.00000
     58     -57.2323      2.00000
     59     -57.2241      2.00000
     60     -57.2104      2.00000
     61     -51.5836      2.00000
     62     -51.5813      2.00000
     63     -32.3586      2.00000
     64     -32.3378      2.00000
     65     -32.3142      2.00000
     66     -32.3095      2.00000
     67     -32.2996      2.00000
     68     -32.2870      2.00000
     69     -32.2463      2.00000
     70     -32.2286      2.00000
     71     -32.2148      2.00000
     72     -32.2122      2.00000
     73     -32.2070      2.00000
     74     -32.1979      2.00000
     75     -32.1886      2.00000
     76     -32.1805      2.00000
     77     -32.1769      2.00000
     78     -32.1718      2.00000
     79     -32.1655      2.00000
     80     -32.1633      2.00000
     81     -32.1583      2.00000
     82     -32.1504      2.00000
     83     -32.1355      2.00000
     84     -32.1297      2.00000
     85     -32.1207      2.00000
     86     -32.1147      2.00000
     87     -32.1128      2.00000
     88     -32.1050      2.00000
     89     -32.0998      2.00000
     90     -32.0888      2.00000
     91     -32.0830      2.00000
     92     -32.0596      2.00000
     93     -32.0516      2.00000
     94     -32.0354      2.00000
     95     -32.0313      2.00000
     96     -32.0159      2.00000
     97     -32.0079      2.00000
     98     -31.9968      2.00000
     99     -31.9894      2.00000
    100     -31.9733      2.00000
    101     -31.9658      2.00000
    102     -31.9535      2.00000
    103     -31.9344      2.00000
    104     -31.9227      2.00000
    105     -31.9164      2.00000
    106     -31.8931      2.00000
    107     -31.8890      2.00000
    108     -31.8838      2.00000
    109     -31.8733      2.00000
    110     -31.8666      2.00000
    111     -31.8616      2.00000
    112     -31.8576      2.00000
    113     -31.8537      2.00000
    114     -31.8446      2.00000
    115     -31.8339      2.00000
    116     -31.8077      2.00000
    117     -31.7888      2.00000
    118     -31.7801      2.00000
    119     -31.7765      2.00000
    120     -31.7626      2.00000
    121     -31.7563      2.00000
    122     -31.7528      2.00000
    123     -31.7346      2.00000
    124     -31.7308      2.00000
    125     -31.7252      2.00000
    126     -31.7176      2.00000
    127     -31.7144      2.00000
    128     -31.7074      2.00000
    129     -31.6956      2.00000
    130     -31.6898      2.00000
    131     -31.6789      2.00000
    132     -31.6687      2.00000
    133     -31.6618      2.00000
    134     -31.6590      2.00000
    135     -31.6498      2.00000
    136     -31.6467      2.00000
    137     -31.6386      2.00000
    138     -31.6219      2.00000
    139     -31.6187      2.00000
    140     -31.6138      2.00000
    141     -31.6005      2.00000
    142     -31.5910      2.00000
    143     -31.5884      2.00000
    144     -31.5825      2.00000
    145     -31.5696      2.00000
    146     -31.5659      2.00000
    147     -31.5532      2.00000
    148     -31.5457      2.00000
    149     -31.5379      2.00000
    150     -31.5271      2.00000
    151     -31.5233      2.00000
    152     -31.5152      2.00000
    153     -31.5119      2.00000
    154     -31.4977      2.00000
    155     -31.4924      2.00000
    156     -31.4836      2.00000
    157     -31.4825      2.00000
    158     -31.4778      2.00000
    159     -31.4757      2.00000
    160     -31.4729      2.00000
    161     -31.4599      2.00000
    162     -31.4535      2.00000
    163     -31.4446      2.00000
    164     -31.4439      2.00000
    165     -31.4311      2.00000
    166     -31.4277      2.00000
    167     -31.4203      2.00000
    168     -31.4105      2.00000
    169     -31.3986      2.00000
    170     -31.3967      2.00000
    171     -31.3937      2.00000
    172     -31.3918      2.00000
    173     -31.3827      2.00000
    174     -31.3664      2.00000
    175     -31.3627      2.00000
    176     -31.3549      2.00000
    177     -31.3470      2.00000
    178     -31.3352      2.00000
    179     -31.3261      2.00000
    180     -31.3219      2.00000
    181     -31.3139      2.00000
    182     -31.3076      2.00000
    183     -31.2976      2.00000
    184     -31.2892      2.00000
    185     -31.2841      2.00000
    186     -31.2781      2.00000
    187     -31.2716      2.00000
    188     -31.2700      2.00000
    189     -31.2680      2.00000
    190     -31.2596      2.00000
    191     -31.2567      2.00000
    192     -31.2529      2.00000
    193     -31.2519      2.00000
    194     -31.2507      2.00000
    195     -31.2483      2.00000
    196     -31.2429      2.00000
    197     -31.2329      2.00000
    198     -31.2288      2.00000
    199     -31.2234      2.00000
    200     -31.2203      2.00000
    201     -31.2160      2.00000
    202     -31.2136      2.00000
    203     -31.2028      2.00000
    204     -31.2009      2.00000
    205     -31.1845      2.00000
    206     -31.1777      2.00000
    207     -31.1717      2.00000
    208     -31.1673      2.00000
    209     -31.1663      2.00000
    210     -31.1626      2.00000
    211     -31.1607      2.00000
    212     -31.1450      2.00000
    213     -31.1410      2.00000
    214     -31.1326      2.00000
    215     -31.1299      2.00000
    216     -31.1267      2.00000
    217     -31.1260      2.00000
    218     -31.1200      2.00000
    219     -31.1191      2.00000
    220     -31.1178      2.00000
    221     -31.1104      2.00000
    222     -31.1055      2.00000
    223     -31.1023      2.00000
    224     -31.0988      2.00000
    225     -31.0956      2.00000
    226     -31.0938      2.00000
    227     -31.0868      2.00000
    228     -31.0841      2.00000
    229     -31.0799      2.00000
    230     -31.0661      2.00000
    231     -31.0647      2.00000
    232     -31.0546      2.00000
    233     -31.0471      2.00000
    234     -31.0356      2.00000
    235     -31.0193      2.00000
    236     -31.0068      2.00000
    237     -30.9967      2.00000
    238     -30.9883      2.00000
    239     -30.9804      2.00000
    240     -30.9614      2.00000
    241     -30.9511      2.00000
    242     -30.9427      2.00000
    243     -27.7445      2.00000
    244     -27.7342      2.00000
    245     -27.6130      2.00000
    246     -27.6013      2.00000
    247     -27.5378      2.00000
    248     -27.5347      2.00000
    249      -3.0047      2.00000
    250      -2.0729      2.00000
    251      -2.0263      2.00000
    252      -1.9950      2.00000
    253      -1.4305      2.00000
    254      -1.4046      2.00000
    255      -1.3975      2.00000
    256      -1.3475      2.00000
    257      -1.3155      2.00000
    258      -1.3064      2.00000
    259      -1.3029      2.00000
    260      -1.2957      2.00000
    261      -1.2926      2.00000
    262      -1.2392      2.00000
    263      -1.1462      2.00000
    264      -0.9773      2.00000
    265      -0.9307      2.00000
    266      -0.8898      2.00000
    267      -0.8732      2.00000
    268      -0.8686      2.00000
    269      -0.8601      2.00000
    270      -0.8468      2.00000
    271      -0.8327      2.00000
    272      -0.8020      2.00000
    273      -0.7917      2.00000
    274      -0.7846      2.00000
    275      -0.7748      2.00000
    276      -0.6855      2.00000
    277      -0.6617      2.00000
    278      -0.5495      2.00000
    279      -0.5454      2.00000
    280      -0.5329      2.00000
    281      -0.5260      2.00000
    282      -0.4871      2.00000
    283      -0.4637      2.00000
    284      -0.4245      2.00000
    285      -0.4214      2.00000
    286      -0.4104      2.00000
    287      -0.3563      2.00000
    288      -0.3418      2.00000
    289      -0.3280      2.00000
    290      -0.3031      2.00000
    291      -0.2952      2.00000
    292      -0.2491      2.00000
    293      -0.2194      2.00000
    294      -0.1575      2.00000
    295      -0.1391      2.00000
    296      -0.1140      2.00000
    297      -0.0904      2.00000
    298      -0.0137      2.00000
    299      -0.0101      2.00000
    300       0.0148      2.00000
    301       0.0664      2.00000
    302       0.0997      2.00000
    303       0.1144      2.00000
    304       0.1370      2.00000
    305       0.1583      2.00000
    306       0.1738      2.00000
    307       0.1925      2.00000
    308       0.2513      2.00000
    309       0.2734      2.00000
    310       0.2778      2.00000
    311       0.2938      2.00000
    312       0.3096      2.00000
    313       0.3535      2.00000
    314       0.3925      2.00000
    315       0.3973      2.00000
    316       0.3995      2.00000
    317       0.4060      2.00000
    318       0.4153      2.00000
    319       0.4435      2.00000
    320       0.4590      2.00000
    321       0.4667      2.00000
    322       0.4879      2.00000
    323       0.5087      2.00000
    324       0.5145      2.00000
    325       0.5257      2.00000
    326       0.5314      2.00000
    327       0.5533      2.00000
    328       0.5708      2.00000
    329       0.5793      2.00000
    330       0.5883      2.00000
    331       0.6243      2.00000
    332       0.6534      2.00000
    333       0.6823      2.00000
    334       0.7025      2.00000
    335       0.7489      2.00000
    336       0.7882      2.00000
    337       0.7892      2.00000
    338       0.8198      2.00000
    339       0.8282      2.00000
    340       0.8499      2.00000
    341       0.8601      2.00000
    342       0.9225      2.00000
    343       0.9353      2.00000
    344       0.9614      2.00000
    345       0.9786      2.00000
    346       0.9844      2.00000
    347       1.0016      2.00000
    348       1.0191      2.00000
    349       1.0239      2.00000
    350       1.0445      2.00000
    351       1.0940      2.00000
    352       1.1525      2.00000
    353       1.1831      2.00000
    354       1.2064      2.00000
    355       1.2325      2.00000
    356       1.2711      2.00000
    357       1.3134      2.00000
    358       1.3325      2.00000
    359       1.3509      2.00000
    360       1.3828      2.00000
    361       1.4022      2.00000
    362       1.4257      2.00000
    363       1.4472      2.00000
    364       1.4721      2.00000
    365       1.4914      2.00000
    366       1.5258      2.00000
    367       1.5380      2.00000
    368       1.5628      2.00000
    369       1.5917      2.00000
    370       1.6082      2.00000
    371       1.6315      2.00000
    372       1.6740      2.00000
    373       1.7030      2.00000
    374       1.7360      2.00000
    375       1.7484      2.00000
    376       1.7668      2.00000
    377       1.7705      2.00000
    378       1.7808      2.00000
    379       1.8426      2.00000
    380       1.8525      2.00000
    381       1.8856      2.00000
    382       1.9049      2.00000
    383       1.9161      2.00000
    384       1.9505      2.00000
    385       1.9570      2.00000
    386       1.9606      2.00000
    387       2.0024      2.00000
    388       2.0199      2.00000
    389       2.0236      2.00000
    390       2.0510      2.00000
    391       2.0701      2.00000
    392       2.0891      2.00000
    393       2.1157      2.00000
    394       2.1648      2.00000
    395       2.1707      2.00000
    396       2.2089      2.00000
    397       2.2506      2.00000
    398       2.2797      2.00000
    399       2.3072      2.00000
    400       2.3143      2.00000
    401       2.3664      2.00000
    402       2.3841      2.00000
    403       2.4139      2.00000
    404       2.4511      2.00000
    405       2.5233      2.00000
    406       2.5502      2.00000
    407       2.5796      2.00000
    408       2.7050      2.00000
    409       2.7320      2.00000
    410       2.7516      2.00000
    411       2.8267      2.00000
    412       2.8351      2.00000
    413       2.8408      2.00000
    414       2.8640      2.00000
    415       2.8747      2.00000
    416       2.8898      2.00000
    417       2.9124      2.00000
    418       2.9328      2.00000
    419       2.9706      2.00000
    420       3.0116      2.00000
    421       3.0602      2.00000
    422       3.0772      2.00000
    423       3.0986      2.00000
    424       3.1469      1.99995
    425       3.1590      1.99989
    426       3.1874      1.99949
    427       3.2027      1.99887
    428       3.2195      1.99746
    429       3.2379      1.99422
    430       3.2638      1.98326
    431       3.3076      1.92381
    432       3.3408      1.80790
    433       3.3917      1.44059
    434       3.4579      0.72508
    435       3.4775      0.52918
    436       3.5151      0.24577
    437       3.5510      0.09533
    438       3.5857      0.03084
    439       3.5973      0.02018
    440       3.6839      0.00039
    441       3.7252      0.00004
    442       3.7479      0.00001
    443       3.8192      0.00000
    444       3.8426      0.00000
    445       3.8660      0.00000
    446       3.9009      0.00000
    447       3.9246      0.00000
    448       3.9447      0.00000
    449       3.9486      0.00000
    450       3.9603      0.00000
    451       3.9959      0.00000
    452       4.0410      0.00000
    453       4.0603      0.00000
    454       4.1072      0.00000
    455       4.1258      0.00000
    456       4.1571      0.00000
    457       4.2208      0.00000
    458       4.2424      0.00000
    459       4.2600      0.00000
    460       4.3002      0.00000
    461       4.3500      0.00000
    462       4.3765      0.00000
    463       4.4144      0.00000
    464       4.4191      0.00000
    465       4.4394      0.00000
    466       4.4500      0.00000
    467       4.4661      0.00000
    468       4.4899      0.00000
    469       4.5079      0.00000
    470       4.5249      0.00000
    471       4.5349      0.00000
    472       4.5716      0.00000
    473       4.5972      0.00000
    474       4.6010      0.00000
    475       4.6066      0.00000
    476       4.6838      0.00000
    477       4.7037      0.00000
    478       4.7120      0.00000
    479       4.7209      0.00000
    480       4.7274      0.00000
    481       4.7411      0.00000
    482       4.7772      0.00000
    483       4.7987      0.00000
    484       4.8111      0.00000
    485       4.8259      0.00000
    486       4.8476      0.00000
    487       4.8562      0.00000
    488       4.8786      0.00000
    489       4.9040      0.00000
    490       4.9406      0.00000
    491       4.9528      0.00000
    492       4.9638      0.00000
    493       4.9800      0.00000
    494       4.9971      0.00000
    495       5.0042      0.00000
    496       5.0322      0.00000
    497       5.0442      0.00000
    498       5.0583      0.00000
    499       5.0835      0.00000
    500       5.1030      0.00000
    501       5.1165      0.00000
    502       5.1201      0.00000
    503       5.1453      0.00000
    504       5.1673      0.00000
    505       5.1904      0.00000
    506       5.2259      0.00000
    507       5.2493      0.00000
    508       5.2661      0.00000
    509       5.2788      0.00000
    510       5.2846      0.00000
    511       5.2973      0.00000
    512       5.3152      0.00000
    513       5.3292      0.00000
    514       5.3415      0.00000
    515       5.3490      0.00000
    516       5.3752      0.00000
    517       5.4072      0.00000
    518       5.4451      0.00000
    519       5.4826      0.00000

 k-point     8 :       0.5000    0.2500    0.0000
  band No.  band energies     occupation 
      1     -57.7353      2.00000
      2     -57.7323      2.00000
      3     -57.6909      2.00000
      4     -57.6878      2.00000
      5     -57.6756      2.00000
      6     -57.6667      2.00000
      7     -57.6442      2.00000
      8     -57.6401      2.00000
      9     -57.6296      2.00000
     10     -57.6250      2.00000
     11     -57.6193      2.00000
     12     -57.6140      2.00000
     13     -57.6091      2.00000
     14     -57.6044      2.00000
     15     -57.5990      2.00000
     16     -57.5972      2.00000
     17     -57.5822      2.00000
     18     -57.5414      2.00000
     19     -57.5332      2.00000
     20     -57.5147      2.00000
     21     -57.5091      2.00000
     22     -57.5001      2.00000
     23     -57.4991      2.00000
     24     -57.4970      2.00000
     25     -57.4947      2.00000
     26     -57.4931      2.00000
     27     -57.4913      2.00000
     28     -57.4895      2.00000
     29     -57.4865      2.00000
     30     -57.4811      2.00000
     31     -57.4802      2.00000
     32     -57.4752      2.00000
     33     -57.4732      2.00000
     34     -57.4702      2.00000
     35     -57.4687      2.00000
     36     -57.4666      2.00000
     37     -57.4614      2.00000
     38     -57.4422      2.00000
     39     -57.4329      2.00000
     40     -57.4244      2.00000
     41     -57.4097      2.00000
     42     -57.4048      2.00000
     43     -57.3634      2.00000
     44     -57.3498      2.00000
     45     -57.2999      2.00000
     46     -57.2954      2.00000
     47     -57.2949      2.00000
     48     -57.2927      2.00000
     49     -57.2907      2.00000
     50     -57.2860      2.00000
     51     -57.2823      2.00000
     52     -57.2795      2.00000
     53     -57.2782      2.00000
     54     -57.2766      2.00000
     55     -57.2735      2.00000
     56     -57.2730      2.00000
     57     -57.2464      2.00000
     58     -57.2304      2.00000
     59     -57.2234      2.00000
     60     -57.2127      2.00000
     61     -51.5836      2.00000
     62     -51.5813      2.00000
     63     -32.3650      2.00000
     64     -32.3467      2.00000
     65     -32.3283      2.00000
     66     -32.3207      2.00000
     67     -32.2907      2.00000
     68     -32.2655      2.00000
     69     -32.2606      2.00000
     70     -32.2496      2.00000
     71     -32.2390      2.00000
     72     -32.2107      2.00000
     73     -32.2081      2.00000
     74     -32.1976      2.00000
     75     -32.1883      2.00000
     76     -32.1814      2.00000
     77     -32.1638      2.00000
     78     -32.1571      2.00000
     79     -32.1556      2.00000
     80     -32.1458      2.00000
     81     -32.1420      2.00000
     82     -32.1412      2.00000
     83     -32.1365      2.00000
     84     -32.1272      2.00000
     85     -32.1237      2.00000
     86     -32.1199      2.00000
     87     -32.1073      2.00000
     88     -32.0980      2.00000
     89     -32.0938      2.00000
     90     -32.0904      2.00000
     91     -32.0883      2.00000
     92     -32.0819      2.00000
     93     -32.0687      2.00000
     94     -32.0316      2.00000
     95     -32.0221      2.00000
     96     -32.0101      2.00000
     97     -31.9994      2.00000
     98     -31.9893      2.00000
     99     -31.9854      2.00000
    100     -31.9736      2.00000
    101     -31.9582      2.00000
    102     -31.9389      2.00000
    103     -31.9326      2.00000
    104     -31.9243      2.00000
    105     -31.9183      2.00000
    106     -31.9110      2.00000
    107     -31.9029      2.00000
    108     -31.8939      2.00000
    109     -31.8903      2.00000
    110     -31.8759      2.00000
    111     -31.8574      2.00000
    112     -31.8497      2.00000
    113     -31.8447      2.00000
    114     -31.8376      2.00000
    115     -31.8310      2.00000
    116     -31.8043      2.00000
    117     -31.8032      2.00000
    118     -31.7960      2.00000
    119     -31.7731      2.00000
    120     -31.7641      2.00000
    121     -31.7572      2.00000
    122     -31.7385      2.00000
    123     -31.7299      2.00000
    124     -31.7233      2.00000
    125     -31.7178      2.00000
    126     -31.7083      2.00000
    127     -31.7021      2.00000
    128     -31.6945      2.00000
    129     -31.6935      2.00000
    130     -31.6877      2.00000
    131     -31.6814      2.00000
    132     -31.6746      2.00000
    133     -31.6620      2.00000
    134     -31.6567      2.00000
    135     -31.6347      2.00000
    136     -31.6323      2.00000
    137     -31.6258      2.00000
    138     -31.6158      2.00000
    139     -31.6072      2.00000
    140     -31.5983      2.00000
    141     -31.5912      2.00000
    142     -31.5827      2.00000
    143     -31.5805      2.00000
    144     -31.5706      2.00000
    145     -31.5684      2.00000
    146     -31.5607      2.00000
    147     -31.5550      2.00000
    148     -31.5482      2.00000
    149     -31.5400      2.00000
    150     -31.5358      2.00000
    151     -31.5328      2.00000
    152     -31.5307      2.00000
    153     -31.5242      2.00000
    154     -31.5182      2.00000
    155     -31.5129      2.00000
    156     -31.5019      2.00000
    157     -31.4941      2.00000
    158     -31.4908      2.00000
    159     -31.4891      2.00000
    160     -31.4836      2.00000
    161     -31.4794      2.00000
    162     -31.4625      2.00000
    163     -31.4518      2.00000
    164     -31.4515      2.00000
    165     -31.4480      2.00000
    166     -31.4394      2.00000
    167     -31.4336      2.00000
    168     -31.4114      2.00000
    169     -31.4077      2.00000
    170     -31.4064      2.00000
    171     -31.3906      2.00000
    172     -31.3803      2.00000
    173     -31.3660      2.00000
    174     -31.3637      2.00000
    175     -31.3453      2.00000
    176     -31.3378      2.00000
    177     -31.3329      2.00000
    178     -31.3267      2.00000
    179     -31.3257      2.00000
    180     -31.3250      2.00000
    181     -31.3215      2.00000
    182     -31.3118      2.00000
    183     -31.3069      2.00000
    184     -31.3044      2.00000
    185     -31.2950      2.00000
    186     -31.2887      2.00000
    187     -31.2721      2.00000
    188     -31.2638      2.00000
    189     -31.2611      2.00000
    190     -31.2536      2.00000
    191     -31.2496      2.00000
    192     -31.2480      2.00000
    193     -31.2431      2.00000
    194     -31.2402      2.00000
    195     -31.2361      2.00000
    196     -31.2290      2.00000
    197     -31.2257      2.00000
    198     -31.2230      2.00000
    199     -31.2213      2.00000
    200     -31.2152      2.00000
    201     -31.2117      2.00000
    202     -31.2079      2.00000
    203     -31.2037      2.00000
    204     -31.2004      2.00000
    205     -31.1912      2.00000
    206     -31.1829      2.00000
    207     -31.1818      2.00000
    208     -31.1774      2.00000
    209     -31.1681      2.00000
    210     -31.1560      2.00000
    211     -31.1468      2.00000
    212     -31.1404      2.00000
    213     -31.1387      2.00000
    214     -31.1366      2.00000
    215     -31.1310      2.00000
    216     -31.1295      2.00000
    217     -31.1275      2.00000
    218     -31.1219      2.00000
    219     -31.1206      2.00000
    220     -31.1198      2.00000
    221     -31.1141      2.00000
    222     -31.1079      2.00000
    223     -31.1057      2.00000
    224     -31.1005      2.00000
    225     -31.0927      2.00000
    226     -31.0911      2.00000
    227     -31.0857      2.00000
    228     -31.0812      2.00000
    229     -31.0779      2.00000
    230     -31.0755      2.00000
    231     -31.0635      2.00000
    232     -31.0526      2.00000
    233     -31.0423      2.00000
    234     -31.0318      2.00000
    235     -31.0224      2.00000
    236     -31.0076      2.00000
    237     -30.9952      2.00000
    238     -30.9908      2.00000
    239     -30.9837      2.00000
    240     -30.9636      2.00000
    241     -30.9534      2.00000
    242     -30.9406      2.00000
    243     -27.7444      2.00000
    244     -27.7342      2.00000
    245     -27.6130      2.00000
    246     -27.6012      2.00000
    247     -27.5379      2.00000
    248     -27.5346      2.00000
    249      -2.6221      2.00000
    250      -2.5905      2.00000
    251      -1.7860      2.00000
    252      -1.7421      2.00000
    253      -1.7319      2.00000
    254      -1.6748      2.00000
    255      -1.3742      2.00000
    256      -1.3432      2.00000
    257      -1.2811      2.00000
    258      -1.2618      2.00000
    259      -1.1771      2.00000
    260      -1.1225      2.00000
    261      -1.0569      2.00000
    262      -1.0243      2.00000
    263      -1.0010      2.00000
    264      -0.9672      2.00000
    265      -0.9407      2.00000
    266      -0.9183      2.00000
    267      -0.8984      2.00000
    268      -0.8919      2.00000
    269      -0.8496      2.00000
    270      -0.7973      2.00000
    271      -0.7697      2.00000
    272      -0.7527      2.00000
    273      -0.7311      2.00000
    274      -0.7148      2.00000
    275      -0.6981      2.00000
    276      -0.6838      2.00000
    277      -0.6690      2.00000
    278      -0.6375      2.00000
    279      -0.6091      2.00000
    280      -0.5566      2.00000
    281      -0.5162      2.00000
    282      -0.5017      2.00000
    283      -0.4832      2.00000
    284      -0.4634      2.00000
    285      -0.4279      2.00000
    286      -0.3912      2.00000
    287      -0.3822      2.00000
    288      -0.3247      2.00000
    289      -0.3043      2.00000
    290      -0.2814      2.00000
    291      -0.2610      2.00000
    292      -0.2514      2.00000
    293      -0.2230      2.00000
    294      -0.2147      2.00000
    295      -0.1933      2.00000
    296      -0.1709      2.00000
    297      -0.1516      2.00000
    298      -0.1042      2.00000
    299      -0.0847      2.00000
    300      -0.0174      2.00000
    301       0.0161      2.00000
    302       0.0368      2.00000
    303       0.0466      2.00000
    304       0.0610      2.00000
    305       0.0956      2.00000
    306       0.1350      2.00000
    307       0.1678      2.00000
    308       0.2310      2.00000
    309       0.2476      2.00000
    310       0.2825      2.00000
    311       0.2891      2.00000
    312       0.2965      2.00000
    313       0.3059      2.00000
    314       0.3176      2.00000
    315       0.3262      2.00000
    316       0.3577      2.00000
    317       0.3780      2.00000
    318       0.3893      2.00000
    319       0.4103      2.00000
    320       0.4142      2.00000
    321       0.4199      2.00000
    322       0.4421      2.00000
    323       0.4699      2.00000
    324       0.4965      2.00000
    325       0.5175      2.00000
    326       0.5248      2.00000
    327       0.5377      2.00000
    328       0.5752      2.00000
    329       0.6090      2.00000
    330       0.6250      2.00000
    331       0.6554      2.00000
    332       0.6629      2.00000
    333       0.6961      2.00000
    334       0.7060      2.00000
    335       0.7174      2.00000
    336       0.7477      2.00000
    337       0.7636      2.00000
    338       0.7906      2.00000
    339       0.7948      2.00000
    340       0.8186      2.00000
    341       0.8396      2.00000
    342       0.8503      2.00000
    343       0.8603      2.00000
    344       0.9269      2.00000
    345       0.9405      2.00000
    346       0.9877      2.00000
    347       0.9971      2.00000
    348       1.0682      2.00000
    349       1.0821      2.00000
    350       1.0968      2.00000
    351       1.1157      2.00000
    352       1.1536      2.00000
    353       1.1568      2.00000
    354       1.1805      2.00000
    355       1.2288      2.00000
    356       1.2464      2.00000
    357       1.2771      2.00000
    358       1.3061      2.00000
    359       1.3089      2.00000
    360       1.3283      2.00000
    361       1.3542      2.00000
    362       1.3795      2.00000
    363       1.4389      2.00000
    364       1.4469      2.00000
    365       1.4724      2.00000
    366       1.4953      2.00000
    367       1.5090      2.00000
    368       1.5189      2.00000
    369       1.5481      2.00000
    370       1.5615      2.00000
    371       1.5916      2.00000
    372       1.5986      2.00000
    373       1.6140      2.00000
    374       1.6496      2.00000
    375       1.6792      2.00000
    376       1.6920      2.00000
    377       1.7389      2.00000
    378       1.7561      2.00000
    379       1.7627      2.00000
    380       1.8002      2.00000
    381       1.8077      2.00000
    382       1.8285      2.00000
    383       1.8769      2.00000
    384       1.8825      2.00000
    385       1.8943      2.00000
    386       1.9163      2.00000
    387       1.9275      2.00000
    388       1.9503      2.00000
    389       1.9807      2.00000
    390       2.0091      2.00000
    391       2.0319      2.00000
    392       2.0473      2.00000
    393       2.1200      2.00000
    394       2.1584      2.00000
    395       2.1845      2.00000
    396       2.2231      2.00000
    397       2.2672      2.00000
    398       2.3179      2.00000
    399       2.3814      2.00000
    400       2.4342      2.00000
    401       2.4490      2.00000
    402       2.4781      2.00000
    403       2.5072      2.00000
    404       2.5315      2.00000
    405       2.5701      2.00000
    406       2.5966      2.00000
    407       2.7016      2.00000
    408       2.7469      2.00000
    409       2.7880      2.00000
    410       2.8222      2.00000
    411       2.8434      2.00000
    412       2.8725      2.00000
    413       2.8913      2.00000
    414       2.9202      2.00000
    415       2.9374      2.00000
    416       2.9803      2.00000
    417       3.0258      2.00000
    418       3.0270      2.00000
    419       3.0344      2.00000
    420       3.0442      2.00000
    421       3.0805      2.00000
    422       3.1324      1.99998
    423       3.1396      1.99997
    424       3.1681      1.99982
    425       3.1923      1.99934
    426       3.2081      1.99853
    427       3.2436      1.99261
    428       3.2670      1.98109
    429       3.2897      1.95730
    430       3.3162      1.90150
    431       3.3556      1.72656
    432       3.3871      1.48408
    433       3.4215      1.12965
    434       3.4433      0.88384
    435       3.4764      0.53999
    436       3.5098      0.27774
    437       3.5509      0.09543
    438       3.5698      0.05306
    439       3.5980      0.01965
    440       3.6296      0.00544
    441       3.6337      0.00453
    442       3.6751      0.00062
    443       3.7255      0.00004
    444       3.8062      0.00000
    445       3.8557      0.00000
    446       3.8907      0.00000
    447       3.9500      0.00000
    448       3.9667      0.00000
    449       3.9944      0.00000
    450       4.0467      0.00000
    451       4.0640      0.00000
    452       4.0881      0.00000
    453       4.0956      0.00000
    454       4.1149      0.00000
    455       4.1786      0.00000
    456       4.2109      0.00000
    457       4.2495      0.00000
    458       4.2641      0.00000
    459       4.3181      0.00000
    460       4.3382      0.00000
    461       4.3804      0.00000
    462       4.3916      0.00000
    463       4.4105      0.00000
    464       4.4494      0.00000
    465       4.5239      0.00000
    466       4.5477      0.00000
    467       4.5652      0.00000
    468       4.6018      0.00000
    469       4.6195      0.00000
    470       4.6367      0.00000
    471       4.6442      0.00000
    472       4.6618      0.00000
    473       4.6652      0.00000
    474       4.6867      0.00000
    475       4.6950      0.00000
    476       4.7095      0.00000
    477       4.7203      0.00000
    478       4.7281      0.00000
    479       4.7404      0.00000
    480       4.7542      0.00000
    481       4.7733      0.00000
    482       4.7812      0.00000
    483       4.7984      0.00000
    484       4.8163      0.00000
    485       4.8387      0.00000
    486       4.8637      0.00000
    487       4.8856      0.00000
    488       4.9034      0.00000
    489       4.9183      0.00000
    490       4.9566      0.00000
    491       4.9696      0.00000
    492       4.9798      0.00000
    493       4.9998      0.00000
    494       5.0265      0.00000
    495       5.0504      0.00000
    496       5.0687      0.00000
    497       5.0739      0.00000
    498       5.0847      0.00000
    499       5.0979      0.00000
    500       5.1091      0.00000
    501       5.1343      0.00000
    502       5.1480      0.00000
    503       5.1575      0.00000
    504       5.1782      0.00000
    505       5.2018      0.00000
    506       5.2088      0.00000
    507       5.2204      0.00000
    508       5.2390      0.00000
    509       5.2520      0.00000
    510       5.2822      0.00000
    511       5.2878      0.00000
    512       5.3237      0.00000
    513       5.3413      0.00000
    514       5.3584      0.00000
    515       5.3748      0.00000
    516       5.3882      0.00000
    517       5.4289      0.00000
    518       5.4629      0.00000
    519       5.4844      0.00000

 k-point     9 :      -0.2500    0.5000    0.0000
  band No.  band energies     occupation 
      1     -57.7353      2.00000
      2     -57.7323      2.00000
      3     -57.6906      2.00000
      4     -57.6878      2.00000
      5     -57.6759      2.00000
      6     -57.6665      2.00000
      7     -57.6444      2.00000
      8     -57.6398      2.00000
      9     -57.6301      2.00000
     10     -57.6248      2.00000
     11     -57.6191      2.00000
     12     -57.6140      2.00000
     13     -57.6090      2.00000
     14     -57.6048      2.00000
     15     -57.5984      2.00000
     16     -57.5972      2.00000
     17     -57.5822      2.00000
     18     -57.5414      2.00000
     19     -57.5333      2.00000
     20     -57.5144      2.00000
     21     -57.5092      2.00000
     22     -57.5001      2.00000
     23     -57.4990      2.00000
     24     -57.4972      2.00000
     25     -57.4946      2.00000
     26     -57.4932      2.00000
     27     -57.4911      2.00000
     28     -57.4895      2.00000
     29     -57.4869      2.00000
     30     -57.4814      2.00000
     31     -57.4802      2.00000
     32     -57.4748      2.00000
     33     -57.4721      2.00000
     34     -57.4706      2.00000
     35     -57.4690      2.00000
     36     -57.4666      2.00000
     37     -57.4615      2.00000
     38     -57.4423      2.00000
     39     -57.4325      2.00000
     40     -57.4250      2.00000
     41     -57.4094      2.00000
     42     -57.4049      2.00000
     43     -57.3640      2.00000
     44     -57.3494      2.00000
     45     -57.2998      2.00000
     46     -57.2956      2.00000
     47     -57.2943      2.00000
     48     -57.2925      2.00000
     49     -57.2908      2.00000
     50     -57.2859      2.00000
     51     -57.2821      2.00000
     52     -57.2797      2.00000
     53     -57.2779      2.00000
     54     -57.2765      2.00000
     55     -57.2740      2.00000
     56     -57.2730      2.00000
     57     -57.2467      2.00000
     58     -57.2307      2.00000
     59     -57.2231      2.00000
     60     -57.2127      2.00000
     61     -51.5836      2.00000
     62     -51.5813      2.00000
     63     -32.3615      2.00000
     64     -32.3509      2.00000
     65     -32.3277      2.00000
     66     -32.3207      2.00000
     67     -32.2922      2.00000
     68     -32.2663      2.00000
     69     -32.2600      2.00000
     70     -32.2491      2.00000
     71     -32.2350      2.00000
     72     -32.2138      2.00000
     73     -32.2087      2.00000
     74     -32.1975      2.00000
     75     -32.1884      2.00000
     76     -32.1808      2.00000
     77     -32.1644      2.00000
     78     -32.1574      2.00000
     79     -32.1547      2.00000
     80     -32.1471      2.00000
     81     -32.1421      2.00000
     82     -32.1394      2.00000
     83     -32.1351      2.00000
     84     -32.1261      2.00000
     85     -32.1238      2.00000
     86     -32.1208      2.00000
     87     -32.1064      2.00000
     88     -32.0975      2.00000
     89     -32.0948      2.00000
     90     -32.0906      2.00000
     91     -32.0888      2.00000
     92     -32.0835      2.00000
     93     -32.0679      2.00000
     94     -32.0325      2.00000
     95     -32.0205      2.00000
     96     -32.0118      2.00000
     97     -31.9987      2.00000
     98     -31.9887      2.00000
     99     -31.9861      2.00000
    100     -31.9721      2.00000
    101     -31.9618      2.00000
    102     -31.9379      2.00000
    103     -31.9320      2.00000
    104     -31.9261      2.00000
    105     -31.9187      2.00000
    106     -31.9110      2.00000
    107     -31.9032      2.00000
    108     -31.8933      2.00000
    109     -31.8887      2.00000
    110     -31.8764      2.00000
    111     -31.8551      2.00000
    112     -31.8497      2.00000
    113     -31.8439      2.00000
    114     -31.8380      2.00000
    115     -31.8317      2.00000
    116     -31.8044      2.00000
    117     -31.8031      2.00000
    118     -31.7960      2.00000
    119     -31.7744      2.00000
    120     -31.7653      2.00000
    121     -31.7564      2.00000
    122     -31.7385      2.00000
    123     -31.7290      2.00000
    124     -31.7241      2.00000
    125     -31.7181      2.00000
    126     -31.7073      2.00000
    127     -31.7013      2.00000
    128     -31.6954      2.00000
    129     -31.6937      2.00000
    130     -31.6878      2.00000
    131     -31.6809      2.00000
    132     -31.6750      2.00000
    133     -31.6621      2.00000
    134     -31.6565      2.00000
    135     -31.6374      2.00000
    136     -31.6341      2.00000
    137     -31.6227      2.00000
    138     -31.6160      2.00000
    139     -31.6055      2.00000
    140     -31.5983      2.00000
    141     -31.5906      2.00000
    142     -31.5830      2.00000
    143     -31.5807      2.00000
    144     -31.5713      2.00000
    145     -31.5683      2.00000
    146     -31.5613      2.00000
    147     -31.5547      2.00000
    148     -31.5481      2.00000
    149     -31.5403      2.00000
    150     -31.5360      2.00000
    151     -31.5332      2.00000
    152     -31.5306      2.00000
    153     -31.5235      2.00000
    154     -31.5173      2.00000
    155     -31.5130      2.00000
    156     -31.5027      2.00000
    157     -31.4917      2.00000
    158     -31.4890      2.00000
    159     -31.4868      2.00000
    160     -31.4826      2.00000
    161     -31.4783      2.00000
    162     -31.4653      2.00000
    163     -31.4535      2.00000
    164     -31.4514      2.00000
    165     -31.4487      2.00000
    166     -31.4398      2.00000
    167     -31.4307      2.00000
    168     -31.4162      2.00000
    169     -31.4079      2.00000
    170     -31.4056      2.00000
    171     -31.3905      2.00000
    172     -31.3796      2.00000
    173     -31.3674      2.00000
    174     -31.3625      2.00000
    175     -31.3446      2.00000
    176     -31.3390      2.00000
    177     -31.3331      2.00000
    178     -31.3267      2.00000
    179     -31.3257      2.00000
    180     -31.3250      2.00000
    181     -31.3213      2.00000
    182     -31.3112      2.00000
    183     -31.3057      2.00000
    184     -31.3046      2.00000
    185     -31.2981      2.00000
    186     -31.2889      2.00000
    187     -31.2734      2.00000
    188     -31.2636      2.00000
    189     -31.2606      2.00000
    190     -31.2535      2.00000
    191     -31.2484      2.00000
    192     -31.2478      2.00000
    193     -31.2438      2.00000
    194     -31.2418      2.00000
    195     -31.2350      2.00000
    196     -31.2283      2.00000
    197     -31.2264      2.00000
    198     -31.2216      2.00000
    199     -31.2212      2.00000
    200     -31.2156      2.00000
    201     -31.2130      2.00000
    202     -31.2083      2.00000
    203     -31.2036      2.00000
    204     -31.2006      2.00000
    205     -31.1906      2.00000
    206     -31.1839      2.00000
    207     -31.1826      2.00000
    208     -31.1769      2.00000
    209     -31.1671      2.00000
    210     -31.1555      2.00000
    211     -31.1456      2.00000
    212     -31.1405      2.00000
    213     -31.1386      2.00000
    214     -31.1365      2.00000
    215     -31.1307      2.00000
    216     -31.1293      2.00000
    217     -31.1274      2.00000
    218     -31.1219      2.00000
    219     -31.1205      2.00000
    220     -31.1197      2.00000
    221     -31.1136      2.00000
    222     -31.1080      2.00000
    223     -31.1055      2.00000
    224     -31.1007      2.00000
    225     -31.0928      2.00000
    226     -31.0911      2.00000
    227     -31.0859      2.00000
    228     -31.0810      2.00000
    229     -31.0777      2.00000
    230     -31.0755      2.00000
    231     -31.0632      2.00000
    232     -31.0510      2.00000
    233     -31.0433      2.00000
    234     -31.0353      2.00000
    235     -31.0209      2.00000
    236     -31.0077      2.00000
    237     -30.9948      2.00000
    238     -30.9913      2.00000
    239     -30.9839      2.00000
    240     -30.9618      2.00000
    241     -30.9542      2.00000
    242     -30.9409      2.00000
    243     -27.7444      2.00000
    244     -27.7342      2.00000
    245     -27.6131      2.00000
    246     -27.6012      2.00000
    247     -27.5379      2.00000
    248     -27.5346      2.00000
    249      -2.6221      2.00000
    250      -2.5905      2.00000
    251      -1.7858      2.00000
    252      -1.7421      2.00000
    253      -1.7320      2.00000
    254      -1.6750      2.00000
    255      -1.3756      2.00000
    256      -1.3430      2.00000
    257      -1.2811      2.00000
    258      -1.2618      2.00000
    259      -1.1784      2.00000
    260      -1.1223      2.00000
    261      -1.0559      2.00000
    262      -1.0232      2.00000
    263      -1.0012      2.00000
    264      -0.9655      2.00000
    265      -0.9403      2.00000
    266      -0.9194      2.00000
    267      -0.8978      2.00000
    268      -0.8915      2.00000
    269      -0.8507      2.00000
    270      -0.7987      2.00000
    271      -0.7698      2.00000
    272      -0.7520      2.00000
    273      -0.7306      2.00000
    274      -0.7163      2.00000
    275      -0.6980      2.00000
    276      -0.6833      2.00000
    277      -0.6679      2.00000
    278      -0.6351      2.00000
    279      -0.6114      2.00000
    280      -0.5559      2.00000
    281      -0.5162      2.00000
    282      -0.5009      2.00000
    283      -0.4825      2.00000
    284      -0.4623      2.00000
    285      -0.4284      2.00000
    286      -0.3897      2.00000
    287      -0.3844      2.00000
    288      -0.3287      2.00000
    289      -0.3085      2.00000
    290      -0.2759      2.00000
    291      -0.2604      2.00000
    292      -0.2516      2.00000
    293      -0.2227      2.00000
    294      -0.2156      2.00000
    295      -0.1939      2.00000
    296      -0.1702      2.00000
    297      -0.1520      2.00000
    298      -0.1033      2.00000
    299      -0.0872      2.00000
    300      -0.0154      2.00000
    301       0.0195      2.00000
    302       0.0369      2.00000
    303       0.0462      2.00000
    304       0.0588      2.00000
    305       0.0944      2.00000
    306       0.1323      2.00000
    307       0.1705      2.00000
    308       0.2318      2.00000
    309       0.2483      2.00000
    310       0.2807      2.00000
    311       0.2900      2.00000
    312       0.2966      2.00000
    313       0.3048      2.00000
    314       0.3182      2.00000
    315       0.3271      2.00000
    316       0.3598      2.00000
    317       0.3765      2.00000
    318       0.3916      2.00000
    319       0.4102      2.00000
    320       0.4147      2.00000
    321       0.4226      2.00000
    322       0.4368      2.00000
    323       0.4703      2.00000
    324       0.5004      2.00000
    325       0.5206      2.00000
    326       0.5281      2.00000
    327       0.5376      2.00000
    328       0.5718      2.00000
    329       0.6057      2.00000
    330       0.6211      2.00000
    331       0.6557      2.00000
    332       0.6646      2.00000
    333       0.6966      2.00000
    334       0.7049      2.00000
    335       0.7192      2.00000
    336       0.7486      2.00000
    337       0.7655      2.00000
    338       0.7914      2.00000
    339       0.7952      2.00000
    340       0.8163      2.00000
    341       0.8349      2.00000
    342       0.8501      2.00000
    343       0.8613      2.00000
    344       0.9299      2.00000
    345       0.9470      2.00000
    346       0.9861      2.00000
    347       0.9925      2.00000
    348       1.0699      2.00000
    349       1.0835      2.00000
    350       1.0974      2.00000
    351       1.1149      2.00000
    352       1.1514      2.00000
    353       1.1586      2.00000
    354       1.1819      2.00000
    355       1.2274      2.00000
    356       1.2410      2.00000
    357       1.2779      2.00000
    358       1.3040      2.00000
    359       1.3102      2.00000
    360       1.3264      2.00000
    361       1.3553      2.00000
    362       1.3803      2.00000
    363       1.4387      2.00000
    364       1.4461      2.00000
    365       1.4746      2.00000
    366       1.4934      2.00000
    367       1.5083      2.00000
    368       1.5193      2.00000
    369       1.5497      2.00000
    370       1.5585      2.00000
    371       1.5915      2.00000
    372       1.5968      2.00000
    373       1.6161      2.00000
    374       1.6506      2.00000
    375       1.6780      2.00000
    376       1.6914      2.00000
    377       1.7408      2.00000
    378       1.7536      2.00000
    379       1.7656      2.00000
    380       1.8006      2.00000
    381       1.8073      2.00000
    382       1.8267      2.00000
    383       1.8743      2.00000
    384       1.8854      2.00000
    385       1.8912      2.00000
    386       1.9166      2.00000
    387       1.9254      2.00000
    388       1.9545      2.00000
    389       1.9786      2.00000
    390       2.0072      2.00000
    391       2.0307      2.00000
    392       2.0496      2.00000
    393       2.1150      2.00000
    394       2.1588      2.00000
    395       2.1848      2.00000
    396       2.2177      2.00000
    397       2.2708      2.00000
    398       2.3248      2.00000
    399       2.3775      2.00000
    400       2.4227      2.00000
    401       2.4503      2.00000
    402       2.4842      2.00000
    403       2.5067      2.00000
    404       2.5270      2.00000
    405       2.5790      2.00000
    406       2.5934      2.00000
    407       2.6943      2.00000
    408       2.7429      2.00000
    409       2.7881      2.00000
    410       2.8188      2.00000
    411       2.8442      2.00000
    412       2.8731      2.00000
    413       2.8883      2.00000
    414       2.9261      2.00000
    415       2.9355      2.00000
    416       2.9840      2.00000
    417       3.0242      2.00000
    418       3.0272      2.00000
    419       3.0364      2.00000
    420       3.0446      2.00000
    421       3.0882      2.00000
    422       3.1285      1.99998
    423       3.1380      1.99997
    424       3.1694      1.99981
    425       3.1918      1.99935
    426       3.2075      1.99857
    427       3.2418      1.99315
    428       3.2615      1.98475
    429       3.2995      1.94100
    430       3.3255      1.87157
    431       3.3563      1.72199
    432       3.3949      1.40998
    433       3.4164      1.18616
    434       3.4438      0.87925
    435       3.4737      0.56461
    436       3.5030      0.32202
    437       3.5507      0.09612
    438       3.5723      0.04880
    439       3.5960      0.02114
    440       3.6294      0.00549
    441       3.6402      0.00339
    442       3.6752      0.00061
    443       3.7281      0.00003
    444       3.8157      0.00000
    445       3.8611      0.00000
    446       3.8887      0.00000
    447       3.9495      0.00000
    448       3.9619      0.00000
    449       3.9944      0.00000
    450       4.0412      0.00000
    451       4.0660      0.00000
    452       4.0872      0.00000
    453       4.0994      0.00000
    454       4.1130      0.00000
    455       4.1779      0.00000
    456       4.2175      0.00000
    457       4.2448      0.00000
    458       4.2627      0.00000
    459       4.3190      0.00000
    460       4.3376      0.00000
    461       4.3846      0.00000
    462       4.3967      0.00000
    463       4.4141      0.00000
    464       4.4509      0.00000
    465       4.5187      0.00000
    466       4.5478      0.00000
    467       4.5633      0.00000
    468       4.6006      0.00000
    469       4.6206      0.00000
    470       4.6384      0.00000
    471       4.6454      0.00000
    472       4.6625      0.00000
    473       4.6677      0.00000
    474       4.6860      0.00000
    475       4.6977      0.00000
    476       4.7058      0.00000
    477       4.7183      0.00000
    478       4.7306      0.00000
    479       4.7373      0.00000
    480       4.7505      0.00000
    481       4.7730      0.00000
    482       4.7804      0.00000
    483       4.7958      0.00000
    484       4.8117      0.00000
    485       4.8401      0.00000
    486       4.8618      0.00000
    487       4.8873      0.00000
    488       4.9039      0.00000
    489       4.9095      0.00000
    490       4.9513      0.00000
    491       4.9719      0.00000
    492       4.9861      0.00000
    493       5.0024      0.00000
    494       5.0340      0.00000
    495       5.0505      0.00000
    496       5.0722      0.00000
    497       5.0756      0.00000
    498       5.0829      0.00000
    499       5.0988      0.00000
    500       5.1141      0.00000
    501       5.1307      0.00000
    502       5.1457      0.00000
    503       5.1539      0.00000
    504       5.1788      0.00000
    505       5.1988      0.00000
    506       5.2094      0.00000
    507       5.2179      0.00000
    508       5.2386      0.00000
    509       5.2521      0.00000
    510       5.2754      0.00000
    511       5.2863      0.00000
    512       5.3237      0.00000
    513       5.3440      0.00000
    514       5.3583      0.00000
    515       5.3703      0.00000
    516       5.3928      0.00000
    517       5.4342      0.00000
    518       5.4515      0.00000
    519       5.4798      0.00000

 k-point    10 :       0.5000    0.5000    0.0000
  band No.  band energies     occupation 
      1     -57.7200      2.00000
      2     -57.7176      2.00000
      3     -57.7133      2.00000
      4     -57.7123      2.00000
      5     -57.6671      2.00000
      6     -57.6624      2.00000
      7     -57.6574      2.00000
      8     -57.6482      2.00000
      9     -57.6215      2.00000
     10     -57.6166      2.00000
     11     -57.6126      2.00000
     12     -57.6111      2.00000
     13     -57.6100      2.00000
     14     -57.6004      2.00000
     15     -57.5978      2.00000
     16     -57.5960      2.00000
     17     -57.5808      2.00000
     18     -57.5386      2.00000
     19     -57.5299      2.00000
     20     -57.5165      2.00000
     21     -57.5139      2.00000
     22     -57.5008      2.00000
     23     -57.4974      2.00000
     24     -57.4969      2.00000
     25     -57.4959      2.00000
     26     -57.4948      2.00000
     27     -57.4941      2.00000
     28     -57.4918      2.00000
     29     -57.4874      2.00000
     30     -57.4810      2.00000
     31     -57.4792      2.00000
     32     -57.4762      2.00000
     33     -57.4761      2.00000
     34     -57.4739      2.00000
     35     -57.4714      2.00000
     36     -57.4675      2.00000
     37     -57.4602      2.00000
     38     -57.4407      2.00000
     39     -57.4204      2.00000
     40     -57.4188      2.00000
     41     -57.4164      2.00000
     42     -57.4074      2.00000
     43     -57.3626      2.00000
     44     -57.3499      2.00000
     45     -57.2991      2.00000
     46     -57.2962      2.00000
     47     -57.2952      2.00000
     48     -57.2936      2.00000
     49     -57.2928      2.00000
     50     -57.2839      2.00000
     51     -57.2801      2.00000
     52     -57.2789      2.00000
     53     -57.2785      2.00000
     54     -57.2775      2.00000
     55     -57.2772      2.00000
     56     -57.2745      2.00000
     57     -57.2416      2.00000
     58     -57.2279      2.00000
     59     -57.2257      2.00000
     60     -57.2141      2.00000
     61     -51.5836      2.00000
     62     -51.5813      2.00000
     63     -32.3737      2.00000
     64     -32.3658      2.00000
     65     -32.3197      2.00000
     66     -32.3036      2.00000
     67     -32.2833      2.00000
     68     -32.2778      2.00000
     69     -32.2734      2.00000
     70     -32.2670      2.00000
     71     -32.2652      2.00000
     72     -32.2614      2.00000
     73     -32.2219      2.00000
     74     -32.2125      2.00000
     75     -32.1809      2.00000
     76     -32.1626      2.00000
     77     -32.1496      2.00000
     78     -32.1433      2.00000
     79     -32.1407      2.00000
     80     -32.1333      2.00000
     81     -32.1282      2.00000
     82     -32.1182      2.00000
     83     -32.1062      2.00000
     84     -32.1039      2.00000
     85     -32.1027      2.00000
     86     -32.0982      2.00000
     87     -32.0917      2.00000
     88     -32.0859      2.00000
     89     -32.0855      2.00000
     90     -32.0709      2.00000
     91     -32.0699      2.00000
     92     -32.0660      2.00000
     93     -32.0598      2.00000
     94     -32.0589      2.00000
     95     -32.0399      2.00000
     96     -32.0385      2.00000
     97     -32.0241      2.00000
     98     -32.0149      2.00000
     99     -31.9934      2.00000
    100     -31.9601      2.00000
    101     -31.9529      2.00000
    102     -31.9517      2.00000
    103     -31.9483      2.00000
    104     -31.9367      2.00000
    105     -31.9308      2.00000
    106     -31.9200      2.00000
    107     -31.9034      2.00000
    108     -31.8976      2.00000
    109     -31.8965      2.00000
    110     -31.8935      2.00000
    111     -31.8766      2.00000
    112     -31.8737      2.00000
    113     -31.8423      2.00000
    114     -31.8221      2.00000
    115     -31.8076      2.00000
    116     -31.8069      2.00000
    117     -31.8064      2.00000
    118     -31.8057      2.00000
    119     -31.7800      2.00000
    120     -31.7790      2.00000
    121     -31.7708      2.00000
    122     -31.7474      2.00000
    123     -31.7357      2.00000
    124     -31.7214      2.00000
    125     -31.6988      2.00000
    126     -31.6876      2.00000
    127     -31.6769      2.00000
    128     -31.6699      2.00000
    129     -31.6662      2.00000
    130     -31.6631      2.00000
    131     -31.6560      2.00000
    132     -31.6526      2.00000
    133     -31.6481      2.00000
    134     -31.6452      2.00000
    135     -31.6398      2.00000
    136     -31.6393      2.00000
    137     -31.6343      2.00000
    138     -31.6098      2.00000
    139     -31.5995      2.00000
    140     -31.5900      2.00000
    141     -31.5865      2.00000
    142     -31.5847      2.00000
    143     -31.5800      2.00000
    144     -31.5765      2.00000
    145     -31.5662      2.00000
    146     -31.5636      2.00000
    147     -31.5507      2.00000
    148     -31.5470      2.00000
    149     -31.5386      2.00000
    150     -31.5288      2.00000
    151     -31.5278      2.00000
    152     -31.5267      2.00000
    153     -31.5259      2.00000
    154     -31.5252      2.00000
    155     -31.5232      2.00000
    156     -31.5179      2.00000
    157     -31.5159      2.00000
    158     -31.5057      2.00000
    159     -31.5034      2.00000
    160     -31.5002      2.00000
    161     -31.4951      2.00000
    162     -31.4808      2.00000
    163     -31.4744      2.00000
    164     -31.4633      2.00000
    165     -31.4603      2.00000
    166     -31.4505      2.00000
    167     -31.4487      2.00000
    168     -31.4367      2.00000
    169     -31.4041      2.00000
    170     -31.3903      2.00000
    171     -31.3772      2.00000
    172     -31.3584      2.00000
    173     -31.3565      2.00000
    174     -31.3413      2.00000
    175     -31.3401      2.00000
    176     -31.3396      2.00000
    177     -31.3360      2.00000
    178     -31.3323      2.00000
    179     -31.3195      2.00000
    180     -31.3139      2.00000
    181     -31.3067      2.00000
    182     -31.3018      2.00000
    183     -31.2929      2.00000
    184     -31.2924      2.00000
    185     -31.2885      2.00000
    186     -31.2861      2.00000
    187     -31.2809      2.00000
    188     -31.2708      2.00000
    189     -31.2689      2.00000
    190     -31.2615      2.00000
    191     -31.2535      2.00000
    192     -31.2530      2.00000
    193     -31.2466      2.00000
    194     -31.2446      2.00000
    195     -31.2433      2.00000
    196     -31.2397      2.00000
    197     -31.2322      2.00000
    198     -31.2212      2.00000
    199     -31.2184      2.00000
    200     -31.2168      2.00000
    201     -31.2126      2.00000
    202     -31.2069      2.00000
    203     -31.2056      2.00000
    204     -31.2023      2.00000
    205     -31.1933      2.00000
    206     -31.1872      2.00000
    207     -31.1783      2.00000
    208     -31.1703      2.00000
    209     -31.1611      2.00000
    210     -31.1448      2.00000
    211     -31.1438      2.00000
    212     -31.1407      2.00000
    213     -31.1403      2.00000
    214     -31.1381      2.00000
    215     -31.1376      2.00000
    216     -31.1289      2.00000
    217     -31.1284      2.00000
    218     -31.1274      2.00000
    219     -31.1271      2.00000
    220     -31.1257      2.00000
    221     -31.1206      2.00000
    222     -31.1187      2.00000
    223     -31.0943      2.00000
    224     -31.0939      2.00000
    225     -31.0920      2.00000
    226     -31.0913      2.00000
    227     -31.0812      2.00000
    228     -31.0789      2.00000
    229     -31.0784      2.00000
    230     -31.0765      2.00000
    231     -31.0577      2.00000
    232     -31.0491      2.00000
    233     -31.0457      2.00000
    234     -31.0321      2.00000
    235     -31.0224      2.00000
    236     -31.0156      2.00000
    237     -30.9960      2.00000
    238     -30.9878      2.00000
    239     -30.9822      2.00000
    240     -30.9611      2.00000
    241     -30.9523      2.00000
    242     -30.9374      2.00000
    243     -27.7444      2.00000
    244     -27.7343      2.00000
    245     -27.6131      2.00000
    246     -27.6011      2.00000
    247     -27.5380      2.00000
    248     -27.5346      2.00000
    249      -2.2650      2.00000
    250      -2.2474      2.00000
    251      -2.2461      2.00000
    252      -2.2042      2.00000
    253      -1.4613      2.00000
    254      -1.4276      2.00000
    255      -1.4248      2.00000
    256      -1.3688      2.00000
    257      -1.3442      2.00000
    258      -1.3139      2.00000
    259      -1.0207      2.00000
    260      -1.0071      2.00000
    261      -0.9692      2.00000
    262      -0.9684      2.00000
    263      -0.9531      2.00000
    264      -0.9511      2.00000
    265      -0.9445      2.00000
    266      -0.9346      2.00000
    267      -0.8811      2.00000
    268      -0.8489      2.00000
    269      -0.8422      2.00000
    270      -0.8217      2.00000
    271      -0.7959      2.00000
    272      -0.7331      2.00000
    273      -0.7299      2.00000
    274      -0.6970      2.00000
    275      -0.5965      2.00000
    276      -0.5785      2.00000
    277      -0.5760      2.00000
    278      -0.5539      2.00000
    279      -0.5342      2.00000
    280      -0.5245      2.00000
    281      -0.5211      2.00000
    282      -0.5062      2.00000
    283      -0.5005      2.00000
    284      -0.4896      2.00000
    285      -0.4364      2.00000
    286      -0.4203      2.00000
    287      -0.4144      2.00000
    288      -0.3933      2.00000
    289      -0.3495      2.00000
    290      -0.3121      2.00000
    291      -0.3102      2.00000
    292      -0.2738      2.00000
    293      -0.2668      2.00000
    294      -0.2267      2.00000
    295      -0.2212      2.00000
    296      -0.2198      2.00000
    297      -0.1812      2.00000
    298      -0.1670      2.00000
    299      -0.1648      2.00000
    300      -0.0907      2.00000
    301      -0.0112      2.00000
    302       0.0479      2.00000
    303       0.0797      2.00000
    304       0.0882      2.00000
    305       0.1405      2.00000
    306       0.1920      2.00000
    307       0.1926      2.00000
    308       0.2177      2.00000
    309       0.2273      2.00000
    310       0.2287      2.00000
    311       0.2970      2.00000
    312       0.3033      2.00000
    313       0.3176      2.00000
    314       0.3207      2.00000
    315       0.3303      2.00000
    316       0.3495      2.00000
    317       0.3557      2.00000
    318       0.3613      2.00000
    319       0.3619      2.00000
    320       0.3680      2.00000
    321       0.3873      2.00000
    322       0.3896      2.00000
    323       0.3950      2.00000
    324       0.3997      2.00000
    325       0.4106      2.00000
    326       0.4294      2.00000
    327       0.4358      2.00000
    328       0.4547      2.00000
    329       0.4991      2.00000
    330       0.5182      2.00000
    331       0.5625      2.00000
    332       0.5991      2.00000
    333       0.6470      2.00000
    334       0.6945      2.00000
    335       0.7254      2.00000
    336       0.7368      2.00000
    337       0.7490      2.00000
    338       0.8363      2.00000
    339       0.8483      2.00000
    340       0.8637      2.00000
    341       0.8714      2.00000
    342       0.8766      2.00000
    343       0.8829      2.00000
    344       0.9415      2.00000
    345       0.9767      2.00000
    346       0.9855      2.00000
    347       1.0003      2.00000
    348       1.0325      2.00000
    349       1.0813      2.00000
    350       1.0951      2.00000
    351       1.1041      2.00000
    352       1.1195      2.00000
    353       1.1489      2.00000
    354       1.1531      2.00000
    355       1.1620      2.00000
    356       1.1682      2.00000
    357       1.2656      2.00000
    358       1.2821      2.00000
    359       1.2922      2.00000
    360       1.3409      2.00000
    361       1.3661      2.00000
    362       1.3753      2.00000
    363       1.3973      2.00000
    364       1.4043      2.00000
    365       1.4352      2.00000
    366       1.4358      2.00000
    367       1.4729      2.00000
    368       1.4746      2.00000
    369       1.4788      2.00000
    370       1.4828      2.00000
    371       1.4882      2.00000
    372       1.4917      2.00000
    373       1.5065      2.00000
    374       1.5277      2.00000
    375       1.5691      2.00000
    376       1.5715      2.00000
    377       1.6112      2.00000
    378       1.6989      2.00000
    379       1.7400      2.00000
    380       1.7444      2.00000
    381       1.7624      2.00000
    382       1.7825      2.00000
    383       1.8083      2.00000
    384       1.8543      2.00000
    385       1.8629      2.00000
    386       1.9109      2.00000
    387       1.9116      2.00000
    388       1.9322      2.00000
    389       1.9653      2.00000
    390       1.9785      2.00000
    391       2.0120      2.00000
    392       2.0407      2.00000
    393       2.0439      2.00000
    394       2.0740      2.00000
    395       2.2054      2.00000
    396       2.3401      2.00000
    397       2.3465      2.00000
    398       2.3568      2.00000
    399       2.3662      2.00000
    400       2.4455      2.00000
    401       2.5199      2.00000
    402       2.5427      2.00000
    403       2.6850      2.00000
    404       2.6915      2.00000
    405       2.6996      2.00000
    406       2.7810      2.00000
    407       2.7875      2.00000
    408       2.8470      2.00000
    409       2.9101      2.00000
    410       2.9241      2.00000
    411       2.9309      2.00000
    412       2.9438      2.00000
    413       2.9593      2.00000
    414       2.9853      2.00000
    415       2.9858      2.00000
    416       2.9873      2.00000
    417       2.9877      2.00000
    418       3.0269      2.00000
    419       3.0428      2.00000
    420       3.0545      2.00000
    421       3.0614      2.00000
    422       3.0884      2.00000
    423       3.0903      2.00000
    424       3.1328      1.99998
    425       3.1830      1.99959
    426       3.2416      1.99321
    427       3.3304      1.85342
    428       3.3512      1.75262
    429       3.3549      1.73091
    430       3.4542      0.76447
    431       3.4583      0.72118
    432       3.5158      0.24152
    433       3.5235      0.20069
    434       3.5394      0.13238
    435       3.5563      0.08127
    436       3.5910      0.02547
    437       3.6068      0.01396
    438       3.6422      0.00309
    439       3.6513      0.00203
    440       3.6951      0.00021
    441       3.7189      0.00005
    442       3.7296      0.00003
    443       3.8668      0.00000
    444       3.8864      0.00000
    445       3.8948      0.00000
    446       3.9516      0.00000
    447       3.9808      0.00000
    448       3.9878      0.00000
    449       4.0356      0.00000
    450       4.0426      0.00000
    451       4.0919      0.00000
    452       4.1258      0.00000
    453       4.1459      0.00000
    454       4.1893      0.00000
    455       4.2027      0.00000
    456       4.2315      0.00000
    457       4.2390      0.00000
    458       4.2615      0.00000
    459       4.2725      0.00000
    460       4.3049      0.00000
    461       4.3215      0.00000
    462       4.3298      0.00000
    463       4.3564      0.00000
    464       4.3731      0.00000
    465       4.3996      0.00000
    466       4.4079      0.00000
    467       4.4326      0.00000
    468       4.4491      0.00000
    469       4.4792      0.00000
    470       4.4969      0.00000
    471       4.5819      0.00000
    472       4.5933      0.00000
    473       4.5971      0.00000
    474       4.6128      0.00000
    475       4.6369      0.00000
    476       4.7175      0.00000
    477       4.7620      0.00000
    478       4.8119      0.00000
    479       4.8137      0.00000
    480       4.8313      0.00000
    481       4.8475      0.00000
    482       4.8624      0.00000
    483       4.8786      0.00000
    484       4.9150      0.00000
    485       4.9197      0.00000
    486       4.9254      0.00000
    487       4.9371      0.00000
    488       4.9555      0.00000
    489       4.9778      0.00000
    490       4.9886      0.00000
    491       5.0128      0.00000
    492       5.0135      0.00000
    493       5.0396      0.00000
    494       5.0485      0.00000
    495       5.0580      0.00000
    496       5.0825      0.00000
    497       5.0949      0.00000
    498       5.1146      0.00000
    499       5.1259      0.00000
    500       5.1512      0.00000
    501       5.1544      0.00000
    502       5.1646      0.00000
    503       5.1657      0.00000
    504       5.1867      0.00000
    505       5.2247      0.00000
    506       5.2415      0.00000
    507       5.2747      0.00000
    508       5.2881      0.00000
    509       5.3086      0.00000
    510       5.3220      0.00000
    511       5.3455      0.00000
    512       5.3625      0.00000
    513       5.3687      0.00000
    514       5.3833      0.00000
    515       5.4443      0.00000
    516       5.5030      0.00000
    517       5.5122      0.00000
    518       5.5408      0.00000
    519       5.5745      0.00000


--------------------------------------------------------------------------------------------------------


 soft charge-density along one line, spin component           1
         0         1         2         3         4         5         6         7         8         9
 total charge-density along one line
 
 pseudopotential strength for first ion, spin component:           1
 -4.999  11.916   0.000   0.013   0.000  -0.000  -0.001  -0.000
 11.916   3.242  -0.000  -0.006  -0.000   0.000  -0.014   0.000
  0.000  -0.000 -18.700  -0.000   0.000   9.551   0.000  -0.000
  0.013  -0.006  -0.000 -18.730  -0.000   0.000   9.581   0.000
  0.000  -0.000   0.000  -0.000 -18.700  -0.000   0.000   9.551
 -0.000   0.000   9.551   0.000  -0.000   5.394  -0.000   0.000
 -0.001  -0.014   0.000   9.581   0.000  -0.000   5.381  -0.000
 -0.000   0.000  -0.000   0.000   9.551   0.000  -0.000   5.394
  0.000  -0.000   0.000   0.000   0.000  -0.000  -0.000  -0.000
 -0.000   0.000   0.006   0.000   0.000   0.001  -0.000  -0.000
 -0.022   0.012  -0.000   0.015  -0.000   0.000  -0.003   0.000
 -0.000   0.000   0.000   0.000   0.006  -0.000  -0.000   0.001
 -0.000   0.000  -0.000  -0.000   0.000   0.000   0.000  -0.000
  0.000  -0.000   0.000   0.000   0.000  -0.000  -0.000  -0.000
 -0.000   0.000   0.006   0.000   0.000   0.001  -0.000  -0.000
 -0.022   0.012  -0.000   0.015  -0.000   0.000  -0.003   0.000
 -0.000   0.000   0.000   0.000   0.006  -0.000  -0.000   0.001
 -0.000   0.000  -0.000  -0.000   0.000   0.000   0.000  -0.000
 total augmentation occupancy for first ion, spin component:           1
  1.996  -0.030   0.000  -0.003   0.000   0.000  -0.006   0.000  -0.000   0.000   0.023   0.000   0.000   0.000  -0.000  -0.019
 -0.030   1.384   0.000  -0.043   0.000   0.000   0.104   0.000   0.002  -0.000   0.087  -0.000   0.000  -0.000   0.000  -0.137
  0.000   0.000   1.996   0.000  -0.000  -0.029  -0.000  -0.000  -0.000  -0.015   0.000   0.000   0.000   0.000  -0.008  -0.000
 -0.003  -0.043   0.000   1.996   0.000  -0.000  -0.021  -0.000   0.000  -0.000   0.022  -0.000  -0.000   0.000   0.000  -0.047
  0.000   0.000  -0.000   0.000   1.996  -0.000  -0.000  -0.029  -0.000  -0.000   0.000  -0.015  -0.000   0.000  -0.000  -0.000
  0.000   0.000  -0.029  -0.000  -0.000   0.058   0.000   0.000  -0.000  -0.098   0.000   0.000   0.001   0.000   0.159   0.000
 -0.006   0.104  -0.000  -0.021  -0.000   0.000   0.035   0.000  -0.001   0.000  -0.077   0.000   0.000  -0.000   0.000   0.135
  0.000   0.000  -0.000  -0.000  -0.029   0.000   0.000   0.058  -0.000   0.000   0.000  -0.098  -0.000   0.000   0.000  -0.000
 -0.000   0.002  -0.000   0.000  -0.000  -0.000  -0.001  -0.000   0.635  -0.002   0.004  -0.002  -0.000  -0.679   0.001  -0.001
  0.000  -0.000  -0.015  -0.000  -0.000  -0.098   0.000   0.000  -0.002   0.797   0.002   0.005   0.000   0.001  -0.731   0.000
  0.023   0.087   0.000   0.022   0.000   0.000  -0.077   0.000   0.004   0.002   0.706   0.001   0.000  -0.001   0.000  -0.846
  0.000  -0.000   0.000  -0.000  -0.015   0.000   0.000  -0.098  -0.002   0.005   0.001   0.797  -0.000   0.000  -0.001   0.000
  0.000   0.000   0.000  -0.000  -0.000   0.001   0.000  -0.000  -0.000   0.000   0.000  -0.000   0.822   0.000   0.000  -0.000
  0.000  -0.000   0.000   0.000   0.000   0.000  -0.000   0.000  -0.679   0.001  -0.001   0.000   0.000   1.606  -0.000   0.001
 -0.000   0.000  -0.008   0.000  -0.000   0.159   0.000   0.000   0.001  -0.731   0.000  -0.001   0.000  -0.000   1.586  -0.000
 -0.019  -0.137  -0.000  -0.047  -0.000   0.000   0.135  -0.000  -0.001   0.000  -0.846   0.000  -0.000   0.001  -0.000   1.654
 -0.000   0.000  -0.000   0.000  -0.008  -0.000   0.000   0.159   0.000  -0.001   0.000  -0.731  -0.000   0.000   0.000  -0.000
 -0.000   0.000  -0.000  -0.000   0.000  -0.000   0.000   0.000   0.000   0.000  -0.000  -0.000  -1.006  -0.000   0.000   0.000


------------------------ aborting loop because EDIFF is reached ----------------------------------------


    CHARGE:  cpu time      2.8117: real time      0.9538
    FORLOC:  cpu time      1.1902: real time      0.2061
    FORNL :  cpu time     12.0492: real time      4.8135
    STRESS:  cpu time     40.4185: real time     14.6622
    FORCOR:  cpu time      9.5668: real time      1.4833
    FORHAR:  cpu time      0.5635: real time      0.3286
    MIXING:  cpu time      1.9039: real time      0.4152
    OFIELD:  cpu time      0.0013: real time      0.0002

  FORCE on cell =-STRESS in cart. coord.  units (eV):
  Direction    XX          YY          ZZ          XY          YZ          ZX
  --------------------------------------------------------------------------------------
  Alpha Z  3183.80401  3183.80401  3183.80401
  Ewald  449219.84417449233.85104************   -17.76130   -52.32198   -53.23780
  Hartree477373.15917477379.78068************   -14.40190   -30.06906   -29.89806
  E(xc)   -4136.13933 -4136.11258 -4142.88060     0.00734    -0.04909    -0.05419
  Local  ************************963905.12133    31.89688    80.48170    81.08357
  n-local -1554.38021 -1554.36243 -1584.10154    -1.16831    -3.64532    -3.88552
  augment  2087.81670  2087.86867  2082.65851     0.18176     0.95865     1.07515
  Kinetic 15623.70907 15624.02076 15615.29575     1.64056     4.45365     4.74456
  Fock        0.00000     0.00000     0.00000     0.00000     0.00000     0.00000
  -------------------------------------------------------------------------------------
  Total     -56.69901   -56.72810   -32.11456     0.39504    -0.19145    -0.17229
  in kB     -41.09298   -41.11407   -23.27524     0.28631    -0.13875    -0.12486
  external pressure =      -35.16 kB  Pullay stress =        0.00 kB


 VOLUME and BASIS-vectors are now :
 -----------------------------------------------------------------------------
  energy-cutoff  :      530.00
  volume of cell :     2210.64
      direct lattice vectors                 reciprocal lattice vectors
     9.498399734  0.000000000  0.000000000     0.105280892  0.000000000  0.000000000
     0.000000000  9.498399734  0.000000000     0.000000000  0.105280892  0.000000000
     0.000000000  0.000000000 24.502899170     0.000000000  0.000000000  0.040811497

  length of vectors
     9.498399734  9.498399734 24.502899170     0.105280892  0.105280892  0.040811497


 FORCES acting on ions
    electron-ion (+dipol)            ewald-force                    non-local-force                 convergence-correction
 -----------------------------------------------------------------------------------------------
   -.740E+00 -.750E+00 0.558E+04   0.743E+00 0.756E+00 -.557E+04   0.392E-02 0.567E-02 -.823E+01   -.129E-03 0.306E-03 -.530E-03
   -.148E+03 -.173E+03 -.568E+04   0.147E+03 0.172E+03 0.568E+04   0.881E+00 0.118E+01 0.731E+01   0.830E-04 0.242E-03 0.118E-03
   -.219E+01 -.225E+01 0.382E+04   0.217E+01 0.223E+01 -.382E+04   -.240E-02 -.771E-03 0.885E+00   -.333E-03 0.143E-04 -.969E-03
   -.185E-01 -.760E+00 0.558E+04   0.450E-01 0.793E+00 -.557E+04   -.856E-02 -.678E-02 -.819E+01   0.184E-05 -.206E-03 -.586E-03
   -.208E+02 -.180E+03 -.567E+04   0.209E+02 0.180E+03 0.566E+04   -.107E+00 0.908E+00 0.956E+01   0.710E-04 0.168E-03 0.342E-04
   0.219E+01 -.211E+01 0.382E+04   -.218E+01 0.206E+01 -.382E+04   -.117E-01 0.199E-01 0.856E+00   0.217E-03 -.163E-04 -.861E-03
   0.787E+00 -.721E+00 0.558E+04   -.788E+00 0.749E+00 -.557E+04   -.939E-02 -.223E-01 -.822E+01   0.127E-03 0.182E-04 -.550E-03
   0.180E+03 -.820E+02 -.567E+04   -.179E+03 0.823E+02 0.566E+04   -.891E+00 -.362E+00 0.770E+01   -.179E-03 0.185E-03 0.575E-04
   -.245E-01 -.209E+01 0.382E+04   0.101E-01 0.203E+01 -.383E+04   0.703E-02 0.382E-01 0.826E+00   0.118E-03 0.495E-05 -.109E-02
   -.744E+00 -.248E-01 0.558E+04   0.785E+00 0.482E-01 -.557E+04   -.635E-02 -.576E-02 -.818E+01   -.120E-03 -.250E-03 -.561E-03
   -.207E+01 0.222E+01 0.382E+04   0.202E+01 -.221E+01 -.382E+04   0.162E-01 -.125E-01 0.854E+00   0.918E-04 -.201E-04 -.895E-03
   -.147E-01 -.104E-01 0.558E+04   0.183E-02 0.103E-01 -.557E+04   0.101E-01 0.404E-02 -.818E+01   -.755E-04 0.195E-03 -.544E-03
   0.220E+01 0.221E+01 0.382E+04   -.218E+01 -.219E+01 -.382E+04   -.121E-01 -.120E-01 0.913E+00   -.797E-05 0.209E-03 -.986E-03
   0.803E+00 -.718E-02 0.558E+04   -.787E+00 0.121E-01 -.557E+04   -.106E-01 -.118E-01 -.817E+01   0.193E-03 -.371E-04 -.544E-03
   -.184E+00 0.203E+01 0.382E+04   0.162E+00 -.201E+01 -.382E+04   0.217E-02 -.246E-02 0.810E+00   -.839E-04 -.237E-03 -.854E-03
   -.711E+00 0.802E+00 0.558E+04   0.741E+00 -.805E+00 -.557E+04   -.227E-01 -.124E-01 -.822E+01   0.108E-03 -.556E-04 -.494E-03
   -.106E+03 0.201E+03 -.566E+04   0.106E+03 -.200E+03 0.566E+04   -.304E-02 -.126E+01 0.751E+01   0.530E-04 -.203E-03 0.504E-04
   -.205E+01 0.745E-02 0.382E+04   0.200E+01 -.160E-01 -.383E+04   0.388E-01 0.575E-02 0.829E+00   0.113E-03 0.615E-05 -.909E-03
   0.195E-02 0.814E+00 0.558E+04   0.889E-02 -.804E+00 -.557E+04   -.107E-01 -.908E-02 -.817E+01   0.210E-03 0.106E-04 -.566E-03
   0.199E+01 -.152E+00 0.382E+04   -.198E+01 0.136E+00 -.382E+04   -.363E-02 0.167E-02 0.803E+00   0.183E-05 -.192E-03 -.108E-02
   0.733E+00 0.748E+00 0.558E+04   -.750E+00 -.761E+00 -.557E+04   0.980E-02 0.713E-02 -.820E+01   -.318E-03 0.173E-04 -.533E-03
   0.111E+03 0.851E+02 -.567E+04   -.111E+03 -.858E+02 0.566E+04   0.565E+00 0.806E+00 0.790E+01   -.104E-03 -.136E-03 0.646E-04
   0.180E-01 0.232E-01 0.383E+04   -.156E-01 -.188E-01 -.383E+04   0.790E-02 0.770E-02 0.823E+00   -.114E-03 0.234E-03 -.842E-03
   -.578E+01 -.596E+01 0.185E+04   0.578E+01 0.595E+01 -.185E+04   -.483E-02 -.517E-03 -.682E+00   -.620E-04 0.677E-04 -.924E-03
   -.199E+02 -.204E+02 -.145E+03   0.199E+02 0.204E+02 0.145E+03   0.660E-01 0.601E-01 0.546E-01   -.731E-04 0.506E-04 -.755E-03
   -.333E+00 -.659E+01 0.184E+04   0.380E+00 0.657E+01 -.184E+04   0.682E-02 -.115E-01 -.728E+00   -.701E-06 -.255E-06 -.808E-03
   0.185E+02 -.185E+02 -.144E+03   -.185E+02 0.183E+02 0.144E+03   -.755E-02 0.953E-01 0.321E-02   0.840E-04 0.690E-04 -.694E-03
   0.616E+01 -.579E+01 0.185E+04   -.615E+01 0.576E+01 -.185E+04   -.217E-01 -.148E-01 -.693E+00   0.617E-04 0.582E-04 -.908E-03
   0.134E+01 -.156E+02 -.112E+03   -.135E+01 0.157E+02 0.112E+03   -.474E-02 0.257E-01 0.144E-01   -.951E-05 0.600E-04 -.829E-03
   -.650E+01 -.317E+00 0.184E+04   0.650E+01 0.367E+00 -.184E+04   -.120E-01 0.322E-03 -.729E+00   -.277E-04 -.204E-04 -.880E-03
   -.182E+02 0.185E+02 -.145E+03   0.180E+02 -.186E+02 0.145E+03   0.993E-01 -.458E-03 -.818E-02   -.155E-04 0.276E-04 -.743E-03
   0.549E+00 0.460E+00 0.183E+04   -.503E+00 -.414E+00 -.183E+04   -.604E-01 -.481E-01 -.385E+00   -.245E-05 0.801E-04 -.743E-03
   0.190E+02 0.189E+02 -.133E+03   -.189E+02 -.188E+02 0.132E+03   -.249E-01 -.253E-01 -.177E+00   0.101E-04 -.903E-05 -.757E-03
   0.601E+01 0.382E+00 0.184E+04   -.601E+01 -.357E+00 -.184E+04   0.509E-01 -.273E-02 -.719E+00   0.295E-04 -.111E-04 -.826E-03
   -.109E+01 0.144E+02 -.116E+03   0.116E+01 -.144E+02 0.116E+03   -.475E-01 -.107E-01 -.502E-02   0.450E-05 -.588E-04 -.764E-03
   -.572E+01 0.631E+01 0.185E+04   0.570E+01 -.631E+01 -.185E+04   -.187E-01 -.250E-01 -.692E+00   0.313E-04 -.476E-04 -.728E-03
   -.154E+02 0.183E+01 -.111E+03   0.155E+02 -.183E+01 0.111E+03   0.240E-01 -.107E-01 -.385E-02   -.257E-04 -.761E-04 -.813E-03
   0.379E+00 0.617E+01 0.184E+04   -.349E+00 -.616E+01 -.184E+04   0.624E-02 0.464E-01 -.719E+00   0.760E-05 -.804E-04 -.892E-03
   0.141E+02 -.682E+00 -.116E+03   -.142E+02 0.755E+00 0.116E+03   -.111E-01 -.533E-01 0.129E-02   -.158E-05 -.621E-04 -.779E-03
   0.539E+01 0.543E+01 0.185E+04   -.536E+01 -.541E+01 -.185E+04   0.233E-02 0.102E-01 -.707E+00   -.392E-04 -.462E-04 -.889E-03
   0.140E+01 0.154E+01 -.836E+02   -.146E+01 -.157E+01 0.832E+02   -.622E-02 -.141E-01 0.866E-01   0.271E-04 -.207E-05 -.913E-03
   -.453E+02 -.490E+02 -.202E+04   0.457E+02 0.494E+02 0.202E+04   -.258E+00 -.274E+00 0.501E+00   0.782E-04 0.156E-03 -.638E-03
   -.195E+03 -.197E+03 -.421E+04   0.194E+03 0.196E+03 0.421E+04   0.718E+00 0.685E+00 0.819E+00   0.357E-04 0.112E-03 -.204E-03
   -.566E+01 -.537E+02 -.207E+04   0.583E+01 0.539E+02 0.207E+04   -.730E-01 -.261E-01 0.521E+00   0.578E-04 0.105E-03 -.491E-03
   0.170E+03 -.216E+03 -.419E+04   -.170E+03 0.215E+03 0.419E+04   -.599E+00 0.819E+00 0.675E+00   0.277E-04 0.577E-04 -.213E-03
   0.503E+02 -.409E+02 -.203E+04   -.508E+02 0.411E+02 0.203E+04   0.308E+00 -.159E+00 0.446E+00   -.135E-03 0.174E-03 -.557E-03
   0.194E+02 -.120E+03 -.403E+04   -.196E+02 0.120E+03 0.403E+04   0.465E-01 0.110E+00 -.857E+00   -.605E-04 0.185E-03 -.231E-03
   -.522E+02 -.459E+01 -.208E+04   0.524E+02 0.476E+01 0.207E+04   -.731E-01 -.675E-01 0.550E+00   0.189E-04 0.436E-04 -.528E-03
   -.213E+03 0.158E+03 -.420E+04   0.212E+03 -.158E+03 0.419E+04   0.741E+00 -.538E+00 0.775E+00   0.802E-06 -.107E-03 -.301E-03
   0.103E+02 0.993E+01 -.226E+04   -.104E+02 -.994E+01 0.226E+04   -.121E+00 -.180E+00 0.159E+00   0.169E-04 -.782E-05 -.512E-03
   0.185E+03 0.180E+03 -.410E+04   -.184E+03 -.179E+03 0.410E+04   -.463E+00 -.486E+00 0.678E+00   0.327E-04 -.806E-04 -.280E-03
   0.431E+02 0.900E+01 -.211E+04   -.431E+02 -.895E+01 0.211E+04   -.292E-01 -.475E-01 0.388E+00   -.336E-04 -.137E-04 -.517E-03
   0.431E+01 0.774E+02 -.407E+04   -.458E+01 -.774E+02 0.407E+04   0.186E+00 0.339E-01 -.698E+00   -.365E-04 -.173E-03 -.272E-03
   -.412E+02 0.519E+02 -.203E+04   0.414E+02 -.523E+02 0.203E+04   -.191E+00 0.352E+00 0.479E+00   0.855E-04 -.198E-03 -.661E-03
   -.122E+03 0.356E+02 -.402E+04   0.122E+03 -.356E+02 0.402E+04   0.105E+00 -.428E-01 -.917E+00   0.141E-03 0.905E-06 -.323E-03
   0.849E+01 0.447E+02 -.211E+04   -.841E+01 -.446E+02 0.211E+04   -.560E-01 -.150E-01 0.380E+00   -.108E-06 -.983E-04 -.595E-03
   0.651E+02 0.154E+02 -.408E+04   -.651E+02 -.156E+02 0.408E+04   0.797E-01 0.120E+00 -.628E+00   -.434E-04 0.246E-04 -.247E-03
   0.349E+02 0.333E+02 -.204E+04   -.352E+02 -.336E+02 0.204E+04   0.297E+00 0.263E+00 0.469E+00   -.856E-04 -.157E-03 -.578E-03
   0.495E+02 0.349E+02 -.386E+04   -.495E+02 -.350E+02 0.386E+04   -.110E+00 -.881E-01 -.145E+01   -.989E-04 -.147E-04 -.322E-03
   -.178E+03 -.160E+02 -.567E+04   0.177E+03 0.161E+02 0.566E+04   0.879E+00 -.845E-01 0.968E+01   0.281E-04 -.337E-04 0.352E-04
   0.169E+03 0.230E+02 -.528E+04   -.169E+03 -.228E+02 0.527E+04   -.763E+00 -.358E+00 0.715E+01   -.433E-04 -.565E-04 0.481E-04
   0.259E+02 0.172E+03 -.528E+04   -.257E+02 -.171E+03 0.527E+04   -.419E+00 -.766E+00 0.719E+01   0.359E-04 -.898E-04 0.503E-04
 -----------------------------------------------------------------------------------------------
   -.684E+00 -.537E+00 0.600E+01   0.142E-13 -.341E-12 -.637E-11   0.682E+00 0.535E+00 -.597E+01   -.560E-04 0.808E-04 -.351E-01
 
 
 POSITION                                       TOTAL-FORCE (eV/Angst)
 -----------------------------------------------------------------------------------
      0.00000      0.00000      0.00000         0.006430      0.012436      1.557969
      9.38217      9.34897      9.38037        -0.003549     -0.010969     -0.057740
      1.58310      1.58310      1.58387        -0.024634     -0.018981     -1.264855
      3.16610      0.00000      0.00000         0.017965      0.026498      1.535333
      3.15988      0.02884      9.30087        -0.040360      0.075767     -0.019634
      4.74920      1.58310      1.58387        -0.005357     -0.030661     -1.283937
      6.33230      0.00000      0.00000        -0.009494      0.006268      1.562454
      6.49347      0.05036      9.34802        -0.016768     -0.059305      0.023846
      7.91530      1.58310      1.58387        -0.007258     -0.018620     -1.288578
      0.00000      3.16610      0.00000         0.034382      0.017381      1.534497
      1.58310      4.74920      1.58387        -0.031227     -0.009740     -1.274690
      3.16610      3.16610      0.00000        -0.002782      0.004161      1.511569
      4.74920      4.74920      1.58387         0.001496      0.004925     -1.298399
      6.33230      3.16610      0.00000         0.005330     -0.006888      1.546856
      7.91530      4.74920      1.58387        -0.019561      0.009457     -1.231732
      0.00000      6.33230      0.00000         0.006760     -0.014783      1.560380
      0.00725      6.52747      9.35711        -0.062955     -0.035694      0.034236
      1.58310      7.91530      1.58387        -0.017776     -0.002819     -1.289171
      3.16610      6.33230      0.00000         0.000423      0.000978      1.542839
      4.74920      7.91530      1.58387         0.004969     -0.014569     -1.226244
      6.33230      6.33230      0.00000        -0.006934     -0.005533      1.546879
      6.39932      6.35401      9.38840         0.201080      0.122246     -0.454301
      7.91530      7.91530      1.58387         0.010182      0.012333     -1.389054
      0.00000      0.00000      3.16773        -0.007815     -0.006416     -0.019784
      1.58310      1.58310      4.75136         0.026209      0.043187      0.007655
      3.16610      0.00000      3.16773         0.053573     -0.022694     -0.181078
      4.74920      1.58310      4.75136        -0.057759     -0.046048     -0.126069
      6.33230      0.00000      3.16773        -0.016777     -0.038422     -0.065973
      7.91530      1.58310      4.75136        -0.012692      0.125363     -0.068752
      0.00000      3.16610      3.16773        -0.007979      0.049836     -0.190152
      1.58310      4.74920      4.75136        -0.039579     -0.067868     -0.119557
      3.16610      3.16610      3.16773        -0.014805     -0.002082      0.020460
      4.74920      4.74920      4.75136         0.012435      0.027415     -0.420330
      6.33230      3.16610      3.16773         0.052466      0.023013     -0.137545
      7.91530      4.74920      4.75136         0.027162     -0.098929      0.032941
      0.00000      6.33230      3.16773        -0.036656     -0.024066     -0.061108
      1.58310      7.91530      4.75136         0.130627     -0.013324     -0.100346
      3.16610      6.33230      3.16773         0.036723      0.049485     -0.146711
      4.74920      7.91530      4.75136        -0.097025      0.019250      0.046371
      6.33230      6.33230      3.16773         0.037667      0.038913     -0.056931
      7.91530      7.91530      4.75136        -0.072952     -0.044104     -0.373784
      0.00000      0.00000      6.33522         0.128927      0.128180      0.138927
      1.58091      1.58362      7.95692         0.011186     -0.004526      0.006056
      3.16610      0.00000      6.33522         0.103582      0.119982     -0.216999
      4.74245      1.57377      7.93208         0.007310      0.049771      0.154065
      6.33230      0.00000      6.33522        -0.145305      0.043908     -0.119439
      7.92203      1.60561      7.94252        -0.090001      0.103242      0.051135
      0.00000      3.16610      6.33522         0.135138      0.102690     -0.227167
      1.57584      4.74296      7.93021         0.053388      0.008054      0.168525
      3.16610      3.16610      6.33522        -0.192091     -0.191449      0.204083
      4.74109      4.74245      7.84525         0.056449      0.055560      0.793556
      6.33230      3.16610      6.33522         0.037142     -0.001711      0.095618
      7.91065      4.74942      7.95731        -0.080170      0.040719      0.097641
      0.00000      6.33230      6.33522         0.013433     -0.115378     -0.026950
      1.60571      7.92269      7.93490         0.110828     -0.100006      0.071092
      3.16610      6.33230      6.33522         0.027454      0.035191      0.068272
      4.75105      7.90981      7.95756         0.033532     -0.092398      0.118444
      6.33230      6.33230      6.33522        -0.019592     -0.006316     -0.295811
      7.91155      7.92218      7.89022        -0.175418     -0.175880      0.229207
      0.04299      3.16905      9.29999         0.080112     -0.029817     -0.023099
      6.16389      3.24078      9.46423         0.093108     -0.167698     -0.573883
      3.24780      6.17839      9.46538        -0.242197      0.121484     -0.631106
 -----------------------------------------------------------------------------------
    total drift:                               -0.002422     -0.001138      0.001282


--------------------------------------------------------------------------------------------------------



  FREE ENERGIE OF THE ION-ELECTRON SYSTEM (eV)
  ---------------------------------------------------
  free  energy   TOTEN  =      -639.65241294 eV

  energy  without entropy=     -639.38885889  energy(sigma->0) =     -639.52063591
 


--------------------------------------------------------------------------------------------------------


    POTLOK:  cpu time     11.7069: real time      1.8825


--------------------------------------------------------------------------------------------------------


 stress matrix after NEB project (eV)
    -56.69901      0.39504     -0.17229
      0.39504    -56.72810     -0.19145
     -0.17229     -0.19145    -32.11456
  FORCES: max atom, RMS     0.797499    0.180835
  FORCE total and by dimension    1.423897    0.793556
  Stress total and by dimension   86.398170   56.728097
 writing wavefunctions
     LOOP+:  cpu time   7289.5031: real time   1183.0843
    4ORBIT:  cpu time      0.0000: real time      0.0000

 total amount of memory used by VASP MPI-rank0  2428253. kBytes
=======================================================================

   base      :      30000. kBytes
   nonlr-proj:      83203. kBytes
   fftplans  :     272216. kBytes
   grid      :     487461. kBytes
   one-center:        964. kBytes
   wavefun   :    1554409. kBytes
 
  
  
 General timing and accounting informations for this job:
 ========================================================
  
                  Total CPU time used (sec):     7407.388
                            User time (sec):     5678.176
                          System time (sec):     1729.212
                         Elapsed time (sec):     1240.345
  
                   Maximum memory used (kb):     5177952.
                   Average memory used (kb):          N/A
  
                          Minor page faults:       711153
                          Major page faults:          135
                 Voluntary context switches:       997320
 
 PROFILE, used timers:     226
 =============================
 
 index                 routine                    time                            calls level
----------------------------------------------------------------------------------------------
    1    total_time                         1240.344943                                1   1
    2      init_hip                              0.667684                              1   2
    3      crpa_reader                           0.000062                              1   2
    4      hip_init_hipblas                      0.000224                              1   2
    5      hip_init_rocsolver                    0.000190                              1   2
    6      m_bcast_d                             0.000196                              5   2
    7      inisym                                0.012409                              1   2
    8        posmap                                0.000016                            2   3
    9      hip_hipfft_makeplans                  0.002783                              3   2
   10        hip_hipfft_makeplan                   0.002778                            6   3
   11      brgrid                                0.015673                              1   2
   12      stufak                                0.272388                              1   2
   13      fft3d_mpi                             0.245391                              3   2
   14        fftbrc_mpi                            0.218407                            3   3
   15          fftbas_plan_mpi                       0.218406                          3   4
   16            dfftw_execute                         0.072607                        9   5
   17            map_forward                           0.041125                        6   5
   18              map_scatter                           0.023349                      3   6
   19      rspher_all                            0.115474                              2   2
   20      m_sumb_d                              0.000166                              1   2
   21      setdij_                               0.243722                              2   2
   22      vectorpot                             0.000024                              1   2
   23      proall                                1.757157                              1   2
   24        phaser                                0.080836                            3   3
   25        rpro_isp                              1.429552                            3   3
   26          fftwav_mpi                            0.300412                       1557   4
   27            fftwav                                0.298402                     1557   5
   28              fft3d                                 0.221460                   1557   6
   29          rpromu_acc                            1.126548                        390   4
   30      orthch                                5.336632                              1   2
   31        overl                                 0.001701                            3   3
   32        orth1                                 3.360706                            3   3
   33        choleski                              1.506413                            3   3
   34        lincom                                0.155212                            3   3
   35      redis_pw_over_bands                   0.000001                              1   2
   36      m_bcast_z                             0.002338                              2   2
   37      fewald                                0.006005                              1   2
   38        rsp                                   0.004050                            1   3
   39        rcp                                   0.000335                            1   3
   40        m_sumb_d                              0.000089                            5   3
   41      elmin                              1133.215820                              1   2
   42        potlok                               72.831358                           45   3
   43          fft3d_mpi                            24.314752                        585   4
   44            fftbrc_mpi                           19.539973                      585   5
   45              fftbas_plan_mpi                      19.539074                    585   6
   46                dfftw_execute                        12.501631                 1755   7
   47                map_forward                           3.492118                  630   7
   48                  map_scatter                           2.064049                315   8
   49                map_backward                          3.467202                  540   7
   50                  map_gather                            2.271069                270   8
   51          ggaall_grid                          12.924953                         45   4
   52          pothar                                2.218189                         45   4
   53        potlok_metagga                        0.000037                           45   3
   54        vectorpot                             0.000263                           45   3
   55        setdij_                               5.465168                           45   3
   56        set_dd_magatom                        0.000262                           45   3
   57        set_dd_paw                            1.631754                           45   3
   58          m_sumb_d                              0.417967                        315   4
   59        eddav                              1011.331798                           49   3
   60          phaser                                4.346827                        147   4
   61          newband                              28.496313                      32188   4
   62            w1_copy                               1.123237                   152586   5
   63            fftwav_mpi                            1.341168                    76293   5
   64              fftwav                                1.226369                  76293   6
   65                fft3d                                 0.763782                76293   7
   66            eccp                                  1.267677                    76293   5
   67            truncate_high_frequency_w1            0.010266                    76293   5
   68            setup_precond                         0.441743                    76293   5
   69          hamiltmu                            125.746151                      32041   4
   70            vhamil                                0.697320                   255603   5
   71            raccmu_                              61.291638                    32041   5
   72              overl_mu                              2.606919                  32041   6
   73              racc0mu_acc                          42.668440                  32041   6
   74            kinhamil                              4.304866                   255603   5
   75              fftext_mpi                            3.444059                 255603   6
   76                fft3d_mpi                             2.612745               255603   7
   77                  fft3d                                 2.475348             255603   8
   78          overl                                 2.442155                     434913   4
   79          truncate_high_frequency_w1            0.033557                     255603   4
   80          w1_copy                               4.003518                     614223   4
   81          orth1                                 2.977136                      96123   4
   82          lapack                               31.508186                      32041   4
   83          apply_precond                         0.499114                     179310   4
   84          fftwav_mpi                            6.470097                     358620   4
   85            fftwav                                5.945089                   358620   5
   86              fft3d                                 3.763733                 358620   6
   87          w1_projall                           67.373893                      22486   4
   88            rpromu_acc                           67.349024                    22486   5
   89          ggemm                                 1.651176                      41596   4
   90          lincom                                4.648647                        147   4
   91          m_bcast_z                             0.003042                         49   4
   92          m_sumb_d                              0.000736                         98   4
   93        m_sumb_d                              0.011963                           98   3
   94        densta                                0.231971                           49   3
   95          m_sumb_d                              0.006787                       1981   4
   96        set_charge                           31.536605                           44   3
   97          soft_charge                          21.543182                         44   4
   98            fftwav_mpi                            0.846967                    59669   5
   99              fftwav                                0.773108                  59669   6
  100                fft3d                                 0.477113                59669   7
  101            pw_charge                             0.151457                    59669   5
  102            m_sumb_d                             19.807823                       44   5
  103            fft_gq                                0.480200                       44   5
  104              fft3d_mpi                             0.455764                     44   6
  105                fftbrc_mpi                            0.217524                   44   7
  106                  fftbas_plan_mpi                       0.217463                 44   8
  107                    dfftw_execute                         0.097119              132   9
  108                    map_backward                          0.048744               88   9
  109                      map_gather                            0.031163             44  10
  110          depsum                                0.950349                         44   4
  111            m_sumb_d                              0.066291                       44   5
  112          augmentation_charge                   8.625638                         44   4
  113            fft3d_mpi                             1.985564                       44   5
  114              fftbrc_mpi                            1.620833                     44   6
  115                fftbas_plan_mpi                       1.620761                   44   7
  116                  dfftw_execute                         1.030905                132   8
  117                  map_backward                          0.583453                 88   8
  118                    map_gather                            0.385978               44   9
  119        brmix                                 9.278549                           44   3
  120          brpre                                 0.063514                         44   4
  121          setg0                                 1.816316                         45   4
  122          broyd                                 5.130064                         44   4
  123            brsav                                 0.384701                     1174   5
  124            brget                                 0.430781                     5120   5
  125          m_bcast_z                             1.535753                         44   4
  126          m_bcast_d                             0.017817                         44   4
  127        m_bcast_z                             0.000048                            1   3
  128      rotate_active_occupied_orbital        0.000006                              1   2
  129      force_and_stress                     23.014454                              1   2
  130        set_charge                            0.716187                            1   3
  131          soft_charge                           0.489101                          1   4
  132            fftwav_mpi                            0.020691                     1355   5
  133              fftwav                                0.018946                   1355   6
  134                fft3d                                 0.011589                 1355   7
  135            pw_charge                             0.003753                     1355   5
  136            m_sumb_d                              0.447868                        1   5
  137            fft_gq                                0.011245                        1   5
  138              fft3d_mpi                             0.010712                      1   6
  139                fftbrc_mpi                            0.005525                    1   7
  140                  fftbas_plan_mpi                       0.005524                  1   8
  141                    dfftw_execute                         0.002540                3   9
  142                    map_backward                          0.001146                2   9
  143                      map_gather                            0.000687              1  10
  144          depsum                                0.022228                          1   4
  145            m_sumb_d                              0.001111                        1   5
  146          augmentation_charge                   0.195522                          1   4
  147            fft3d_mpi                             0.044622                        1   5
  148              fftbrc_mpi                            0.036235                      1   6
  149                fftbas_plan_mpi                       0.036234                    1   7
  150                  dfftw_execute                         0.022791                  3   8
  151                  map_backward                          0.013293                  2   8
  152                    map_gather                            0.008835                1   9
  153        forloc                                0.199988                            1   3
  154        fornlr                                4.078678                            1   3
  155          rspher_all                            0.303722                          3   4
  156          phaser                                0.234868                          9   4
  157          rpro_isp                              3.448831                          9   4
  158            fftwav_mpi                            0.112612                     4671   5
  159              fftwav                                0.105962                   4671   6
  160                fft3d                                 0.063966                 4671   7
  161            rpromu_acc                            3.325138                     1170   5
  162          m_sumb_d                              0.054051                          1   4
  163        fordep                                0.734675                            1   3
  164          setdij_                               0.734540                          6   4
  165        setdij_                               2.425995                           20   3
  166        set_dd_magatom                        0.000005                            1   3
  167        set_dd_paw                            0.027094                            1   3
  168          m_sumb_d                              0.000153                          7   4
  169        strkin                                0.069934                            1   3
  170          m_sumb_d                              0.001472                          1   4
  171        strelo                                0.023821                            1   3
  172        strnlr                               12.263004                            1   3
  173          rspher_all                            0.898693                          9   4
  174          phaser                                0.710434                         27   4
  175          rpro_isp                             10.283230                         27   4
  176            fftwav_mpi                            0.199141                    14013   5
  177              fftwav                                0.179381                  14013   6
  178                fft3d                                 0.111430                14013   7
  179            rpromu_acc                           10.056533                     3510   5
  180          m_sumb_d                              0.286976                          9   4
  181        fft3d_mpi                             0.487236                           11   3
  182          fftbrc_mpi                            0.395384                         11   4
  183            fftbas_plan_mpi                       0.395368                       11   5
  184              dfftw_execute                         0.253683                     33   6
  185              map_forward                           0.063306                     10   6
  186                map_scatter                           0.037215                    5   7
  187              map_backward                          0.077049                     12   6
  188                map_gather                            0.050480                    6   7
  189        ggaall_grid                           0.303616                            1   3
  190        forhar                                0.398586                            2   3
  191        strehar                               0.014345                            1   3
  192        chggra                                0.129108                            1   3
  193          fft3d_mpi                             0.117571                          3   4
  194            fftbrc_mpi                            0.114333                        3   5
  195              fftbas_plan_mpi                       0.114327                      3   6
  196                map_forward                           0.000052                    4   7
  197                  map_scatter                           0.000006                  2   8
  198                map_backward                          0.000007                    2   7
  199                  map_gather                            0.000002                  1   8
  200          pothar                                0.001420                          1   4
  201        brmix                                 0.415215                            1   3
  202          brpre                                 0.001437                          1   4
  203          setg0                                 0.047977                          1   4
  204          broyd                                 0.320744                          1   4
  205            brget                                 0.019343                      229   5
  206            brsav                                 0.018141                       49   5
  207          m_bcast_z                             0.028174                          1   4
  208          m_bcast_d                             0.000527                          1   4
  209        m_bcast_d                             0.000030                            2   3
  210      potlok                                1.640595                              1   2
  211        fft3d_mpi                             0.545498                           13   3
  212          fftbrc_mpi                            0.439556                         13   4
  213            fftbas_plan_mpi                       0.439538                       13   5
  214              dfftw_execute                         0.283037                     39   6
  215              map_forward                           0.078325                     14   6
  216                map_scatter                           0.045837                    7   7
  217              map_backward                          0.076469                     12   6
  218                map_gather                            0.049889                    6   7
  219        ggaall_grid                           0.303265                            1   3
  220        pothar                                0.048545                            1   3
  221      potlok_metagga                        0.000000                              1   2
  222      set_dd_magatom                        0.000005                              1   2
  223      set_dd_paw                            0.027107                              1   2
  224        m_sumb_d                              0.000154                            7   3
  225      densta                                0.004765                              1   2
  226        m_sumb_d                              0.000261                           40   3
 
 Flat profile
 ============
 
             routine name                   CPU           calls
 ---------------------------------------------------------------
 eddav                                 731.131250          49
 rpromu_acc                             81.857243       27556
 total_time                             73.763671           1
 hamiltmu                               59.452326       32041
 racc0mu_acc                            42.668440       32041
 potlok                                 34.116751          46
 lapack                                 31.508186       32041
 newband                                24.312221       32188
 m_sumb_d                               21.103867        2653
 raccmu_                                16.016279       32041
 dfftw_execute                          14.264313        2106
 ggaall_grid                            13.531835          47
 setdij_                                 8.869426          73
 fft3d                                   7.888421      771781
 augmentation_charge                     6.790975          45
 orth1                                   6.337842       96126
 fft3d_mpi                               5.756738      256308
 phaser                                  5.372966         186
 w1_copy                                 5.126756      766809
 lincom                                  4.803858         150
 broyd                                   4.597842          45
 fftwav                                  3.134184      516178
 map_gather                              2.798102         373
 overl_mu                                2.606919       32041
 overl                                   2.443856      434916
 pothar                                  2.268154          47
 map_scatter                             2.170455         332
 setg0                                   1.864293          46
 ggemm                                   1.651176       41596
 m_bcast_z                               1.569354          97
 choleski                                1.506413           3
 map_forward                             1.504471         664
 map_backward                            1.469261         746
 rspher_all                              1.317889          14
 set_dd_paw                              1.267681          47
 eccp                                    1.267677       76293
 depsum                                  0.905175          45
 elmin                                   0.896043           1
 kinhamil                                0.860807      255603
 fftext_mpi                              0.831314      255603
 fftwav_mpi                              0.743831      516178
 brmix                                   0.731442          45
 force_and_stress                        0.726936           1
 vhamil                                  0.697320      255603
 init_hip                                0.667684           1
 apply_precond                           0.499114      179310
 brget                                   0.450124        5349
 setup_precond                           0.441743       76293
 set_charge                              0.426772          45
 brsav                                   0.402842        1223
 forhar                                  0.398586           2
 fftbas_plan_mpi                         0.380093         705
 orthch                                  0.312600           1
 stufak                                  0.272388           1
 soft_charge                             0.262279          45
 proall                                  0.246769           1
 densta                                  0.229688          50
 forloc                                  0.199988           1
 pw_charge                               0.155210       61024
 strnlr                                  0.083671           1
 strkin                                  0.068462           1
 brpre                                   0.064951          45
 truncate_high_frequency_w1              0.043824      331896
 rpro_isp                                0.041230          39
 fornlr                                  0.037206           1
 fft_gq                                  0.024969          45
 w1_projall                              0.024869       22486
 strelo                                  0.023821           1
 m_bcast_d                               0.018570          52
 brgrid                                  0.015673           1
 strehar                                 0.014345           1
 inisym                                  0.012393           1
 chggra                                  0.010117           1
 rsp                                     0.004050           1
 hip_hipfft_makeplan                     0.002778           6
 fewald                                  0.001531           1
 fftbrc_mpi                              0.001074         705
 rcp                                     0.000335           1
 vectorpot                               0.000287          46
 set_dd_magatom                          0.000272          47
 hip_init_hipblas                        0.000224           1
 hip_init_rocsolver                      0.000190           1
 fordep                                  0.000135           1
 crpa_reader                             0.000062           1
 potlok_metagga                          0.000037          46
 posmap                                  0.000016           2
 rotate_active_occupied_orbital          0.000006           1
 hip_hipfft_makeplans                    0.000005           3
 redis_pw_over_bands                     0.000001           1
 ---------------------------------------------------------------
  summed up times    1240.34494280815     
 
 Accumulative profile
 ====================
 
             routine name                   CPU           calls
 ---------------------------------------------------------------
 total_time                           1240.344943           1
 elmin                                1133.215820           1
 eddav                                1011.331798          49
 hamiltmu                              125.746151       32041
 rpromu_acc                             81.857243       27556
 potlok                                 74.471953          46
 w1_projall                             67.373893       22486
 raccmu_                                61.291638       32041
 racc0mu_acc                            42.668440       32041
 set_charge                             32.252792          45
 lapack                                 31.508186       32041
 fft3d_mpi                              30.819855      256308
 newband                                28.496313       32188
 force_and_stress                       23.014454           1
 fftbrc_mpi                             22.587769         705
 fftbas_plan_mpi                        22.586695         705
 soft_charge                            22.032283          45
 m_sumb_d                               21.103867        2653
 rpro_isp                               15.161613          39
 dfftw_execute                          14.264313        2106
 ggaall_grid                            13.531835          47
 strnlr                                 12.263004           1
 brmix                                   9.693764          45
 fftwav_mpi                              9.291088      516178
 setdij_                                 8.869426          73
 augmentation_charge                     8.821161          45
 fftwav                                  8.547256      516178
 fft3d                                   7.888421      771781
 orth1                                   6.337842       96126
 broyd                                   5.450808          45
 phaser                                  5.372966         186
 orthch                                  5.336632           1
 w1_copy                                 5.126756      766809
 lincom                                  4.803858         150
 kinhamil                                4.304866      255603
 map_backward                            4.267363         746
 fornlr                                  4.078678           1
 map_forward                             3.674926         664
 fftext_mpi                              3.444059      255603
 map_gather                              2.798102         373
 overl_mu                                2.606919       32041
 overl                                   2.443856      434916
 pothar                                  2.268154          47
 map_scatter                             2.170455         332
 setg0                                   1.864293          46
 proall                                  1.757157           1
 set_dd_paw                              1.685955          47
 ggemm                                   1.651176       41596
 m_bcast_z                               1.569354          97
 choleski                                1.506413           3
 rspher_all                              1.317889          14
 eccp                                    1.267677       76293
 depsum                                  0.972577          45
 fordep                                  0.734675           1
 vhamil                                  0.697320      255603
 init_hip                                0.667684           1
 apply_precond                           0.499114      179310
 fft_gq                                  0.491445          45
 brget                                   0.450124        5349
 setup_precond                           0.441743       76293
 brsav                                   0.402842        1223
 forhar                                  0.398586           2
 stufak                                  0.272388           1
 densta                                  0.236736          50
 forloc                                  0.199988           1
 pw_charge                               0.155210       61024
 chggra                                  0.129108           1
 strkin                                  0.069934           1
 brpre                                   0.064951          45
 truncate_high_frequency_w1              0.043824      331896
 strelo                                  0.023821           1
 m_bcast_d                               0.018570          52
 brgrid                                  0.015673           1
 strehar                                 0.014345           1
 inisym                                  0.012409           1
 fewald                                  0.006005           1
 rsp                                     0.004050           1
 hip_hipfft_makeplans                    0.002783           3
 hip_hipfft_makeplan                     0.002778           6
 rcp                                     0.000335           1
 vectorpot                               0.000287          46
 set_dd_magatom                          0.000272          47
 hip_init_hipblas                        0.000224           1
 hip_init_rocsolver                      0.000190           1
 crpa_reader                             0.000062           1
 potlok_metagga                          0.000037          46
 posmap                                  0.000016           2
 rotate_active_occupied_orbital          0.000006           1
 redis_pw_over_bands                     0.000001           1
 ---------------------------------------------------------------
 
Profiling took   1.075489  0.547986  0.002901  0.002749 seconds
Profiling took   0.680715 seconds
