ni3al                                   
           1
     9.498400    0.000000    0.000000
     0.000000    9.498400    0.000000
     0.000000    0.000000   24.502899
   Mo   Nb
    60     2
Direct configuration=     1
   0.00000000  0.00000000  0.00000000
   0.98776334  0.98426798  0.38282674
   0.16667000  0.16667000  0.06464000
   0.33333000  0.00000000  0.00000000
   0.33267472  0.00303599  0.37958259
   0.50000000  0.16667000  0.06464000
   0.66667000  0.00000000  0.00000000
   0.68363848  0.00530160  0.38150678
   0.83333000  0.16667000  0.06464000
   0.00000000  0.33333000  0.00000000
   0.16667000  0.50000000  0.06464000
   0.33333000  0.33333000  0.00000000
   0.50000000  0.50000000  0.06464000
   0.66667000  0.33333000  0.00000000
   0.83333000  0.50000000  0.06464000
   0.00000000  0.66667000  0.00000000
   0.00076358  0.68721792  0.38187749
   0.16667000  0.83333000  0.06464000
   0.33333000  0.66667000  0.00000000
   0.50000000  0.83333000  0.06464000
   0.66667000  0.66667000  0.00000000
   0.67372575  0.66895550  0.38315481
   0.83333000  0.83333000  0.06464000
   0.00000000  0.00000000  0.12928000
   0.16667000  0.16667000  0.19391000
   0.33333000  0.00000000  0.12928000
   0.50000000  0.16667000  0.19391000
   0.66667000  0.00000000  0.12928000
   0.83333000  0.16667000  0.19391000
   0.00000000  0.33333000  0.12928000
   0.16667000  0.50000000  0.19391000
   0.33333000  0.33333000  0.12928000
   0.50000000  0.50000000  0.19391000
   0.66667000  0.33333000  0.12928000
   0.83333000  0.50000000  0.19391000
   0.00000000  0.66667000  0.12928000
   0.16667000  0.83333000  0.19391000
   0.33333000  0.66667000  0.12928000
   0.50000000  0.83333000  0.19391000
   0.66667000  0.66667000  0.12928000
   0.83333000  0.83333000  0.19391000
   0.00000000  0.00000000  0.25855000
   0.16643962  0.16672480  0.32473393
   0.33333000  0.00000000  0.25855000
   0.49928972  0.16568780  0.32371993
   0.66667000  0.00000000  0.25855000
   0.83403838  0.16903971  0.32414627
   0.00000000  0.33333000  0.25855000
   0.16590622  0.49934286  0.32364385
   0.33333000  0.33333000  0.25855000
   0.49914595  0.49928910  0.32017626
   0.66667000  0.33333000  0.25855000
   0.83284062  0.50002296  0.32474974
   0.00000000  0.66667000  0.25855000
   0.16905108  0.83410788  0.32383535
   0.33333000  0.66667000  0.25855000
   0.50019483  0.83275230  0.32475979
   0.66667000  0.66667000  0.25855000
   0.83293452  0.83405423  0.32201160
   0.00452595  0.33364015  0.37954653
   0.64894031  0.34119214  0.38624941
   0.34193167  0.65046606  0.38629642
