  63  63   0   0
  0.3508955E+02  0.9498400E-09  0.9498400E-09  0.2450290E-08  0.5000000E-15
  1.000000000000000E-004
  CAR 
 ni3al                                   
      8.84579608    -60.89118594  301      3.48190271      1.00000000
    -60.891  0.0000E+00  0.0000E+00
    -60.659  0.0000E+00  0.0000E+00
    -60.426  0.0000E+00  0.0000E+00
    -60.194  0.0000E+00  0.0000E+00
    -59.961  0.0000E+00  0.0000E+00
    -59.729  0.0000E+00  0.0000E+00
    -59.496  0.0000E+00  0.0000E+00
    -59.264  0.0000E+00  0.0000E+00
    -59.032  0.0000E+00  0.0000E+00
    -58.799  0.0000E+00  0.0000E+00
    -58.567  0.0000E+00  0.0000E+00
    -58.334  0.0000E+00  0.0000E+00
    -58.102  0.1119E-06  0.2602E-07
    -57.869  0.1263E+00  0.2935E-01
    -57.637  0.4712E+02  0.1098E+02
    -57.404  0.2426E+03  0.6738E+02
    -57.172  0.1985E+03  0.1135E+03
    -56.939  0.3648E+02  0.1220E+03
    -56.707  0.1667E-01  0.1220E+03
    -56.475  0.8373E-09  0.1220E+03
    -56.242  0.0000E+00  0.1220E+03
    -56.010  0.0000E+00  0.1220E+03
    -55.777  0.0000E+00  0.1220E+03
    -55.545  0.0000E+00  0.1220E+03
    -55.312  0.0000E+00  0.1220E+03
    -55.080  0.0000E+00  0.1220E+03
    -54.847  0.0000E+00  0.1220E+03
    -54.615  0.0000E+00  0.1220E+03
    -54.382  0.0000E+00  0.1220E+03
    -54.150  0.0000E+00  0.1220E+03
    -53.917  0.0000E+00  0.1220E+03
    -53.685  0.0000E+00  0.1220E+03
    -53.453  0.0000E+00  0.1220E+03
    -53.220  0.0000E+00  0.1220E+03
    -52.988  0.0000E+00  0.1220E+03
    -52.755  0.0000E+00  0.1220E+03
    -52.523  0.0000E+00  0.1220E+03
    -52.290  0.0000E+00  0.1220E+03
    -52.058  0.5340E-12  0.1220E+03
    -51.825  0.1732E-03  0.1220E+03
    -51.593  0.2489E+01  0.1226E+03
    -51.360  0.1443E+02  0.1259E+03
    -51.128  0.2874E+00  0.1260E+03
    -50.896  0.7827E-06  0.1260E+03
    -50.663  0.0000E+00  0.1260E+03
    -50.431  0.0000E+00  0.1260E+03
    -50.198  0.0000E+00  0.1260E+03
    -49.966  0.0000E+00  0.1260E+03
    -49.733  0.0000E+00  0.1260E+03
    -49.501  0.0000E+00  0.1260E+03
    -49.268  0.0000E+00  0.1260E+03
    -49.036  0.0000E+00  0.1260E+03
    -48.803  0.0000E+00  0.1260E+03
    -48.571  0.0000E+00  0.1260E+03
    -48.339  0.0000E+00  0.1260E+03
    -48.106  0.0000E+00  0.1260E+03
    -47.874  0.0000E+00  0.1260E+03
    -47.641  0.0000E+00  0.1260E+03
    -47.409  0.0000E+00  0.1260E+03
    -47.176  0.0000E+00  0.1260E+03
    -46.944  0.0000E+00  0.1260E+03
    -46.711  0.0000E+00  0.1260E+03
    -46.479  0.0000E+00  0.1260E+03
    -46.246  0.0000E+00  0.1260E+03
    -46.014  0.0000E+00  0.1260E+03
    -45.782  0.0000E+00  0.1260E+03
    -45.549  0.0000E+00  0.1260E+03
    -45.317  0.0000E+00  0.1260E+03
    -45.084  0.0000E+00  0.1260E+03
    -44.852  0.0000E+00  0.1260E+03
    -44.619  0.0000E+00  0.1260E+03
    -44.387  0.0000E+00  0.1260E+03
    -44.154  0.0000E+00  0.1260E+03
    -43.922  0.0000E+00  0.1260E+03
    -43.689  0.0000E+00  0.1260E+03
    -43.457  0.0000E+00  0.1260E+03
    -43.224  0.0000E+00  0.1260E+03
    -42.992  0.0000E+00  0.1260E+03
    -42.760  0.0000E+00  0.1260E+03
    -42.527  0.0000E+00  0.1260E+03
    -42.295  0.0000E+00  0.1260E+03
    -42.062  0.0000E+00  0.1260E+03
    -41.830  0.0000E+00  0.1260E+03
    -41.597  0.0000E+00  0.1260E+03
    -41.365  0.0000E+00  0.1260E+03
    -41.132  0.0000E+00  0.1260E+03
    -40.900  0.0000E+00  0.1260E+03
    -40.667  0.0000E+00  0.1260E+03
    -40.435  0.0000E+00  0.1260E+03
    -40.203  0.0000E+00  0.1260E+03
    -39.970  0.0000E+00  0.1260E+03
    -39.738  0.0000E+00  0.1260E+03
    -39.505  0.0000E+00  0.1260E+03
    -39.273  0.0000E+00  0.1260E+03
    -39.040  0.0000E+00  0.1260E+03
    -38.808  0.0000E+00  0.1260E+03
    -38.575  0.0000E+00  0.1260E+03
    -38.343  0.0000E+00  0.1260E+03
    -38.110  0.0000E+00  0.1260E+03
    -37.878  0.0000E+00  0.1260E+03
    -37.646  0.0000E+00  0.1260E+03
    -37.413  0.0000E+00  0.1260E+03
    -37.181  0.0000E+00  0.1260E+03
    -36.948  0.0000E+00  0.1260E+03
    -36.716  0.0000E+00  0.1260E+03
    -36.483  0.0000E+00  0.1260E+03
    -36.251  0.0000E+00  0.1260E+03
    -36.018  0.0000E+00  0.1260E+03
    -35.786  0.0000E+00  0.1260E+03
    -35.553  0.0000E+00  0.1260E+03
    -35.321  0.0000E+00  0.1260E+03
    -35.089  0.0000E+00  0.1260E+03
    -34.856  0.0000E+00  0.1260E+03
    -34.624  0.0000E+00  0.1260E+03
    -34.391  0.0000E+00  0.1260E+03
    -34.159  0.0000E+00  0.1260E+03
    -33.926  0.0000E+00  0.1260E+03
    -33.694  0.0000E+00  0.1260E+03
    -33.461  0.0000E+00  0.1260E+03
    -33.229  0.0000E+00  0.1260E+03
    -32.996  0.0000E+00  0.1260E+03
    -32.764  0.4721E-08  0.1260E+03
    -32.531  0.3126E-01  0.1260E+03
    -32.299  0.2586E+02  0.1320E+03
    -32.067  0.1823E+03  0.1744E+03
    -31.834  0.2022E+03  0.2214E+03
    -31.602  0.2247E+03  0.2736E+03
    -31.369  0.2797E+03  0.3386E+03
    -31.137  0.3392E+03  0.4175E+03
    -30.904  0.2829E+03  0.4833E+03
    -30.672  0.3757E+02  0.4920E+03
    -30.439  0.4426E-01  0.4920E+03
    -30.207  0.6096E-08  0.4920E+03
    -29.974  0.0000E+00  0.4920E+03
    -29.742  0.0000E+00  0.4920E+03
    -29.510  0.0000E+00  0.4920E+03
    -29.277  0.0000E+00  0.4920E+03
    -29.045  0.0000E+00  0.4920E+03
    -28.812  0.0000E+00  0.4920E+03
    -28.580  0.0000E+00  0.4920E+03
    -28.347  0.0000E+00  0.4920E+03
    -28.115  0.5601E-09  0.4920E+03
    -27.882  0.9515E-02  0.4920E+03
    -27.650  0.9801E+01  0.4943E+03
    -27.417  0.3828E+02  0.5032E+03
    -27.185  0.3534E+01  0.5040E+03
    -26.953  0.1550E-03  0.5040E+03
    -26.720  0.2798E-12  0.5040E+03
    -26.488  0.0000E+00  0.5040E+03
    -26.255  0.0000E+00  0.5040E+03
    -26.023  0.0000E+00  0.5040E+03
    -25.790  0.0000E+00  0.5040E+03
    -25.558  0.0000E+00  0.5040E+03
    -25.325  0.0000E+00  0.5040E+03
    -25.093  0.0000E+00  0.5040E+03
    -24.860  0.0000E+00  0.5040E+03
    -24.628  0.0000E+00  0.5040E+03
    -24.395  0.0000E+00  0.5040E+03
    -24.163  0.0000E+00  0.5040E+03
    -23.931  0.0000E+00  0.5040E+03
    -23.698  0.0000E+00  0.5040E+03
    -23.466  0.0000E+00  0.5040E+03
    -23.233  0.0000E+00  0.5040E+03
    -23.001  0.0000E+00  0.5040E+03
    -22.768  0.0000E+00  0.5040E+03
    -22.536  0.0000E+00  0.5040E+03
    -22.303  0.0000E+00  0.5040E+03
    -22.071  0.0000E+00  0.5040E+03
    -21.838  0.0000E+00  0.5040E+03
    -21.606  0.0000E+00  0.5040E+03
    -21.374  0.0000E+00  0.5040E+03
    -21.141  0.0000E+00  0.5040E+03
    -20.909  0.0000E+00  0.5040E+03
    -20.676  0.0000E+00  0.5040E+03
    -20.444  0.0000E+00  0.5040E+03
    -20.211  0.0000E+00  0.5040E+03
    -19.979  0.0000E+00  0.5040E+03
    -19.746  0.0000E+00  0.5040E+03
    -19.514  0.0000E+00  0.5040E+03
    -19.281  0.0000E+00  0.5040E+03
    -19.049  0.0000E+00  0.5040E+03
    -18.817  0.0000E+00  0.5040E+03
    -18.584  0.0000E+00  0.5040E+03
    -18.352  0.0000E+00  0.5040E+03
    -18.119  0.0000E+00  0.5040E+03
    -17.887  0.0000E+00  0.5040E+03
    -17.654  0.0000E+00  0.5040E+03
    -17.422  0.0000E+00  0.5040E+03
    -17.189  0.0000E+00  0.5040E+03
    -16.957  0.0000E+00  0.5040E+03
    -16.724  0.0000E+00  0.5040E+03
    -16.492  0.0000E+00  0.5040E+03
    -16.260  0.0000E+00  0.5040E+03
    -16.027  0.0000E+00  0.5040E+03
    -15.795  0.0000E+00  0.5040E+03
    -15.562  0.0000E+00  0.5040E+03
    -15.330  0.0000E+00  0.5040E+03
    -15.097  0.0000E+00  0.5040E+03
    -14.865  0.0000E+00  0.5040E+03
    -14.632  0.0000E+00  0.5040E+03
    -14.400  0.0000E+00  0.5040E+03
    -14.167  0.0000E+00  0.5040E+03
    -13.935  0.0000E+00  0.5040E+03
    -13.702  0.0000E+00  0.5040E+03
    -13.470  0.0000E+00  0.5040E+03
    -13.238  0.0000E+00  0.5040E+03
    -13.005  0.0000E+00  0.5040E+03
    -12.773  0.0000E+00  0.5040E+03
    -12.540  0.0000E+00  0.5040E+03
    -12.308  0.0000E+00  0.5040E+03
    -12.075  0.0000E+00  0.5040E+03
    -11.843  0.0000E+00  0.5040E+03
    -11.610  0.0000E+00  0.5040E+03
    -11.378  0.0000E+00  0.5040E+03
    -11.145  0.0000E+00  0.5040E+03
    -10.913  0.0000E+00  0.5040E+03
    -10.681  0.0000E+00  0.5040E+03
    -10.448  0.0000E+00  0.5040E+03
    -10.216  0.0000E+00  0.5040E+03
     -9.983  0.0000E+00  0.5040E+03
     -9.751  0.0000E+00  0.5040E+03
     -9.518  0.0000E+00  0.5040E+03
     -9.286  0.0000E+00  0.5040E+03
     -9.053  0.0000E+00  0.5040E+03
     -8.821  0.0000E+00  0.5040E+03
     -8.588  0.0000E+00  0.5040E+03
     -8.356  0.0000E+00  0.5040E+03
     -8.124  0.0000E+00  0.5040E+03
     -7.891  0.0000E+00  0.5040E+03
     -7.659  0.0000E+00  0.5040E+03
     -7.426  0.0000E+00  0.5040E+03
     -7.194  0.0000E+00  0.5040E+03
     -6.961  0.0000E+00  0.5040E+03
     -6.729  0.0000E+00  0.5040E+03
     -6.496  0.0000E+00  0.5040E+03
     -6.264  0.0000E+00  0.5040E+03
     -6.031  0.0000E+00  0.5040E+03
     -5.799  0.0000E+00  0.5040E+03
     -5.567  0.0000E+00  0.5040E+03
     -5.334  0.0000E+00  0.5040E+03
     -5.102  0.0000E+00  0.5040E+03
     -4.869  0.0000E+00  0.5040E+03
     -4.637  0.0000E+00  0.5040E+03
     -4.404  0.0000E+00  0.5040E+03
     -4.172  0.0000E+00  0.5040E+03
     -3.939  0.0000E+00  0.5040E+03
     -3.707  0.5727E-10  0.5040E+03
     -3.474  0.5871E-03  0.5040E+03
     -3.242  0.3917E+00  0.5041E+03
     -3.009  0.2802E+01  0.5047E+03
     -2.777  0.1977E+01  0.5052E+03
     -2.545  0.4632E+01  0.5063E+03
     -2.312  0.1852E+01  0.5067E+03
     -2.080  0.6538E+01  0.5082E+03
     -1.847  0.7995E+01  0.5101E+03
     -1.615  0.9047E+01  0.5122E+03
     -1.382  0.2201E+02  0.5173E+03
     -1.150  0.4675E+02  0.5282E+03
     -0.917  0.5738E+02  0.5415E+03
     -0.685  0.7527E+02  0.5590E+03
     -0.452  0.5275E+02  0.5713E+03
     -0.220  0.8028E+02  0.5899E+03
      0.012  0.7896E+02  0.6083E+03
      0.245  0.7035E+02  0.6246E+03
      0.477  0.1016E+03  0.6482E+03
      0.710  0.1096E+03  0.6737E+03
      0.942  0.9054E+02  0.6948E+03
      1.175  0.7989E+02  0.7133E+03
      1.407  0.7305E+02  0.7303E+03
      1.640  0.9201E+02  0.7517E+03
      1.872  0.7676E+02  0.7696E+03
      2.105  0.9468E+02  0.7916E+03
      2.337  0.7214E+02  0.8083E+03
      2.569  0.5412E+02  0.8209E+03
      2.802  0.5581E+02  0.8339E+03
      3.034  0.7409E+02  0.8511E+03
      3.267  0.6895E+02  0.8671E+03
      3.499  0.5962E+02  0.8810E+03
      3.732  0.5523E+02  0.8938E+03
      3.964  0.6123E+02  0.9081E+03
      4.197  0.6945E+02  0.9242E+03
      4.429  0.6831E+02  0.9401E+03
      4.662  0.8934E+02  0.9609E+03
      4.894  0.1054E+03  0.9854E+03
      5.126  0.1067E+03  0.1010E+04
      5.359  0.1130E+03  0.1036E+04
      5.591  0.7555E+02  0.1054E+04
      5.824  0.8666E+01  0.1056E+04
      6.056  0.1530E-01  0.1056E+04
      6.289  0.2124E-07  0.1056E+04
      6.521  0.0000E+00  0.1056E+04
      6.754  0.0000E+00  0.1056E+04
      6.986  0.0000E+00  0.1056E+04
      7.219  0.0000E+00  0.1056E+04
      7.451  0.0000E+00  0.1056E+04
      7.684  0.0000E+00  0.1056E+04
      7.916  0.0000E+00  0.1056E+04
      8.148  0.0000E+00  0.1056E+04
      8.381  0.0000E+00  0.1056E+04
      8.613  0.0000E+00  0.1056E+04
      8.846  0.0000E+00  0.1056E+04
