Generated by VASPKIT code
 1.000000
    9.4983997344999995    0.0000000000000000    0.0000000000000000
    0.0000000000000000    9.4983997344999995    0.0000000000000000
    0.0000000000000000    0.0000000000000000   24.5028991699000009
   Mo   Nb
    61     2
Selective Dynamics
Direct
    0.0000000000000000    0.0000000000000000    0.0000000000000000    F  F  F            Mo1
    0.0211040268920211    0.9788882752443142    0.3836770642121225    T  T  T            Mo2
    0.1666700000000034    0.1666700000000034    0.0646399999999971    F  F  F            Mo3
    0.3333299999999966    0.0000000000000000    0.0000000000000000    F  F  F            Mo4
    0.3117405244188972    0.0198876632922500    0.3832098349370781    T  T  T            Mo5
    0.5000000000000000    0.1666700000000034    0.0646399999999971    F  F  F            Mo6
    0.6666700000000034    0.0000000000000000    0.0000000000000000    F  F  F            Mo7
    0.6672340251873479    0.0007615739666462    0.3806626667855215    T  T  T            Mo8
    0.8333299999999966    0.1666700000000034    0.0646399999999971    F  F  F            Mo9
    0.0000000000000000    0.3333299999999966    0.0000000000000000    F  F  F           Mo10
    0.1666700000000034    0.5000000000000000    0.0646399999999971    F  F  F           Mo11
    0.3333299999999966    0.3333299999999966    0.0000000000000000    F  F  F           Mo12
    0.3438447718213317    0.3118019892216597    0.3829789341466058    T  T  T           Mo13
    0.5000000000000000    0.5000000000000000    0.0646399999999971    F  F  F           Mo14
    0.6666700000000034    0.3333299999999966    0.0000000000000000    F  F  F           Mo15
    0.8333299999999966    0.5000000000000000    0.0646399999999971    F  F  F           Mo16
    0.0000000000000000    0.6666700000000034    0.0000000000000000    F  F  F           Mo17
    0.9801003130881061    0.6882520138403243    0.3832103067934709    T  T  T           Mo18
    0.1666700000000034    0.8333299999999966    0.0646399999999971    F  F  F           Mo19
    0.3333299999999966    0.6666700000000034    0.0000000000000000    F  F  F           Mo20
    0.5000000000000000    0.8333299999999966    0.0646399999999971    F  F  F           Mo21
    0.6666700000000034    0.6666700000000034    0.0000000000000000    F  F  F           Mo22
    0.6881826484193017    0.6561467597913713    0.3829785718576747    T  T  T           Mo23
    0.8333299999999966    0.8333299999999966    0.0646399999999971    F  F  F           Mo24
    0.0000000000000000    0.0000000000000000    0.1292800000000014    F  F  F           Mo25
    0.1666700000000034    0.1666700000000034    0.1939100000000025    F  F  F           Mo26
    0.3333299999999966    0.0000000000000000    0.1292800000000014    F  F  F           Mo27
    0.5000000000000000    0.1666700000000034    0.1939100000000025    F  F  F           Mo28
    0.6666700000000034    0.0000000000000000    0.1292800000000014    F  F  F           Mo29
    0.8333299999999966    0.1666700000000034    0.1939100000000025    F  F  F           Mo30
    0.0000000000000000    0.3333299999999966    0.1292800000000014    F  F  F           Mo31
    0.1666700000000034    0.5000000000000000    0.1939100000000025    F  F  F           Mo32
    0.3333299999999966    0.3333299999999966    0.1292800000000014    F  F  F           Mo33
    0.5000000000000000    0.5000000000000000    0.1939100000000025    F  F  F           Mo34
    0.6666700000000034    0.3333299999999966    0.1292800000000014    F  F  F           Mo35
    0.8333299999999966    0.5000000000000000    0.1939100000000025    F  F  F           Mo36
    0.0000000000000000    0.6666700000000034    0.1292800000000014    F  F  F           Mo37
    0.1666700000000034    0.8333299999999966    0.1939100000000025    F  F  F           Mo38
    0.3333299999999966    0.6666700000000034    0.1292800000000014    F  F  F           Mo39
    0.5000000000000000    0.8333299999999966    0.1939100000000025    F  F  F           Mo40
    0.6666700000000034    0.6666700000000034    0.1292800000000014    F  F  F           Mo41
    0.8333299999999966    0.8333299999999966    0.1939100000000025    F  F  F           Mo42
    0.0000000000000000    0.0000000000000000    0.2585499999999996    F  F  F           Mo43
    0.1626615349242046    0.1695683369770222    0.3232120377072411    T  T  T           Mo44
    0.3333299999999966    0.0000000000000000    0.2585499999999996    F  F  F           Mo45
    0.5017600686844000    0.1641952854336355    0.3237338021776958    T  T  T           Mo46
    0.6666700000000034    0.0000000000000000    0.2585499999999996    F  F  F           Mo47
    0.8330038076981001    0.1669975274122852    0.3250021858347127    T  T  T           Mo48
    0.0000000000000000    0.3333299999999966    0.2585499999999996    F  F  F           Mo49
    0.1661912629937813    0.4996065277082675    0.3246681254510460    T  T  T           Mo50
    0.3333299999999966    0.3333299999999966    0.2585499999999996    F  F  F           Mo51
    0.4990504973579643    0.5009471405036199    0.3206796777276928    T  T  T           Mo52
    0.6666700000000034    0.3333299999999966    0.2585499999999996    F  F  F           Mo53
    0.8358031081390203    0.4982394761738881    0.3237336854475321    T  T  T           Mo54
    0.0000000000000000    0.6666700000000034    0.2585499999999996    F  F  F           Mo55
    0.1686191149764792    0.8313778067082361    0.3225940455190290    T  T  T           Mo56
    0.3333299999999966    0.6666700000000034    0.2585499999999996    F  F  F           Mo57
    0.5003937935451391    0.8338090941909286    0.3246682553840957    T  T  T           Mo58
    0.6666700000000034    0.6666700000000034    0.2585499999999996    F  F  F           Mo59
    0.8304309975073454    0.8373367376544244    0.3232117685667942    T  T  T           Mo60
    0.9992527785620161    0.3327831872793351    0.3806628730461301    T  T  T           Mo61
    0.6518790972817681    0.3481147067310849    0.3880580992624091    T  T  T            Nb1
    0.3425581705197852    0.6574517569677296    0.3873909079009469    T  T  T            Nb2
