srun: ROUTE: split_hostlist: hl=f12r4n14 tree_width 0
 running on    4 total cores
 distrk:  each k-point on    1 cores,    4 groups
 distr:  one band on    1 cores,    1 groups
 HIP runtime initialized ...    4 DCUs will be used
 Created    4 streams on each DCU
 vasp.6.3.2 27Jun22 (build Mar 15 2023 15:45:48) complex                        
  
 POSCAR found type information on POSCAR MoNb
 POSCAR found :  2 types and      63 ions
 Reading from existing POTCAR
 scaLAPACK will be used selectively (only on CPU)
 Reading from existing POTCAR
 LDA part: xc-table for Pade appr. of Perdew
 POSCAR found type information on POSCAR MoNb
 POSCAR found :  2 types and      63 ions
 Optimize memory usage for KPAR
 POSCAR, INCAR and KPOINTS ok, starting setup
 FFT: planning ... GRIDC
 FFT: planning ... GRID_SOFT
 FFT: planning ... GRID
 WAVECAR not read
 entering main loop
       N       E                     dE             d eps       ncg     rms          rms(c)
DAV:   1     0.108756297000E+05    0.10876E+05   -0.56024E+05 12800   0.160E+03
DAV:   2    -0.142436726082E+03   -0.11018E+05   -0.10678E+05 11704   0.508E+02
DAV:   3    -0.672054530896E+03   -0.52962E+03   -0.49702E+03 15224   0.109E+02
DAV:   4    -0.707168822358E+03   -0.35114E+02   -0.33562E+02 14656   0.216E+01
DAV:   5    -0.710835711258E+03   -0.36669E+01   -0.35853E+01 20280   0.599E+00    0.103E+02
DAV:   6    -0.712127482355E+03   -0.12918E+01   -0.40511E+02 14280   0.285E+01    0.629E+01
DAV:   7    -0.744901377596E+03   -0.32774E+02   -0.86544E+02 13280   0.404E+01    0.526E+01
DAV:   8    -0.664329581271E+03    0.80572E+02   -0.18911E+02 13824   0.225E+01    0.260E+01
DAV:   9    -0.653546238942E+03    0.10783E+02   -0.33657E+01 14112   0.954E+00    0.146E+01
DAV:  10    -0.652967147399E+03    0.57909E+00   -0.59119E+00 15432   0.296E+00    0.114E+01
DAV:  11    -0.652859159477E+03    0.10799E+00   -0.93564E-01 14080   0.202E+00    0.106E+01
DAV:  12    -0.652400181397E+03    0.45898E+00   -0.13673E+00 13624   0.245E+00    0.846E+00
DAV:  13    -0.651589437495E+03    0.81074E+00   -0.29550E+00 12920   0.292E+00    0.535E+00
DAV:  14    -0.651490583928E+03    0.98854E-01   -0.14125E+00 15200   0.260E+00    0.405E+00
DAV:  15    -0.651376744772E+03    0.11384E+00   -0.65792E-01 13712   0.164E+00    0.310E+00
DAV:  16    -0.651261946928E+03    0.11480E+00   -0.25438E-01 14560   0.116E+00    0.194E+00
DAV:  17    -0.651217511732E+03    0.44435E-01   -0.13641E-01 13976   0.804E-01    0.121E+00
DAV:  18    -0.651172831223E+03    0.44681E-01   -0.51470E-02 12928   0.507E-01    0.659E-01
DAV:  19    -0.651139711503E+03    0.33120E-01   -0.34124E-02 13976   0.398E-01    0.772E-01
DAV:  20    -0.651074517441E+03    0.65194E-01   -0.41563E-02 13672   0.408E-01    0.749E-01
DAV:  21    -0.651020604697E+03    0.53913E-01   -0.42455E-02 14096   0.424E-01    0.806E-01
DAV:  22    -0.650976560869E+03    0.44044E-01   -0.38039E-02 13512   0.399E-01    0.752E-01
DAV:  23    -0.650945426738E+03    0.31134E-01   -0.22818E-02 14360   0.301E-01    0.602E-01
DAV:  24    -0.650893101520E+03    0.52325E-01   -0.32112E-02 11672   0.298E-01    0.309E-01
DAV:  25    -0.650885335164E+03    0.77664E-02   -0.15769E-02 14144   0.259E-01    0.369E-01
DAV:  26    -0.650893428709E+03   -0.80935E-02   -0.90954E-03 13496   0.189E-01    0.299E-01
DAV:  27    -0.650911453981E+03   -0.18025E-01   -0.74526E-03 13432   0.159E-01    0.218E-01
DAV:  28    -0.650925400705E+03   -0.13947E-01   -0.58822E-03 13520   0.148E-01    0.177E-01
DAV:  29    -0.650943503115E+03   -0.18102E-01   -0.68183E-03 13264   0.127E-01    0.165E-01
DAV:  30    -0.650949673782E+03   -0.61707E-02   -0.21004E-03 14056   0.868E-02    0.129E-01
DAV:  31    -0.650957337996E+03   -0.76642E-02   -0.20864E-03 13288   0.702E-02    0.717E-02
DAV:  32    -0.650961393948E+03   -0.40560E-02   -0.77450E-04 13896   0.468E-02    0.353E-02
DAV:  33    -0.650963460359E+03   -0.20664E-02   -0.35934E-04 13168   0.232E-02    0.268E-02
DAV:  34    -0.650964471717E+03   -0.10114E-02   -0.16418E-04 12912   0.187E-02    0.164E-02
DAV:  35    -0.650964969920E+03   -0.49820E-03   -0.62875E-05 11352   0.106E-02    0.109E-02
DAV:  36    -0.650965529351E+03   -0.55943E-03   -0.85484E-05 10408   0.802E-03    0.813E-03
DAV:  37    -0.650965778302E+03   -0.24895E-03   -0.34369E-05 10568   0.677E-03    0.849E-03
DAV:  38    -0.650965936149E+03   -0.15785E-03   -0.19978E-05  9680   0.488E-03    0.288E-03
DAV:  39    -0.650965968178E+03   -0.32029E-04   -0.25025E-06  8592   0.238E-03    0.212E-03
DAV:  40    -0.650965993758E+03   -0.25580E-04   -0.15216E-06  7944   0.176E-03    0.190E-03
DAV:  41    -0.650966020415E+03   -0.26657E-04   -0.25499E-06  8240   0.146E-03    0.158E-03
DAV:  42    -0.650966031806E+03   -0.11390E-04   -0.11239E-06  7920   0.106E-03    0.132E-03
DAV:  43    -0.650966039682E+03   -0.78765E-05   -0.99490E-07  7976   0.100E-03    0.918E-04
DAV:  44    -0.650966043430E+03   -0.37483E-05   -0.35634E-07  7488   0.852E-04    0.768E-04
DAV:  45    -0.650966046870E+03   -0.34398E-05   -0.56898E-07  7736   0.719E-04    0.761E-04
DAV:  46    -0.650966048638E+03   -0.17681E-05   -0.22937E-07  7104   0.652E-04    0.718E-04
DAV:  47    -0.650966050430E+03   -0.17918E-05   -0.31331E-07  7448   0.553E-04    0.453E-04
DAV:  48    -0.650966051568E+03   -0.11379E-05   -0.12456E-07  6528   0.496E-04    0.222E-04
DAV:  49    -0.650966052466E+03   -0.89771E-06   -0.12371E-07  7008   0.342E-04
   1 F= -.65096605E+03 E0= -.65082265E+03  d E =-.286811E+00
 writing wavefunctions
 PROFILE, used timers:     226
