<?xml version="1.0" encoding="ISO-8859-1"?>
<modeling>
 <generator>
  <i name="program" type="string">vasp </i>
  <i name="version" type="string">6.3.2  </i>
  <i name="subversion" type="string">27Jun22 (build Mar 15 2023 15:45:48) complex                          parallel </i>
  <i name="platform" type="string">LinuxIFC </i>
  <i name="date" type="string">2025 09 05 </i>
  <i name="time" type="string">17:02:18 </i>
 </generator>
 <incar>
  <i type="string" name="SYSTEM">ni3al</i>
  <i type="int" name="ISTART">     0</i>
  <i type="string" name="PREC">Accurate</i>
  <i type="string" name="ALGO">Normal</i>
  <i name="AMIN">      0.01000000</i>
  <i type="int" name="ICHARG">     2</i>
  <i type="int" name="NELM">   150</i>
  <i type="int" name="IBRION">    -1</i>
  <i name="EDIFF">      0.00000100</i>
  <i type="int" name="NSW">     0</i>
  <i type="int" name="ISIF">     2</i>
  <i name="ENCUT">    530.00000000</i>
  <i type="string" name="LREAL">Auto</i>
  <i type="int" name="ISMEAR">     0</i>
  <i name="SIGMA">      0.10000000</i>
  <i type="int" name="LMAXMIX">     4</i>
  <i type="logical" name="LWAVE"> T  </i>
  <i type="logical" name="LCHARG"> T  </i>
 </incar>
 <primitive_cell>
  <structure name="primitive_cell" >
   <crystal>
    <varray name="basis" >
     <v>       9.49839973       0.00000000       0.00000000 </v>
     <v>       0.00000000       9.49839973       0.00000000 </v>
     <v>       0.00000000       0.00000000      24.50289917 </v>
    </varray>
    <i name="volume">   2210.64170109 </i>
    <varray name="rec_basis" >
     <v>       0.10528089       0.00000000       0.00000000 </v>
     <v>       0.00000000       0.10528089       0.00000000 </v>
     <v>       0.00000000       0.00000000       0.04081150 </v>
    </varray>
   </crystal>
   <varray name="positions" >
    <v>       0.00000000       0.00000000       0.00000000 </v>
    <v>       0.02110403       0.97888828       0.38367706 </v>
    <v>       0.16667000       0.16667000       0.06464000 </v>
    <v>       0.33333000       0.00000000       0.00000000 </v>
    <v>       0.31174052       0.01988766       0.38320983 </v>
    <v>       0.50000000       0.16667000       0.06464000 </v>
    <v>       0.66667000       0.00000000       0.00000000 </v>
    <v>       0.66723403       0.00076157       0.38066267 </v>
    <v>       0.83333000       0.16667000       0.06464000 </v>
    <v>       0.00000000       0.33333000       0.00000000 </v>
    <v>       0.16667000       0.50000000       0.06464000 </v>
    <v>       0.33333000       0.33333000       0.00000000 </v>
    <v>       0.34384477       0.31180199       0.38297893 </v>
    <v>       0.50000000       0.50000000       0.06464000 </v>
    <v>       0.66667000       0.33333000       0.00000000 </v>
    <v>       0.83333000       0.50000000       0.06464000 </v>
    <v>       0.00000000       0.66667000       0.00000000 </v>
    <v>       0.98010031       0.68825201       0.38321031 </v>
    <v>       0.16667000       0.83333000       0.06464000 </v>
    <v>       0.33333000       0.66667000       0.00000000 </v>
    <v>       0.50000000       0.83333000       0.06464000 </v>
    <v>       0.66667000       0.66667000       0.00000000 </v>
    <v>       0.68818265       0.65614676       0.38297857 </v>
    <v>       0.83333000       0.83333000       0.06464000 </v>
    <v>       0.00000000       0.00000000       0.12928000 </v>
    <v>       0.16667000       0.16667000       0.19391000 </v>
    <v>       0.33333000       0.00000000       0.12928000 </v>
    <v>       0.50000000       0.16667000       0.19391000 </v>
    <v>       0.66667000       0.00000000       0.12928000 </v>
    <v>       0.83333000       0.16667000       0.19391000 </v>
    <v>       0.00000000       0.33333000       0.12928000 </v>
    <v>       0.16667000       0.50000000       0.19391000 </v>
    <v>       0.33333000       0.33333000       0.12928000 </v>
    <v>       0.50000000       0.50000000       0.19391000 </v>
    <v>       0.66667000       0.33333000       0.12928000 </v>
    <v>       0.83333000       0.50000000       0.19391000 </v>
    <v>       0.00000000       0.66667000       0.12928000 </v>
    <v>       0.16667000       0.83333000       0.19391000 </v>
    <v>       0.33333000       0.66667000       0.12928000 </v>
    <v>       0.50000000       0.83333000       0.19391000 </v>
    <v>       0.66667000       0.66667000       0.12928000 </v>
    <v>       0.83333000       0.83333000       0.19391000 </v>
    <v>       0.00000000       0.00000000       0.25855000 </v>
    <v>       0.16266153       0.16956834       0.32321204 </v>
    <v>       0.33333000       0.00000000       0.25855000 </v>
    <v>       0.50176007       0.16419529       0.32373380 </v>
    <v>       0.66667000       0.00000000       0.25855000 </v>
    <v>       0.83300381       0.16699753       0.32500219 </v>
    <v>       0.00000000       0.33333000       0.25855000 </v>
    <v>       0.16619126       0.49960653       0.32466813 </v>
    <v>       0.33333000       0.33333000       0.25855000 </v>
    <v>       0.49905050       0.50094714       0.32067968 </v>
    <v>       0.66667000       0.33333000       0.25855000 </v>
    <v>       0.83580311       0.49823948       0.32373369 </v>
    <v>       0.00000000       0.66667000       0.25855000 </v>
    <v>       0.16861911       0.83137781       0.32259405 </v>
    <v>       0.33333000       0.66667000       0.25855000 </v>
    <v>       0.50039379       0.83380909       0.32466826 </v>
    <v>       0.66667000       0.66667000       0.25855000 </v>
    <v>       0.83043100       0.83733674       0.32321177 </v>
    <v>       0.99925278       0.33278319       0.38066287 </v>
    <v>       0.65187910       0.34811471       0.38805810 </v>
    <v>       0.34255817       0.65745176       0.38739091 </v>
   </varray>
  </structure>
  <varray name="primitive_index" >
   <v type="int" >        1 </v>
   <v type="int" >        2 </v>
   <v type="int" >        3 </v>
   <v type="int" >        4 </v>
   <v type="int" >        5 </v>
   <v type="int" >        6 </v>
   <v type="int" >        7 </v>
   <v type="int" >        8 </v>
   <v type="int" >        9 </v>
   <v type="int" >       10 </v>
   <v type="int" >       11 </v>
   <v type="int" >       12 </v>
   <v type="int" >       13 </v>
   <v type="int" >       14 </v>
   <v type="int" >       15 </v>
   <v type="int" >       16 </v>
   <v type="int" >       17 </v>
   <v type="int" >       18 </v>
   <v type="int" >       19 </v>
   <v type="int" >       20 </v>
   <v type="int" >       21 </v>
   <v type="int" >       22 </v>
   <v type="int" >       23 </v>
   <v type="int" >       24 </v>
   <v type="int" >       25 </v>
   <v type="int" >       26 </v>
   <v type="int" >       27 </v>
   <v type="int" >       28 </v>
   <v type="int" >       29 </v>
   <v type="int" >       30 </v>
   <v type="int" >       31 </v>
   <v type="int" >       32 </v>
   <v type="int" >       33 </v>
   <v type="int" >       34 </v>
   <v type="int" >       35 </v>
   <v type="int" >       36 </v>
   <v type="int" >       37 </v>
   <v type="int" >       38 </v>
   <v type="int" >       39 </v>
   <v type="int" >       40 </v>
   <v type="int" >       41 </v>
   <v type="int" >       42 </v>
   <v type="int" >       43 </v>
   <v type="int" >       44 </v>
   <v type="int" >       45 </v>
   <v type="int" >       46 </v>
   <v type="int" >       47 </v>
   <v type="int" >       48 </v>
   <v type="int" >       49 </v>
   <v type="int" >       50 </v>
   <v type="int" >       51 </v>
   <v type="int" >       52 </v>
   <v type="int" >       53 </v>
   <v type="int" >       54 </v>
   <v type="int" >       55 </v>
   <v type="int" >       56 </v>
   <v type="int" >       57 </v>
   <v type="int" >       58 </v>
   <v type="int" >       59 </v>
   <v type="int" >       60 </v>
   <v type="int" >       61 </v>
   <v type="int" >       62 </v>
   <v type="int" >       63 </v>
  </varray>
 </primitive_cell>
 <kpoints>
  <generation param="Gamma">
   <v type="int" name="divisions">       4        4        1 </v>
   <v name="usershift">      0.00000000       0.00000000       0.00000000 </v>
   <v name="genvec1">      0.25000000       0.00000000       0.00000000 </v>
   <v name="genvec2">      0.00000000       0.25000000       0.00000000 </v>
   <v name="genvec3">      0.00000000       0.00000000       1.00000000 </v>
   <v name="shift">      0.00000000       0.00000000       0.00000000 </v>
  </generation>
  <varray name="kpointlist" >
   <v>       0.00000000       0.00000000       0.00000000 </v>
   <v>       0.25000000       0.00000000       0.00000000 </v>
   <v>       0.00000000       0.25000000       0.00000000 </v>
   <v>       0.50000000       0.00000000       0.00000000 </v>
   <v>       0.00000000       0.50000000       0.00000000 </v>
   <v>       0.25000000       0.25000000       0.00000000 </v>
   <v>      -0.25000000       0.25000000       0.00000000 </v>
   <v>       0.50000000       0.25000000       0.00000000 </v>
   <v>      -0.25000000       0.50000000       0.00000000 </v>
   <v>       0.50000000       0.50000000       0.00000000 </v>
  </varray>
  <varray name="weights" >
   <v>       0.06250000 </v>
   <v>       0.12500000 </v>
   <v>       0.12500000 </v>
   <v>       0.06250000 </v>
   <v>       0.06250000 </v>
   <v>       0.12500000 </v>
   <v>       0.12500000 </v>
   <v>       0.12500000 </v>
   <v>       0.12500000 </v>
   <v>       0.06250000 </v>
  </varray>
 </kpoints>
 <parameters>
  <separator name="general" >
   <i type="string" name="SYSTEM">ni3al</i>
   <i type="logical" name="LCOMPAT"> F  </i>
  </separator>
  <separator name="electronic" >
   <i type="string" name="PREC">accura</i>
   <i name="ENMAX">    530.00000000</i>
   <i name="ENAUG">    455.65900000</i>
   <i name="EDIFF">      0.00000100</i>
   <i type="int" name="IALGO">    38</i>
   <i type="int" name="IWAVPR">    10</i>
   <i type="int" name="NBANDS">   528</i>
   <i type="int" name="NBANDSLOW">    -1</i>
   <i type="int" name="NBANDSHIGH">    -1</i>
   <i name="NELECT">    880.00000000</i>
   <i type="int" name="TURBO">     0</i>
   <i type="int" name="IRESTART">     0</i>
   <i type="int" name="NREBOOT">     0</i>
   <i type="int" name="NMIN">     0</i>
   <i name="EREF">      0.00000000</i>
   <separator name="electronic smearing" >
    <i type="int" name="ISMEAR">     0</i>
    <i name="SIGMA">      0.10000000</i>
    <i name="KSPACING">      0.50000000</i>
    <i type="logical" name="KGAMMA"> T  </i>
    <i type="logical" name="KBLOWUP"> T  </i>
   </separator>
   <separator name="electronic projectors" >
    <i type="logical" name="LREAL"> T  </i>
    <v name="ROPT">     -0.00025000     -0.00025000</v>
    <i type="int" name="LMAXPAW">  -100</i>
    <i type="int" name="LMAXMIX">     4</i>
    <i type="logical" name="NLSPLINE"> F  </i>
   </separator>
   <separator name="electronic startup" >
    <i type="int" name="ISTART">     0</i>
    <i type="int" name="ICHARG">     2</i>
    <i type="int" name="INIWAV">     1</i>
   </separator>
   <separator name="electronic spin" >
    <i type="int" name="ISPIN">     1</i>
    <i type="logical" name="LNONCOLLINEAR"> F  </i>
    <v name="MAGMOM">      1.00000000      1.00000000      1.00000000      1.00000000      1.00000000      1.00000000      1.00000000      1.00000000      1.00000000      1.00000000      1.00000000      1.00000000      1.00000000      1.00000000      1.00000000      1.00000000      1.00000000      1.00000000      1.00000000      1.00000000
      1.00000000      1.00000000      1.00000000      1.00000000      1.00000000      1.00000000      1.00000000      1.00000000      1.00000000      1.00000000      1.00000000      1.00000000      1.00000000      1.00000000      1.00000000      1.00000000      1.00000000      1.00000000      1.00000000      1.00000000
      1.00000000      1.00000000      1.00000000      1.00000000      1.00000000      1.00000000      1.00000000      1.00000000      1.00000000      1.00000000      1.00000000      1.00000000      1.00000000      1.00000000      1.00000000      1.00000000      1.00000000      1.00000000      1.00000000      1.00000000
      1.00000000      1.00000000      1.00000000</v>
    <i name="NUPDOWN">     -1.00000000</i>
    <i type="logical" name="LSORBIT"> F  </i>
    <v name="SAXIS">      0.00000000      0.00000000      1.00000000</v>
    <i type="logical" name="LSPIRAL"> F  </i>
    <v name="QSPIRAL">      0.00000000      0.00000000      0.00000000</v>
    <i type="logical" name="LZEROZ"> F  </i>
   </separator>
   <separator name="electronic exchange-correlation" >
    <i type="logical" name="LASPH"> F  </i>
    <i type="logical" name="LMETAGGA"> F  </i>
   </separator>
   <separator name="electronic convergence" >
    <i type="int" name="NELM">   150</i>
    <i type="int" name="NELMDL">    -5</i>
    <i type="int" name="NELMIN">     2</i>
    <i name="ENINI">    530.00000000</i>
    <separator name="electronic convergence detail" >
     <i type="logical" name="LDIAG"> T  </i>
     <i type="logical" name="LSUBROT"> F  </i>
     <i name="WEIMIN">      0.00000000</i>
     <i name="EBREAK">      0.00000000</i>
     <i name="DEPER">      0.30000000</i>
     <i type="int" name="NRMM">     4</i>
     <i name="TIME">      0.40000000</i>
    </separator>
   </separator>
   <separator name="electronic mixer" >
    <i name="AMIX">      0.40000000</i>
    <i name="BMIX">      1.00000000</i>
    <i name="AMIN">      0.01000000</i>
    <i name="AMIX_MAG">      1.60000000</i>
    <i name="BMIX_MAG">      1.00000000</i>
    <separator name="electronic mixer details" >
     <i type="int" name="IMIX">     4</i>
     <i type="logical" name="MIXFIRST"> F  </i>
     <i type="int" name="MAXMIX">   -45</i>
     <i name="WC">    100.00000000</i>
     <i type="int" name="INIMIX">     1</i>
     <i type="int" name="MIXPRE">     1</i>
     <i type="int" name="MREMOVE">     5</i>
    </separator>
   </separator>
   <separator name="electronic dipolcorrection" >
    <i type="logical" name="LDIPOL"> F  </i>
    <i type="logical" name="LMONO"> F  </i>
    <i type="int" name="IDIPOL">     0</i>
    <i name="EPSILON">      1.00000000</i>
    <v name="DIPOL">   -100.00000000   -100.00000000   -100.00000000</v>
    <i name="EFIELD">      0.00000000</i>
   </separator>
  </separator>
  <separator name="grids" >
   <i type="int" name="NGX">    72</i>
   <i type="int" name="NGY">    72</i>
   <i type="int" name="NGZ">   192</i>
   <i type="int" name="NGXF">   144</i>
   <i type="int" name="NGYF">   144</i>
   <i type="int" name="NGZF">   384</i>
   <i type="logical" name="ADDGRID"> F  </i>
  </separator>
  <separator name="ionic" >
   <i type="int" name="NSW">     0</i>
   <i type="int" name="IBRION">    -1</i>
   <i type="int" name="MDALGO">     0</i>
   <i type="int" name="ISIF">     2</i>
   <i name="PSTRESS">      0.00000000</i>
   <i name="EDIFFG">      0.00001000</i>
   <i type="int" name="NFREE">     0</i>
   <i name="POTIM">      0.50000000</i>
   <i name="SMASS">     -3.00000000</i>
   <i name="SCALEE">      1.00000000</i>
  </separator>
  <separator name="ionic md" >
   <i name="TEBEG">      0.00010000</i>
   <i name="TEEND">      0.00010000</i>
   <i type="int" name="NBLOCK">     1</i>
   <i type="int" name="KBLOCK">     1</i>
   <i type="int" name="NPACO">   256</i>
   <i name="APACO">     10.00000000</i>
  </separator>
  <separator name="symmetry" >
   <i type="int" name="ISYM">     2</i>
   <i name="SYMPREC">      0.00001000</i>
  </separator>
  <separator name="dos" >
   <i type="int" name="LORBIT">     0</i>
   <v name="RWIGS">     -1.00000000     -1.00000000</v>
   <i type="int" name="NEDOS">   301</i>
   <i name="EMIN">     10.00000000</i>
   <i name="EMAX">    -10.00000000</i>
   <i name="EFERMI">      0.00000000</i>
  </separator>
  <separator name="writing" >
   <i type="int" name="NWRITE">     2</i>
   <i type="logical" name="LWAVE"> T  </i>
   <i type="logical" name="LDOWNSAMPLE"> F  </i>
   <i type="logical" name="LCHARG"> T  </i>
   <i type="logical" name="LPARD"> F  </i>
   <i type="logical" name="LVTOT"> F  </i>
   <i type="logical" name="LVHAR"> F  </i>
   <i type="logical" name="LELF"> F  </i>
   <i type="logical" name="LOPTICS"> F  </i>
   <v name="STM">      0.00000000      0.00000000      0.00000000      0.00000000      0.00000000      0.00000000      0.00000000</v>
  </separator>
  <separator name="performance" >
   <i type="int" name="NPAR">     1</i>
   <i type="int" name="NSIM">     4</i>
   <i type="int" name="NBLK">    -1</i>
   <i type="logical" name="LPLANE"> T  </i>
   <i type="logical" name="LSCALAPACK"> T  </i>
   <i type="logical" name="LSCAAWARE"> F  </i>
   <i type="logical" name="LSCALU"> F  </i>
   <i type="logical" name="LASYNC"> F  </i>
   <i type="logical" name="LORBITALREAL"> F  </i>
  </separator>
  <separator name="miscellaneous" >
   <i type="int" name="IDIOT">     3</i>
   <i type="int" name="PHON_NSTRUCT">    -1</i>
   <i type="logical" name="LMUSIC"> F  </i>
   <v name="POMASS">     95.94000000     92.91000000</v>
   <v name="DARWINR">      0.00000000      0.00000000</v>
   <v name="DARWINV">      1.00000000      1.00000000</v>
   <i type="logical" name="LCORR"> T  </i>
  </separator>
  <i type="logical" name="GGA_COMPAT"> T  </i>
  <i type="logical" name="LBERRY"> F  </i>
  <i type="int" name="ICORELEVEL">     0</i>
  <i type="logical" name="LDAU"> F  </i>
  <i type="int" name="I_CONSTRAINED_M">     0</i>
  <separator name="electronic exchange-correlation" >
   <i type="string" name="GGA">--</i>
   <i type="int" name="VOSKOWN">     0</i>
   <i type="logical" name="LHFCALC"> F  </i>
   <i type="string" name="PRECFOCK"></i>
   <i type="logical" name="LSYMGRAD"> F  </i>
   <i type="logical" name="LHFONE"> F  </i>
   <i type="logical" name="LRHFCALC"> F  </i>
   <i type="logical" name="LTHOMAS"> F  </i>
   <i type="logical" name="LMODELHF"> F  </i>
   <i type="logical" name="LFOCKACE"> F  </i>
   <i name="ENCUT4O">     -1.00000000</i>
   <i type="int" name="EXXOEP">     0</i>
   <i type="int" name="FOURORBIT">     0</i>
   <i name="AEXX">      0.00000000</i>
   <i name="HFALPHA">      0.00000000</i>
   <i name="MCALPHA">      0.00000000</i>
   <i name="ALDAX">      1.00000000</i>
   <i name="AGGAX">      1.00000000</i>
   <i name="ALDAC">      1.00000000</i>
   <i name="AGGAC">      1.00000000</i>
   <i type="int" name="NKREDX">     1</i>
   <i type="int" name="NKREDY">     1</i>
   <i type="int" name="NKREDZ">     1</i>
   <i type="logical" name="SHIFTRED"> F  </i>
   <i type="logical" name="ODDONLY"> F  </i>
   <i type="logical" name="EVENONLY"> F  </i>
   <i type="int" name="LMAXFOCK">     0</i>
   <i type="int" name="NMAXFOCKAE">     0</i>
   <i type="logical" name="LFOCKAEDFT"> F  </i>
   <i name="HFSCREEN">      0.00000000</i>
   <i name="HFSCREENC">      0.00000000</i>
   <i type="int" name="NBANDSGWLOW">     0</i>
  </separator>
  <separator name="vdW DFT" >
   <i type="logical" name="LUSE_VDW"> F  </i>
   <i name="Zab_VDW">     -0.84910000</i>
   <i name="PARAM1">      0.12340000</i>
   <i name="PARAM2">      1.00000000</i>
   <i name="PARAM3">      0.00000000</i>
  </separator>
  <separator name="model GW" >
   <i type="int" name="MODEL_GW">     0</i>
   <i name="MODEL_EPS0">     21.05373049</i>
   <i name="MODEL_ALPHA">      1.00000000</i>
  </separator>
  <separator name="linear response parameters" >
   <i type="logical" name="LEPSILON"> F  </i>
   <i type="logical" name="LRPA"> F  </i>
   <i type="logical" name="LNABLA"> F  </i>
   <i type="logical" name="LVEL"> F  </i>
   <i name="CSHIFT">      0.10000000</i>
   <i name="OMEGAMAX">     -1.00000000</i>
   <i name="DEG_THRESHOLD">      0.00200000</i>
   <i name="RTIME">     -0.10000000</i>
   <i name="WPLASMAI">      0.00000000</i>
   <v name="DFIELD">      0.00000000      0.00000000      0.00000000</v>
   <v name="WPLASMA">      0.00000000      0.00000000      0.00000000      0.00000000      0.00000000      0.00000000      0.00000000      0.00000000      0.00000000</v>
  </separator>
  <separator name="orbital magnetization" >
   <i type="logical" name="NUCIND"> F  </i>
   <v name="MAGPOS">      0.00000000      0.00000000      0.00000000</v>
   <i type="logical" name="LNICSALL"> T  </i>
   <i type="logical" name="ORBITALMAG"> F  </i>
   <i type="logical" name="LMAGBLOCH"> F  </i>
   <i type="logical" name="LCHIMAG"> F  </i>
   <i type="logical" name="LGAUGE"> T  </i>
   <i type="int" name="MAGATOM">     0</i>
   <v name="MAGDIPOL">      0.00000000      0.00000000      0.00000000</v>
   <v name="AVECCONST">      0.00000000      0.00000000      0.00000000</v>
  </separator>
  <separator name="response functions" >
   <i type="logical" name="LFINITE_TEMPERATURE"> F  </i>
   <i type="logical" name="LADDER"> F  </i>
   <i type="logical" name="LRPAFORCE"> F  </i>
   <i type="logical" name="LFXC"> F  </i>
   <i type="logical" name="LHARTREE"> T  </i>
   <i type="int" name="IBSE">     0</i>
   <v type="int" name="KPOINT">    -1     0     0     0</v>
   <i type="logical" name="LTCTC"> F  </i>
   <i type="logical" name="LTCTE"> F  </i>
   <i type="logical" name="LTETE"> F  </i>
   <i type="logical" name="LTRIPLET"> F  </i>
   <i type="logical" name="LFXCEPS"> F  </i>
   <i type="logical" name="LFXHEG"> F  </i>
   <i type="int" name="NATURALO">     2</i>
   <i type="logical" name="LHOLEGF"> F  </i>
   <i type="logical" name="L2ORDER"> F  </i>
   <i type="logical" name="LDMP1"> F  </i>
   <i type="logical" name="LMP2LT"> F  </i>
   <i type="logical" name="LSMP2LT"> F  </i>
   <i type="logical" name="LGWLF"> F  </i>
   <i name="ENCUTGW">     -2.00000000</i>
   <i name="ENCUTGWSOFT">     -2.00000000</i>
   <i name="ENCUTLF">     -1.00000000</i>
   <i type="logical" name="LESF_SPLINES"> F  </i>
   <i type="int" name="LMAXMP2">    -1</i>
   <i name="SCISSOR">      0.00000000</i>
   <i type="int" name="NOMEGA">     0</i>
   <i type="int" name="NOMEGAR">     0</i>
   <i type="int" name="NBANDSGW">    -1</i>
   <i type="int" name="NBANDSO">    -1</i>
   <i type="int" name="NBANDSV">    -1</i>
   <i type="int" name="NELMGW">     1</i>
   <i type="int" name="NELMHF">     1</i>
   <i type="int" name="DIM">     3</i>
   <i type="int" name="IESPILON">     4</i>
   <i type="int" name="ANTIRES">     0</i>
   <i name="OMEGAMAX">    -30.00000000</i>
   <i name="OMEGAMIN">    -30.00000000</i>
   <i name="OMEGATL">   -200.00000000</i>
   <i type="int" name="OMEGAGRID">     0</i>
   <i name="CSHIFT">     -0.10000000</i>
   <i type="logical" name="LSELFENERGY"> F  </i>
   <i type="logical" name="LSPECTRAL"> F  </i>
   <i type="logical" name="LSPECTRALGW"> F  </i>
   <i type="logical" name="LSINGLES"> F  </i>
   <i type="logical" name="LFERMIGW"> F  </i>
   <i type="logical" name="ODDONLYGW"> F  </i>
   <i type="logical" name="EVENONLYGW"> F  </i>
   <i type="int" name="NKREDLFX">     1</i>
   <i type="int" name="NKREDLFY">     1</i>
   <i type="int" name="NKREDLFZ">     1</i>
   <i type="int" name="MAXMEM">  2800</i>
   <i type="int" name="TELESCOPE">     0</i>
   <i type="int" name="NTAUPAR">    -1</i>
   <i type="int" name="NOMEGAPAR">    -1</i>
   <i name="DAMP_NEWTON">      0.80000001</i>
   <i name="LAMBDA">      1.00000000</i>
  </separator>
  <separator name="External order field" >
   <i name="OFIELD_KAPPA">      0.00000000</i>
   <v name="OFIELD_K">      0.00000000      0.00000000      0.00000000</v>
   <i name="OFIELD_Q6_NEAR">      0.00000000</i>
   <i name="OFIELD_Q6_FAR">      0.00000000</i>
   <i name="OFIELD_A">      0.00000000</i>
  </separator>
  <separator name="optional k-points parameters" >
   <i type="int" name="KPOINTS_OPT_MODE">     1</i>
   <i type="logical" name="LKPOINTS_OPT"> F  </i>
  </separator>
  <separator name="solvation model" >
   <i type="logical" name="LSOL"> F  </i>
  </separator>
 </parameters>
 <atominfo>
  <atoms>      63 </atoms>
  <types>       2 </types>
  <array name="atoms" >
   <dimension dim="1">ion</dimension>
   <field type="string">element</field>
   <field type="int">atomtype</field>
   <set>
    <rc><c>Mo</c><c>   1</c></rc>
    <rc><c>Mo</c><c>   1</c></rc>
    <rc><c>Mo</c><c>   1</c></rc>
    <rc><c>Mo</c><c>   1</c></rc>
    <rc><c>Mo</c><c>   1</c></rc>
    <rc><c>Mo</c><c>   1</c></rc>
    <rc><c>Mo</c><c>   1</c></rc>
    <rc><c>Mo</c><c>   1</c></rc>
    <rc><c>Mo</c><c>   1</c></rc>
    <rc><c>Mo</c><c>   1</c></rc>
    <rc><c>Mo</c><c>   1</c></rc>
    <rc><c>Mo</c><c>   1</c></rc>
    <rc><c>Mo</c><c>   1</c></rc>
    <rc><c>Mo</c><c>   1</c></rc>
    <rc><c>Mo</c><c>   1</c></rc>
    <rc><c>Mo</c><c>   1</c></rc>
    <rc><c>Mo</c><c>   1</c></rc>
    <rc><c>Mo</c><c>   1</c></rc>
    <rc><c>Mo</c><c>   1</c></rc>
    <rc><c>Mo</c><c>   1</c></rc>
    <rc><c>Mo</c><c>   1</c></rc>
    <rc><c>Mo</c><c>   1</c></rc>
    <rc><c>Mo</c><c>   1</c></rc>
    <rc><c>Mo</c><c>   1</c></rc>
    <rc><c>Mo</c><c>   1</c></rc>
    <rc><c>Mo</c><c>   1</c></rc>
    <rc><c>Mo</c><c>   1</c></rc>
    <rc><c>Mo</c><c>   1</c></rc>
    <rc><c>Mo</c><c>   1</c></rc>
    <rc><c>Mo</c><c>   1</c></rc>
    <rc><c>Mo</c><c>   1</c></rc>
    <rc><c>Mo</c><c>   1</c></rc>
    <rc><c>Mo</c><c>   1</c></rc>
    <rc><c>Mo</c><c>   1</c></rc>
    <rc><c>Mo</c><c>   1</c></rc>
    <rc><c>Mo</c><c>   1</c></rc>
    <rc><c>Mo</c><c>   1</c></rc>
    <rc><c>Mo</c><c>   1</c></rc>
    <rc><c>Mo</c><c>   1</c></rc>
    <rc><c>Mo</c><c>   1</c></rc>
    <rc><c>Mo</c><c>   1</c></rc>
    <rc><c>Mo</c><c>   1</c></rc>
    <rc><c>Mo</c><c>   1</c></rc>
    <rc><c>Mo</c><c>   1</c></rc>
    <rc><c>Mo</c><c>   1</c></rc>
    <rc><c>Mo</c><c>   1</c></rc>
    <rc><c>Mo</c><c>   1</c></rc>
    <rc><c>Mo</c><c>   1</c></rc>
    <rc><c>Mo</c><c>   1</c></rc>
    <rc><c>Mo</c><c>   1</c></rc>
    <rc><c>Mo</c><c>   1</c></rc>
    <rc><c>Mo</c><c>   1</c></rc>
    <rc><c>Mo</c><c>   1</c></rc>
    <rc><c>Mo</c><c>   1</c></rc>
    <rc><c>Mo</c><c>   1</c></rc>
    <rc><c>Mo</c><c>   1</c></rc>
    <rc><c>Mo</c><c>   1</c></rc>
    <rc><c>Mo</c><c>   1</c></rc>
    <rc><c>Mo</c><c>   1</c></rc>
    <rc><c>Mo</c><c>   1</c></rc>
    <rc><c>Mo</c><c>   1</c></rc>
    <rc><c>Nb</c><c>   2</c></rc>
    <rc><c>Nb</c><c>   2</c></rc>
   </set>
  </array>
  <array name="atomtypes" >
   <dimension dim="1">type</dimension>
   <field type="int">atomspertype</field>
   <field type="string">element</field>
   <field>mass</field>
   <field>valence</field>
   <field type="string">pseudopotential</field>
   <set>
    <rc><c>  61</c><c>Mo</c><c>     95.94000000</c><c>     14.00000000</c><c>  PAW_PBE Mo_sv 02Feb2006               </c></rc>
    <rc><c>   2</c><c>Nb</c><c>     92.91000000</c><c>     13.00000000</c><c>  PAW_PBE Nb_sv 25May2007               </c></rc>
   </set>
  </array>
 </atominfo>
 <structure name="initialpos" >
  <crystal>
   <varray name="basis" >
    <v>       9.49839973       0.00000000       0.00000000 </v>
    <v>       0.00000000       9.49839973       0.00000000 </v>
    <v>       0.00000000       0.00000000      24.50289917 </v>
   </varray>
   <i name="volume">   2210.64170109 </i>
   <varray name="rec_basis" >
    <v>       0.10528089       0.00000000       0.00000000 </v>
    <v>       0.00000000       0.10528089       0.00000000 </v>
    <v>       0.00000000       0.00000000       0.04081150 </v>
   </varray>
  </crystal>
  <varray name="positions" >
   <v>       0.00000000       0.00000000       0.00000000 </v>
   <v>       0.02110403       0.97888828       0.38367706 </v>
   <v>       0.16667000       0.16667000       0.06464000 </v>
   <v>       0.33333000       0.00000000       0.00000000 </v>
   <v>       0.31174052       0.01988766       0.38320983 </v>
   <v>       0.50000000       0.16667000       0.06464000 </v>
   <v>       0.66667000       0.00000000       0.00000000 </v>
   <v>       0.66723403       0.00076157       0.38066267 </v>
   <v>       0.83333000       0.16667000       0.06464000 </v>
   <v>       0.00000000       0.33333000       0.00000000 </v>
   <v>       0.16667000       0.50000000       0.06464000 </v>
   <v>       0.33333000       0.33333000       0.00000000 </v>
   <v>       0.34384477       0.31180199       0.38297893 </v>
   <v>       0.50000000       0.50000000       0.06464000 </v>
   <v>       0.66667000       0.33333000       0.00000000 </v>
   <v>       0.83333000       0.50000000       0.06464000 </v>
   <v>       0.00000000       0.66667000       0.00000000 </v>
   <v>       0.98010031       0.68825201       0.38321031 </v>
   <v>       0.16667000       0.83333000       0.06464000 </v>
   <v>       0.33333000       0.66667000       0.00000000 </v>
   <v>       0.50000000       0.83333000       0.06464000 </v>
   <v>       0.66667000       0.66667000       0.00000000 </v>
   <v>       0.68818265       0.65614676       0.38297857 </v>
   <v>       0.83333000       0.83333000       0.06464000 </v>
   <v>       0.00000000       0.00000000       0.12928000 </v>
   <v>       0.16667000       0.16667000       0.19391000 </v>
   <v>       0.33333000       0.00000000       0.12928000 </v>
   <v>       0.50000000       0.16667000       0.19391000 </v>
   <v>       0.66667000       0.00000000       0.12928000 </v>
   <v>       0.83333000       0.16667000       0.19391000 </v>
   <v>       0.00000000       0.33333000       0.12928000 </v>
   <v>       0.16667000       0.50000000       0.19391000 </v>
   <v>       0.33333000       0.33333000       0.12928000 </v>
   <v>       0.50000000       0.50000000       0.19391000 </v>
   <v>       0.66667000       0.33333000       0.12928000 </v>
   <v>       0.83333000       0.50000000       0.19391000 </v>
   <v>       0.00000000       0.66667000       0.12928000 </v>
   <v>       0.16667000       0.83333000       0.19391000 </v>
   <v>       0.33333000       0.66667000       0.12928000 </v>
   <v>       0.50000000       0.83333000       0.19391000 </v>
   <v>       0.66667000       0.66667000       0.12928000 </v>
   <v>       0.83333000       0.83333000       0.19391000 </v>
   <v>       0.00000000       0.00000000       0.25855000 </v>
   <v>       0.16266153       0.16956834       0.32321204 </v>
   <v>       0.33333000       0.00000000       0.25855000 </v>
   <v>       0.50176007       0.16419529       0.32373380 </v>
   <v>       0.66667000       0.00000000       0.25855000 </v>
   <v>       0.83300381       0.16699753       0.32500219 </v>
   <v>       0.00000000       0.33333000       0.25855000 </v>
   <v>       0.16619126       0.49960653       0.32466813 </v>
   <v>       0.33333000       0.33333000       0.25855000 </v>
   <v>       0.49905050       0.50094714       0.32067968 </v>
   <v>       0.66667000       0.33333000       0.25855000 </v>
   <v>       0.83580311       0.49823948       0.32373369 </v>
   <v>       0.00000000       0.66667000       0.25855000 </v>
   <v>       0.16861911       0.83137781       0.32259405 </v>
   <v>       0.33333000       0.66667000       0.25855000 </v>
   <v>       0.50039379       0.83380909       0.32466826 </v>
   <v>       0.66667000       0.66667000       0.25855000 </v>
   <v>       0.83043100       0.83733674       0.32321177 </v>
   <v>       0.99925278       0.33278319       0.38066287 </v>
   <v>       0.65187910       0.34811471       0.38805810 </v>
   <v>       0.34255817       0.65745176       0.38739091 </v>
  </varray>
  <varray name="selective"  type="logical" >
   <v type="logical" >  F  F  F </v>
   <v type="logical" >  T  T  T </v>
   <v type="logical" >  F  F  F </v>
   <v type="logical" >  F  F  F </v>
   <v type="logical" >  T  T  T </v>
   <v type="logical" >  F  F  F </v>
   <v type="logical" >  F  F  F </v>
   <v type="logical" >  T  T  T </v>
   <v type="logical" >  F  F  F </v>
   <v type="logical" >  F  F  F </v>
   <v type="logical" >  F  F  F </v>
   <v type="logical" >  F  F  F </v>
   <v type="logical" >  T  T  T </v>
   <v type="logical" >  F  F  F </v>
   <v type="logical" >  F  F  F </v>
   <v type="logical" >  F  F  F </v>
   <v type="logical" >  F  F  F </v>
   <v type="logical" >  T  T  T </v>
   <v type="logical" >  F  F  F </v>
   <v type="logical" >  F  F  F </v>
   <v type="logical" >  F  F  F </v>
   <v type="logical" >  F  F  F </v>
   <v type="logical" >  T  T  T </v>
   <v type="logical" >  F  F  F </v>
   <v type="logical" >  F  F  F </v>
   <v type="logical" >  F  F  F </v>
   <v type="logical" >  F  F  F </v>
   <v type="logical" >  F  F  F </v>
   <v type="logical" >  F  F  F </v>
   <v type="logical" >  F  F  F </v>
   <v type="logical" >  F  F  F </v>
   <v type="logical" >  F  F  F </v>
   <v type="logical" >  F  F  F </v>
   <v type="logical" >  F  F  F </v>
   <v type="logical" >  F  F  F </v>
   <v type="logical" >  F  F  F </v>
   <v type="logical" >  F  F  F </v>
   <v type="logical" >  F  F  F </v>
   <v type="logical" >  F  F  F </v>
   <v type="logical" >  F  F  F </v>
   <v type="logical" >  F  F  F </v>
   <v type="logical" >  F  F  F </v>
   <v type="logical" >  F  F  F </v>
   <v type="logical" >  T  T  T </v>
   <v type="logical" >  F  F  F </v>
   <v type="logical" >  T  T  T </v>
   <v type="logical" >  F  F  F </v>
   <v type="logical" >  T  T  T </v>
   <v type="logical" >  F  F  F </v>
   <v type="logical" >  T  T  T </v>
   <v type="logical" >  F  F  F </v>
   <v type="logical" >  T  T  T </v>
   <v type="logical" >  F  F  F </v>
   <v type="logical" >  T  T  T </v>
   <v type="logical" >  F  F  F </v>
   <v type="logical" >  T  T  T </v>
   <v type="logical" >  F  F  F </v>
   <v type="logical" >  T  T  T </v>
   <v type="logical" >  F  F  F </v>
   <v type="logical" >  T  T  T </v>
   <v type="logical" >  T  T  T </v>
   <v type="logical" >  T  T  T </v>
   <v type="logical" >  T  T  T </v>
  </varray>
  <nose>
   <v>      -3.00000000       0.00000000       0.00010000       0.00010000 </v>
  </nose>
 </structure>
 <calculation>
  <scstep>
   <time name="dav">  150.90   21.66</time>
   <time name="total">  162.58   23.54</time>
   <energy>
    <i name="alphaZ">   3287.67411436 </i>
    <i name="ewald"> 388819.19702960 </i>
    <i name="hartreedc">-495671.75730100 </i>
    <i name="XCdc">   4159.78988953 </i>
    <i name="pawpsdc">  93834.65813053 </i>
    <i name="pawaedc"> -92668.98010568 </i>
    <i name="eentropy">     -0.14759693 </i>
    <i name="bandstr">  -7594.24713821 </i>
    <i name="atom"> 116709.44267778 </i>
    <i name="e_fr_energy">  10875.62969998 </i>
    <i name="e_wo_entrp">  10875.77729691 </i>
    <i name="e_0_energy">  10875.70349845 </i>
   </energy>
  </scstep>
  <scstep>
   <time name="dav">  141.31   20.24</time>
   <time name="total">  141.35   20.25</time>
   <energy>
    <i name="e_fr_energy">   -142.43672608 </i>
    <i name="e_wo_entrp">   -142.16708881 </i>
    <i name="e_0_energy">   -142.30190745 </i>
   </energy>
  </scstep>
  <scstep>
   <time name="dav">  172.51   24.72</time>
   <time name="total">  172.55   24.72</time>
   <energy>
    <i name="e_fr_energy">   -672.05453090 </i>
    <i name="e_wo_entrp">   -671.78521540 </i>
    <i name="e_0_energy">   -671.91987315 </i>
   </energy>
  </scstep>
  <scstep>
   <time name="dav">  166.73   23.93</time>
   <time name="total">  166.77   23.93</time>
   <energy>
    <i name="e_fr_energy">   -707.16882236 </i>
    <i name="e_wo_entrp">   -706.86893266 </i>
    <i name="e_0_energy">   -707.01887751 </i>
   </energy>
  </scstep>
  <scstep>
   <time name="dav">  218.51   31.33</time>
   <time name="total">  222.55   32.23</time>
   <energy>
    <i name="e_fr_energy">   -710.83571126 </i>
    <i name="e_wo_entrp">   -710.52481419 </i>
    <i name="e_0_energy">   -710.68026272 </i>
   </energy>
  </scstep>
  <scstep>
   <time name="dav">  164.36   23.58</time>
   <time name="total">  179.97   26.30</time>
   <energy>
    <i name="e_fr_energy">   -712.12748235 </i>
    <i name="e_wo_entrp">   -711.81641404 </i>
    <i name="e_0_energy">   -711.97194820 </i>
   </energy>
  </scstep>
  <scstep>
   <time name="dav">  151.34   22.26</time>
   <time name="total">  166.17   24.98</time>
   <energy>
    <i name="e_fr_energy">   -744.90137760 </i>
    <i name="e_wo_entrp">   -744.53908648 </i>
    <i name="e_0_energy">   -744.72023204 </i>
   </energy>
  </scstep>
  <scstep>
   <time name="dav">  160.20   22.96</time>
   <time name="total">  175.86   25.71</time>
   <energy>
    <i name="e_fr_energy">   -664.32958127 </i>
    <i name="e_wo_entrp">   -664.01206937 </i>
    <i name="e_0_energy">   -664.17082532 </i>
   </energy>
  </scstep>
  <scstep>
   <time name="dav">  162.99   23.54</time>
   <time name="total">  177.93   26.27</time>
   <energy>
    <i name="e_fr_energy">   -653.54623894 </i>
    <i name="e_wo_entrp">   -653.25928740 </i>
    <i name="e_0_energy">   -653.40276317 </i>
   </energy>
  </scstep>
  <scstep>
   <time name="dav">  173.42   24.91</time>
   <time name="total">  188.91   27.66</time>
   <energy>
    <i name="e_fr_energy">   -652.96714740 </i>
    <i name="e_wo_entrp">   -652.69018391 </i>
    <i name="e_0_energy">   -652.82866565 </i>
   </energy>
  </scstep>
  <scstep>
   <time name="dav">  162.20   23.31</time>
   <time name="total">  177.76   26.05</time>
   <energy>
    <i name="e_fr_energy">   -652.85915948 </i>
    <i name="e_wo_entrp">   -652.57624632 </i>
    <i name="e_0_energy">   -652.71770290 </i>
   </energy>
  </scstep>
  <scstep>
   <time name="dav">  158.17   22.70</time>
   <time name="total">  173.86   25.44</time>
   <energy>
    <i name="e_fr_energy">   -652.40018140 </i>
    <i name="e_wo_entrp">   -652.11898661 </i>
    <i name="e_0_energy">   -652.25958401 </i>
   </energy>
  </scstep>
  <scstep>
   <time name="dav">  152.30   21.85</time>
   <time name="total">  168.12   24.60</time>
   <energy>
    <i name="e_fr_energy">   -651.58943750 </i>
    <i name="e_wo_entrp">   -651.29618111 </i>
    <i name="e_0_energy">   -651.44280930 </i>
   </energy>
  </scstep>
  <scstep>
   <time name="dav">  170.82   24.61</time>
   <time name="total">  185.91   27.35</time>
   <energy>
    <i name="e_fr_energy">   -651.49058393 </i>
    <i name="e_wo_entrp">   -651.19713265 </i>
    <i name="e_0_energy">   -651.34385829 </i>
   </energy>
  </scstep>
  <scstep>
   <time name="dav">  158.60   22.77</time>
   <time name="total">  174.30   25.53</time>
   <energy>
    <i name="e_fr_energy">   -651.37674477 </i>
    <i name="e_wo_entrp">   -651.08340789 </i>
    <i name="e_0_energy">   -651.23007633 </i>
   </energy>
  </scstep>
  <scstep>
   <time name="dav">  166.36   23.90</time>
   <time name="total">  181.62   26.67</time>
   <energy>
    <i name="e_fr_energy">   -651.26194693 </i>
    <i name="e_wo_entrp">   -650.96939728 </i>
    <i name="e_0_energy">   -651.11567211 </i>
   </energy>
  </scstep>
  <scstep>
   <time name="dav">  160.52   23.05</time>
   <time name="total">  176.37   25.80</time>
   <energy>
    <i name="e_fr_energy">   -651.21751173 </i>
    <i name="e_wo_entrp">   -650.92579952 </i>
    <i name="e_0_energy">   -651.07165563 </i>
   </energy>
  </scstep>
  <scstep>
   <time name="dav">  151.87   21.77</time>
   <time name="total">  167.79   24.54</time>
   <energy>
    <i name="e_fr_energy">   -651.17283122 </i>
    <i name="e_wo_entrp">   -650.88072311 </i>
    <i name="e_0_energy">   -651.02677717 </i>
   </energy>
  </scstep>
  <scstep>
   <time name="dav">  161.21   23.14</time>
   <time name="total">  177.15   25.91</time>
   <energy>
    <i name="e_fr_energy">   -651.13971150 </i>
    <i name="e_wo_entrp">   -650.84746553 </i>
    <i name="e_0_energy">   -650.99358852 </i>
   </energy>
  </scstep>
  <scstep>
   <time name="dav">  157.99   22.73</time>
   <time name="total">  174.01   25.51</time>
   <energy>
    <i name="e_fr_energy">   -651.07451744 </i>
    <i name="e_wo_entrp">   -650.78279067 </i>
    <i name="e_0_energy">   -650.92865405 </i>
   </energy>
  </scstep>
  <scstep>
   <time name="dav">  162.04   23.28</time>
   <time name="total">  178.65   26.16</time>
   <energy>
    <i name="e_fr_energy">   -651.02060470 </i>
    <i name="e_wo_entrp">   -650.72829727 </i>
    <i name="e_0_energy">   -650.87445098 </i>
   </energy>
  </scstep>
  <scstep>
   <time name="dav">  156.82   22.62</time>
   <time name="total">  172.18   25.41</time>
   <energy>
    <i name="e_fr_energy">   -650.97656087 </i>
    <i name="e_wo_entrp">   -650.68545148 </i>
    <i name="e_0_energy">   -650.83100618 </i>
   </energy>
  </scstep>
  <scstep>
   <time name="dav">  164.34   23.54</time>
   <time name="total">  180.34   26.33</time>
   <energy>
    <i name="e_fr_energy">   -650.94542674 </i>
    <i name="e_wo_entrp">   -650.65535823 </i>
    <i name="e_0_energy">   -650.80039248 </i>
   </energy>
  </scstep>
  <scstep>
   <time name="dav">  140.65   20.20</time>
   <time name="total">  156.70   22.99</time>
   <energy>
    <i name="e_fr_energy">   -650.89310152 </i>
    <i name="e_wo_entrp">   -650.60354450 </i>
    <i name="e_0_energy">   -650.74832301 </i>
   </energy>
  </scstep>
  <scstep>
   <time name="dav">  163.72   23.49</time>
   <time name="total">  179.70   26.27</time>
   <energy>
    <i name="e_fr_energy">   -650.88533516 </i>
    <i name="e_wo_entrp">   -650.59650310 </i>
    <i name="e_0_energy">   -650.74091913 </i>
   </energy>
  </scstep>
  <scstep>
   <time name="dav">  156.58   22.46</time>
   <time name="total">  172.54   25.24</time>
   <energy>
    <i name="e_fr_energy">   -650.89342871 </i>
    <i name="e_wo_entrp">   -650.60504997 </i>
    <i name="e_0_energy">   -650.74923934 </i>
   </energy>
  </scstep>
  <scstep>
   <time name="dav">  154.00   22.39</time>
   <time name="total">  169.99   25.17</time>
   <energy>
    <i name="e_fr_energy">   -650.91145398 </i>
    <i name="e_wo_entrp">   -650.62367550 </i>
    <i name="e_0_energy">   -650.76756474 </i>
   </energy>
  </scstep>
  <scstep>
   <time name="dav">  157.61   22.59</time>
   <time name="total">  173.64   25.38</time>
   <energy>
    <i name="e_fr_energy">   -650.92540070 </i>
    <i name="e_wo_entrp">   -650.63787338 </i>
    <i name="e_0_energy">   -650.78163704 </i>
   </energy>
  </scstep>
  <scstep>
   <time name="dav">  153.68   22.16</time>
   <time name="total">  169.16   24.97</time>
   <energy>
    <i name="e_fr_energy">   -650.94350312 </i>
    <i name="e_wo_entrp">   -650.65641773 </i>
    <i name="e_0_energy">   -650.79996042 </i>
   </energy>
  </scstep>
  <scstep>
   <time name="dav">  162.15   23.25</time>
   <time name="total">  178.09   26.07</time>
   <energy>
    <i name="e_fr_energy">   -650.94967378 </i>
    <i name="e_wo_entrp">   -650.66272373 </i>
    <i name="e_0_energy">   -650.80619876 </i>
   </energy>
  </scstep>
  <scstep>
   <time name="dav">  154.78   22.22</time>
   <time name="total">  171.49   25.10</time>
   <energy>
    <i name="e_fr_energy">   -650.95733800 </i>
    <i name="e_wo_entrp">   -650.67044259 </i>
    <i name="e_0_energy">   -650.81389029 </i>
   </energy>
  </scstep>
  <scstep>
   <time name="dav">  159.76   22.93</time>
   <time name="total">  175.54   25.76</time>
   <energy>
    <i name="e_fr_energy">   -650.96139395 </i>
    <i name="e_wo_entrp">   -650.67456273 </i>
    <i name="e_0_energy">   -650.81797834 </i>
   </energy>
  </scstep>
  <scstep>
   <time name="dav">  154.49   22.29</time>
   <time name="total">  170.92   25.13</time>
   <energy>
    <i name="e_fr_energy">   -650.96346036 </i>
    <i name="e_wo_entrp">   -650.67662934 </i>
    <i name="e_0_energy">   -650.82004485 </i>
   </energy>
  </scstep>
  <scstep>
   <time name="dav">  144.02   21.76</time>
   <time name="total">  160.51   24.62</time>
   <energy>
    <i name="e_fr_energy">   -650.96447172 </i>
    <i name="e_wo_entrp">   -650.67765000 </i>
    <i name="e_0_energy">   -650.82106086 </i>
   </energy>
  </scstep>
  <scstep>
   <time name="dav">  119.38   19.73</time>
   <time name="total">  135.96   22.60</time>
   <energy>
    <i name="e_fr_energy">   -650.96496992 </i>
    <i name="e_wo_entrp">   -650.67813603 </i>
    <i name="e_0_energy">   -650.82155298 </i>
   </energy>
  </scstep>
  <scstep>
   <time name="dav">  102.78   18.47</time>
   <time name="total">  119.46   21.35</time>
   <energy>
    <i name="e_fr_energy">   -650.96552935 </i>
    <i name="e_wo_entrp">   -650.67869773 </i>
    <i name="e_0_energy">   -650.82211354 </i>
   </energy>
  </scstep>
  <scstep>
   <time name="dav">  104.17   18.66</time>
   <time name="total">  120.47   21.55</time>
   <energy>
    <i name="e_fr_energy">   -650.96577830 </i>
    <i name="e_wo_entrp">   -650.67894917 </i>
    <i name="e_0_energy">   -650.82236374 </i>
   </energy>
  </scstep>
  <scstep>
   <time name="dav">   94.70   17.71</time>
   <time name="total">  110.77   20.61</time>
   <energy>
    <i name="e_fr_energy">   -650.96593615 </i>
    <i name="e_wo_entrp">   -650.67910969 </i>
    <i name="e_0_energy">   -650.82252292 </i>
   </energy>
  </scstep>
  <scstep>
   <time name="dav">   70.45   16.47</time>
   <time name="total">   86.67   19.41</time>
   <energy>
    <i name="e_fr_energy">   -650.96596818 </i>
    <i name="e_wo_entrp">   -650.67914422 </i>
    <i name="e_0_energy">   -650.82255620 </i>
   </energy>
  </scstep>
  <scstep>
   <time name="dav">   63.45   15.53</time>
   <time name="total">   79.56   18.46</time>
   <energy>
    <i name="e_fr_energy">   -650.96599376 </i>
    <i name="e_wo_entrp">   -650.67917215 </i>
    <i name="e_0_energy">   -650.82258296 </i>
   </energy>
  </scstep>
  <scstep>
   <time name="dav">   67.87   15.76</time>
   <time name="total">   84.89   18.73</time>
   <energy>
    <i name="e_fr_energy">   -650.96602042 </i>
    <i name="e_wo_entrp">   -650.67920160 </i>
    <i name="e_0_energy">   -650.82261101 </i>
   </energy>
  </scstep>
  <scstep>
   <time name="dav">   60.90   15.48</time>
   <time name="total">   77.03   18.43</time>
   <energy>
    <i name="e_fr_energy">   -650.96603181 </i>
    <i name="e_wo_entrp">   -650.67921459 </i>
    <i name="e_0_energy">   -650.82262320 </i>
   </energy>
  </scstep>
  <scstep>
   <time name="dav">   63.97   15.53</time>
   <time name="total">   80.19   18.50</time>
   <energy>
    <i name="e_fr_energy">   -650.96603968 </i>
    <i name="e_wo_entrp">   -650.67922407 </i>
    <i name="e_0_energy">   -650.82263188 </i>
   </energy>
  </scstep>
  <scstep>
   <time name="dav">   54.87   15.22</time>
   <time name="total">   71.14   18.20</time>
   <energy>
    <i name="e_fr_energy">   -650.96604343 </i>
    <i name="e_wo_entrp">   -650.67922907 </i>
    <i name="e_0_energy">   -650.82263625 </i>
   </energy>
  </scstep>
  <scstep>
   <time name="dav">   59.81   15.19</time>
   <time name="total">   76.00   18.18</time>
   <energy>
    <i name="e_fr_energy">   -650.96604687 </i>
    <i name="e_wo_entrp">   -650.67923346 </i>
    <i name="e_0_energy">   -650.82264017 </i>
   </energy>
  </scstep>
  <scstep>
   <time name="dav">   48.96   14.58</time>
   <time name="total">   65.29   17.59</time>
   <energy>
    <i name="e_fr_energy">   -650.96604864 </i>
    <i name="e_wo_entrp">   -650.67923629 </i>
    <i name="e_0_energy">   -650.82264246 </i>
   </energy>
  </scstep>
  <scstep>
   <time name="dav">   57.11   14.76</time>
   <time name="total">   73.98   17.77</time>
   <energy>
    <i name="e_fr_energy">   -650.96605043 </i>
    <i name="e_wo_entrp">   -650.67923921 </i>
    <i name="e_0_energy">   -650.82264482 </i>
   </energy>
  </scstep>
  <scstep>
   <time name="dav">   45.04   13.67</time>
   <time name="total">   61.76   16.70</time>
   <energy>
    <i name="e_fr_energy">   -650.96605157 </i>
    <i name="e_wo_entrp">   -650.67924097 </i>
    <i name="e_0_energy">   -650.82264627 </i>
   </energy>
  </scstep>
  <scstep>
   <time name="dav">   51.58   14.33</time>
   <time name="total">   63.29   16.20</time>
   <energy>
    <i name="alphaZ">   3287.67411436 </i>
    <i name="ewald"> 388819.19702960 </i>
    <i name="hartreedc">-495776.15807390 </i>
    <i name="XCdc">   4086.80295552 </i>
    <i name="pawpsdc"> 101071.37721625 </i>
    <i name="pawaedc">-100126.83693750 </i>
    <i name="eentropy">     -0.28681061 </i>
    <i name="bandstr"> -18722.17822395 </i>
    <i name="atom"> 116709.44267778 </i>
    <i name="e_fr_energy">   -650.96605247 </i>
    <i name="e_wo_entrp">   -650.67924186 </i>
    <i name="e_0_energy">   -650.82264716 </i>
   </energy>
  </scstep>
  <structure>
   <crystal>
    <varray name="basis" >
     <v>       9.49839973       0.00000000       0.00000000 </v>
     <v>       0.00000000       9.49839973       0.00000000 </v>
     <v>       0.00000000       0.00000000      24.50289917 </v>
    </varray>
    <i name="volume">   2210.64170109 </i>
    <varray name="rec_basis" >
     <v>       0.10528089       0.00000000       0.00000000 </v>
     <v>       0.00000000       0.10528089       0.00000000 </v>
     <v>       0.00000000       0.00000000       0.04081150 </v>
    </varray>
   </crystal>
   <varray name="positions" >
    <v>       0.00000000       0.00000000       0.00000000 </v>
    <v>       0.02110403       0.97888828       0.38367706 </v>
    <v>       0.16667000       0.16667000       0.06464000 </v>
    <v>       0.33333000       0.00000000       0.00000000 </v>
    <v>       0.31174052       0.01988766       0.38320983 </v>
    <v>       0.50000000       0.16667000       0.06464000 </v>
    <v>       0.66667000       0.00000000       0.00000000 </v>
    <v>       0.66723403       0.00076157       0.38066267 </v>
    <v>       0.83333000       0.16667000       0.06464000 </v>
    <v>       0.00000000       0.33333000       0.00000000 </v>
    <v>       0.16667000       0.50000000       0.06464000 </v>
    <v>       0.33333000       0.33333000       0.00000000 </v>
    <v>       0.34384477       0.31180199       0.38297893 </v>
    <v>       0.50000000       0.50000000       0.06464000 </v>
    <v>       0.66667000       0.33333000       0.00000000 </v>
    <v>       0.83333000       0.50000000       0.06464000 </v>
    <v>       0.00000000       0.66667000       0.00000000 </v>
    <v>       0.98010031       0.68825201       0.38321031 </v>
    <v>       0.16667000       0.83333000       0.06464000 </v>
    <v>       0.33333000       0.66667000       0.00000000 </v>
    <v>       0.50000000       0.83333000       0.06464000 </v>
    <v>       0.66667000       0.66667000       0.00000000 </v>
    <v>       0.68818265       0.65614676       0.38297857 </v>
    <v>       0.83333000       0.83333000       0.06464000 </v>
    <v>       0.00000000       0.00000000       0.12928000 </v>
    <v>       0.16667000       0.16667000       0.19391000 </v>
    <v>       0.33333000       0.00000000       0.12928000 </v>
    <v>       0.50000000       0.16667000       0.19391000 </v>
    <v>       0.66667000       0.00000000       0.12928000 </v>
    <v>       0.83333000       0.16667000       0.19391000 </v>
    <v>       0.00000000       0.33333000       0.12928000 </v>
    <v>       0.16667000       0.50000000       0.19391000 </v>
    <v>       0.33333000       0.33333000       0.12928000 </v>
    <v>       0.50000000       0.50000000       0.19391000 </v>
    <v>       0.66667000       0.33333000       0.12928000 </v>
    <v>       0.83333000       0.50000000       0.19391000 </v>
    <v>       0.00000000       0.66667000       0.12928000 </v>
    <v>       0.16667000       0.83333000       0.19391000 </v>
    <v>       0.33333000       0.66667000       0.12928000 </v>
    <v>       0.50000000       0.83333000       0.19391000 </v>
    <v>       0.66667000       0.66667000       0.12928000 </v>
    <v>       0.83333000       0.83333000       0.19391000 </v>
    <v>       0.00000000       0.00000000       0.25855000 </v>
    <v>       0.16266153       0.16956834       0.32321204 </v>
    <v>       0.33333000       0.00000000       0.25855000 </v>
    <v>       0.50176007       0.16419529       0.32373380 </v>
    <v>       0.66667000       0.00000000       0.25855000 </v>
    <v>       0.83300381       0.16699753       0.32500219 </v>
    <v>       0.00000000       0.33333000       0.25855000 </v>
    <v>       0.16619126       0.49960653       0.32466813 </v>
    <v>       0.33333000       0.33333000       0.25855000 </v>
    <v>       0.49905050       0.50094714       0.32067968 </v>
    <v>       0.66667000       0.33333000       0.25855000 </v>
    <v>       0.83580311       0.49823948       0.32373369 </v>
    <v>       0.00000000       0.66667000       0.25855000 </v>
    <v>       0.16861911       0.83137781       0.32259405 </v>
    <v>       0.33333000       0.66667000       0.25855000 </v>
    <v>       0.50039379       0.83380909       0.32466826 </v>
    <v>       0.66667000       0.66667000       0.25855000 </v>
    <v>       0.83043100       0.83733674       0.32321177 </v>
    <v>       0.99925278       0.33278319       0.38066287 </v>
    <v>       0.65187910       0.34811471       0.38805810 </v>
    <v>       0.34255817       0.65745176       0.38739091 </v>
   </varray>
  </structure>
  <varray name="forces" >
   <v>      -0.01403357       0.01402106       1.56611601 </v>
   <v>       0.01155877      -0.01151498      -0.05341998 </v>
   <v>      -0.01904297       0.00012359      -1.31773920 </v>
   <v>       0.01657888      -0.02034372       1.54806512 </v>
   <v>       0.02805188      -0.04933089      -0.05289357 </v>
   <v>       0.00746396      -0.00441065      -1.31728292 </v>
   <v>       0.00525552      -0.01022062       1.55033661 </v>
   <v>      -0.03330337      -0.04256609      -0.00074580 </v>
   <v>      -0.00601919       0.00600746      -1.28518543 </v>
   <v>       0.01023094      -0.00525444       1.55033825 </v>
   <v>      -0.00679038       0.00292106      -1.22377456 </v>
   <v>      -0.01608471       0.01977234       1.54372690 </v>
   <v>       0.12446811       0.02589560      -0.11432181 </v>
   <v>      -0.00150144       0.00148604      -1.30850383 </v>
   <v>       0.02443075      -0.02443391       1.55070690 </v>
   <v>       0.00440998      -0.00745488      -1.31728328 </v>
   <v>       0.02035002      -0.01657913       1.54806536 </v>
   <v>       0.04943740      -0.02802623      -0.05288052 </v>
   <v>      -0.01120586       0.01120613      -1.33323631 </v>
   <v>      -0.00393701       0.00395611       1.53768156 </v>
   <v>      -0.00295445       0.00676501      -1.22376510 </v>
   <v>      -0.01975395       0.01608175       1.54372822 </v>
   <v>      -0.02560999      -0.12445152      -0.11439672 </v>
   <v>      -0.00012283       0.01905532      -1.31774068 </v>
   <v>      -0.01949472       0.01947564      -0.08337615 </v>
   <v>      -0.10618164       0.12393395      -0.08806144 </v>
   <v>       0.04606352      -0.03378616      -0.09523290 </v>
   <v>       0.08627221      -0.11191353      -0.09751728 </v>
   <v>      -0.01642988      -0.00558077      -0.19431389 </v>
   <v>      -0.03303876       0.03301402       0.03573181 </v>
   <v>       0.00563470       0.01649736      -0.19432573 </v>
   <v>      -0.00760377      -0.00204985       0.05881965 </v>
   <v>      -0.03099676       0.03744779      -0.08822555 </v>
   <v>      -0.10484214       0.10482664      -0.33510082 </v>
   <v>       0.04891766      -0.04892297      -0.09659983 </v>
   <v>       0.11186504      -0.08629100      -0.09750331 </v>
   <v>       0.03377526      -0.04607178      -0.09522772 </v>
   <v>       0.10791512      -0.10793839      -0.22987151 </v>
   <v>       0.01628377      -0.01622599      -0.17399004 </v>
   <v>       0.00201883       0.00760203       0.05884304 </v>
   <v>      -0.03745822       0.03098898      -0.08822896 </v>
   <v>      -0.12396780       0.10615867      -0.08808194 </v>
   <v>      -0.00073751       0.00072367       0.15906605 </v>
   <v>       0.01515856      -0.04372840       0.04769306 </v>
   <v>       0.06164558       0.04008711       0.16060143 </v>
   <v>      -0.02445147       0.03497044       0.00264107 </v>
   <v>      -0.12146460       0.03550804      -0.49068345 </v>
   <v>      -0.03201139       0.03198779       0.01919291 </v>
   <v>      -0.03547758       0.12153593      -0.49069582 </v>
   <v>       0.07493214       0.02030804       0.11036982 </v>
   <v>      -0.08229291      -0.01834447      -0.05005543 </v>
   <v>       0.01891120      -0.01889483       0.77495382 </v>
   <v>       0.08541479      -0.08539519       0.15917282 </v>
   <v>      -0.03501381       0.02443629       0.00268022 </v>
   <v>      -0.04015595      -0.06164705       0.16053450 </v>
   <v>       0.12618929      -0.12613948       0.23856745 </v>
   <v>       0.10780650      -0.10773668      -0.09449825 </v>
   <v>      -0.02033335      -0.07496566       0.11034793 </v>
   <v>       0.01826757       0.08224738      -0.05009534 </v>
   <v>       0.04354885      -0.01515420       0.04778156 </v>
   <v>       0.04249684       0.03320965      -0.00078052 </v>
   <v>      -0.20901701       0.20904812      -0.13150349 </v>
   <v>      -0.11402464       0.11407445      -0.69862298 </v>
  </varray>
  <varray name="stress" >
   <v>     -38.58414011      -1.22534631      -0.12778620 </v>
   <v>      -1.22534511     -38.58423041       0.12829355 </v>
   <v>      -0.12778686       0.12829326     -22.20821167 </v>
  </varray>
  <energy>
   <i name="e_fr_energy">   -650.96605247 </i>
   <i name="e_wo_entrp">   -650.67924186 </i>
   <i name="e_0_energy">   -650.82264716 </i>
  </energy>
  <time name="totalsc"> 7365.18 1204.16</time>
  <eigenvalues>
   <array>
    <dimension dim="1">band</dimension>
    <dimension dim="2">kpoint</dimension>
    <dimension dim="3">spin</dimension>
    <field>eigene</field>
    <field>occ</field>
    <set>
     <set comment="spin 1">
      <set comment="kpoint 1">
       <r>  -57.7213    1.0000 </r>
       <r>  -57.6508    1.0000 </r>
       <r>  -57.6290    1.0000 </r>
       <r>  -57.6239    1.0000 </r>
       <r>  -57.6233    1.0000 </r>
       <r>  -57.6189    1.0000 </r>
       <r>  -57.5928    1.0000 </r>
       <r>  -57.5861    1.0000 </r>
       <r>  -57.5855    1.0000 </r>
       <r>  -57.5806    1.0000 </r>
       <r>  -57.5783    1.0000 </r>
       <r>  -57.5776    1.0000 </r>
       <r>  -57.5717    1.0000 </r>
       <r>  -57.5714    1.0000 </r>
       <r>  -57.5571    1.0000 </r>
       <r>  -57.5558    1.0000 </r>
       <r>  -57.5495    1.0000 </r>
       <r>  -57.5486    1.0000 </r>
       <r>  -57.5025    1.0000 </r>
       <r>  -57.4698    1.0000 </r>
       <r>  -57.4600    1.0000 </r>
       <r>  -57.4523    1.0000 </r>
       <r>  -57.4519    1.0000 </r>
       <r>  -57.4511    1.0000 </r>
       <r>  -57.4496    1.0000 </r>
       <r>  -57.4399    1.0000 </r>
       <r>  -57.4393    1.0000 </r>
       <r>  -57.4391    1.0000 </r>
       <r>  -57.4381    1.0000 </r>
       <r>  -57.4361    1.0000 </r>
       <r>  -57.4225    1.0000 </r>
       <r>  -57.4215    1.0000 </r>
       <r>  -57.4150    1.0000 </r>
       <r>  -57.4144    1.0000 </r>
       <r>  -57.4143    1.0000 </r>
       <r>  -57.4101    1.0000 </r>
       <r>  -57.4072    1.0000 </r>
       <r>  -57.4016    1.0000 </r>
       <r>  -57.4006    1.0000 </r>
       <r>  -57.3990    1.0000 </r>
       <r>  -57.3970    1.0000 </r>
       <r>  -57.3744    1.0000 </r>
       <r>  -57.3713    1.0000 </r>
       <r>  -57.3436    1.0000 </r>
       <r>  -57.3007    1.0000 </r>
       <r>  -57.2459    1.0000 </r>
       <r>  -57.2423    1.0000 </r>
       <r>  -57.2408    1.0000 </r>
       <r>  -57.2397    1.0000 </r>
       <r>  -57.2386    1.0000 </r>
       <r>  -57.2369    1.0000 </r>
       <r>  -57.2358    1.0000 </r>
       <r>  -57.2356    1.0000 </r>
       <r>  -57.2226    1.0000 </r>
       <r>  -57.2187    1.0000 </r>
       <r>  -57.2167    1.0000 </r>
       <r>  -57.2143    1.0000 </r>
       <r>  -57.1989    1.0000 </r>
       <r>  -57.1895    1.0000 </r>
       <r>  -57.1786    1.0000 </r>
       <r>  -57.1565    1.0000 </r>
       <r>  -51.5335    1.0000 </r>
       <r>  -51.4976    1.0000 </r>
       <r>  -32.3131    1.0000 </r>
       <r>  -32.2938    1.0000 </r>
       <r>  -32.2670    1.0000 </r>
       <r>  -32.2661    1.0000 </r>
       <r>  -32.2277    1.0000 </r>
       <r>  -32.2270    1.0000 </r>
       <r>  -32.2188    1.0000 </r>
       <r>  -32.2176    1.0000 </r>
       <r>  -32.2173    1.0000 </r>
       <r>  -32.2104    1.0000 </r>
       <r>  -32.2079    1.0000 </r>
       <r>  -32.2076    1.0000 </r>
       <r>  -32.1762    1.0000 </r>
       <r>  -32.1326    1.0000 </r>
       <r>  -32.1307    1.0000 </r>
       <r>  -32.1121    1.0000 </r>
       <r>  -32.1031    1.0000 </r>
       <r>  -32.0922    1.0000 </r>
       <r>  -32.0798    1.0000 </r>
       <r>  -32.0769    1.0000 </r>
       <r>  -32.0754    1.0000 </r>
       <r>  -32.0711    1.0000 </r>
       <r>  -32.0694    1.0000 </r>
       <r>  -32.0686    1.0000 </r>
       <r>  -32.0634    1.0000 </r>
       <r>  -32.0577    1.0000 </r>
       <r>  -32.0504    1.0000 </r>
       <r>  -32.0476    1.0000 </r>
       <r>  -32.0460    1.0000 </r>
       <r>  -32.0356    1.0000 </r>
       <r>  -32.0283    1.0000 </r>
       <r>  -32.0220    1.0000 </r>
       <r>  -32.0217    1.0000 </r>
       <r>  -32.0091    1.0000 </r>
       <r>  -32.0032    1.0000 </r>
       <r>  -31.9969    1.0000 </r>
       <r>  -31.9722    1.0000 </r>
       <r>  -31.9550    1.0000 </r>
       <r>  -31.9443    1.0000 </r>
       <r>  -31.9367    1.0000 </r>
       <r>  -31.9296    1.0000 </r>
       <r>  -31.9082    1.0000 </r>
       <r>  -31.9044    1.0000 </r>
       <r>  -31.8931    1.0000 </r>
       <r>  -31.8580    1.0000 </r>
       <r>  -31.8548    1.0000 </r>
       <r>  -31.8349    1.0000 </r>
       <r>  -31.8342    1.0000 </r>
       <r>  -31.8143    1.0000 </r>
       <r>  -31.8063    1.0000 </r>
       <r>  -31.7992    1.0000 </r>
       <r>  -31.7949    1.0000 </r>
       <r>  -31.7761    1.0000 </r>
       <r>  -31.7730    1.0000 </r>
       <r>  -31.7534    1.0000 </r>
       <r>  -31.7377    1.0000 </r>
       <r>  -31.7357    1.0000 </r>
       <r>  -31.7297    1.0000 </r>
       <r>  -31.7174    1.0000 </r>
       <r>  -31.7086    1.0000 </r>
       <r>  -31.7006    1.0000 </r>
       <r>  -31.6981    1.0000 </r>
       <r>  -31.6972    1.0000 </r>
       <r>  -31.6927    1.0000 </r>
       <r>  -31.6914    1.0000 </r>
       <r>  -31.6845    1.0000 </r>
       <r>  -31.6775    1.0000 </r>
       <r>  -31.6720    1.0000 </r>
       <r>  -31.6644    1.0000 </r>
       <r>  -31.6407    1.0000 </r>
       <r>  -31.6379    1.0000 </r>
       <r>  -31.6261    1.0000 </r>
       <r>  -31.6166    1.0000 </r>
       <r>  -31.6152    1.0000 </r>
       <r>  -31.6150    1.0000 </r>
       <r>  -31.5981    1.0000 </r>
       <r>  -31.5907    1.0000 </r>
       <r>  -31.5906    1.0000 </r>
       <r>  -31.5734    1.0000 </r>
       <r>  -31.5649    1.0000 </r>
       <r>  -31.5523    1.0000 </r>
       <r>  -31.5522    1.0000 </r>
       <r>  -31.5381    1.0000 </r>
       <r>  -31.5291    1.0000 </r>
       <r>  -31.5232    1.0000 </r>
       <r>  -31.5094    1.0000 </r>
       <r>  -31.4905    1.0000 </r>
       <r>  -31.4875    1.0000 </r>
       <r>  -31.4769    1.0000 </r>
       <r>  -31.4600    1.0000 </r>
       <r>  -31.4514    1.0000 </r>
       <r>  -31.4383    1.0000 </r>
       <r>  -31.4377    1.0000 </r>
       <r>  -31.4288    1.0000 </r>
       <r>  -31.4196    1.0000 </r>
       <r>  -31.4136    1.0000 </r>
       <r>  -31.4109    1.0000 </r>
       <r>  -31.4097    1.0000 </r>
       <r>  -31.4079    1.0000 </r>
       <r>  -31.4048    1.0000 </r>
       <r>  -31.4007    1.0000 </r>
       <r>  -31.3922    1.0000 </r>
       <r>  -31.3835    1.0000 </r>
       <r>  -31.3638    1.0000 </r>
       <r>  -31.3633    1.0000 </r>
       <r>  -31.3567    1.0000 </r>
       <r>  -31.3540    1.0000 </r>
       <r>  -31.3517    1.0000 </r>
       <r>  -31.3477    1.0000 </r>
       <r>  -31.3404    1.0000 </r>
       <r>  -31.3209    1.0000 </r>
       <r>  -31.3142    1.0000 </r>
       <r>  -31.3095    1.0000 </r>
       <r>  -31.3048    1.0000 </r>
       <r>  -31.3030    1.0000 </r>
       <r>  -31.2963    1.0000 </r>
       <r>  -31.2897    1.0000 </r>
       <r>  -31.2893    1.0000 </r>
       <r>  -31.2849    1.0000 </r>
       <r>  -31.2844    1.0000 </r>
       <r>  -31.2759    1.0000 </r>
       <r>  -31.2731    1.0000 </r>
       <r>  -31.2607    1.0000 </r>
       <r>  -31.2599    1.0000 </r>
       <r>  -31.2544    1.0000 </r>
       <r>  -31.2489    1.0000 </r>
       <r>  -31.2460    1.0000 </r>
       <r>  -31.2365    1.0000 </r>
       <r>  -31.2362    1.0000 </r>
       <r>  -31.2316    1.0000 </r>
       <r>  -31.2295    1.0000 </r>
       <r>  -31.2290    1.0000 </r>
       <r>  -31.2275    1.0000 </r>
       <r>  -31.2247    1.0000 </r>
       <r>  -31.2208    1.0000 </r>
       <r>  -31.2126    1.0000 </r>
       <r>  -31.2092    1.0000 </r>
       <r>  -31.2041    1.0000 </r>
       <r>  -31.1955    1.0000 </r>
       <r>  -31.1860    1.0000 </r>
       <r>  -31.1628    1.0000 </r>
       <r>  -31.1491    1.0000 </r>
       <r>  -31.1472    1.0000 </r>
       <r>  -31.1339    1.0000 </r>
       <r>  -31.1287    1.0000 </r>
       <r>  -31.1236    1.0000 </r>
       <r>  -31.1227    1.0000 </r>
       <r>  -31.1217    1.0000 </r>
       <r>  -31.1195    1.0000 </r>
       <r>  -31.1101    1.0000 </r>
       <r>  -31.1090    1.0000 </r>
       <r>  -31.1081    1.0000 </r>
       <r>  -31.1071    1.0000 </r>
       <r>  -31.1069    1.0000 </r>
       <r>  -31.0936    1.0000 </r>
       <r>  -31.0892    1.0000 </r>
       <r>  -31.0852    1.0000 </r>
       <r>  -31.0825    1.0000 </r>
       <r>  -31.0651    1.0000 </r>
       <r>  -31.0645    1.0000 </r>
       <r>  -31.0624    1.0000 </r>
       <r>  -31.0592    1.0000 </r>
       <r>  -31.0587    1.0000 </r>
       <r>  -31.0471    1.0000 </r>
       <r>  -31.0372    1.0000 </r>
       <r>  -31.0356    1.0000 </r>
       <r>  -31.0332    1.0000 </r>
       <r>  -31.0319    1.0000 </r>
       <r>  -31.0307    1.0000 </r>
       <r>  -31.0197    1.0000 </r>
       <r>  -31.0139    1.0000 </r>
       <r>  -31.0115    1.0000 </r>
       <r>  -31.0114    1.0000 </r>
       <r>  -30.9853    1.0000 </r>
       <r>  -30.9616    1.0000 </r>
       <r>  -30.9579    1.0000 </r>
       <r>  -30.9437    1.0000 </r>
       <r>  -30.9285    1.0000 </r>
       <r>  -30.9145    1.0000 </r>
       <r>  -30.9057    1.0000 </r>
       <r>  -30.9039    1.0000 </r>
       <r>  -30.8868    1.0000 </r>
       <r>  -30.8650    1.0000 </r>
       <r>  -27.6584    1.0000 </r>
       <r>  -27.6420    1.0000 </r>
       <r>  -27.5496    1.0000 </r>
       <r>  -27.5225    1.0000 </r>
       <r>  -27.4906    1.0000 </r>
       <r>  -27.4877    1.0000 </r>
       <r>   -3.2577    1.0000 </r>
       <r>   -2.2782    1.0000 </r>
       <r>   -1.5986    1.0000 </r>
       <r>   -1.4667    1.0000 </r>
       <r>   -1.4474    1.0000 </r>
       <r>   -1.4468    1.0000 </r>
       <r>   -1.4449    1.0000 </r>
       <r>   -1.4360    1.0000 </r>
       <r>   -1.3726    1.0000 </r>
       <r>   -1.3673    1.0000 </r>
       <r>   -1.3561    1.0000 </r>
       <r>   -1.3558    1.0000 </r>
       <r>   -1.2450    1.0000 </r>
       <r>   -1.2293    1.0000 </r>
       <r>   -1.2096    1.0000 </r>
       <r>   -1.1932    1.0000 </r>
       <r>   -1.0487    1.0000 </r>
       <r>   -1.0383    1.0000 </r>
       <r>   -1.0352    1.0000 </r>
       <r>   -1.0313    1.0000 </r>
       <r>   -1.0262    1.0000 </r>
       <r>   -0.9971    1.0000 </r>
       <r>   -0.9254    1.0000 </r>
       <r>   -0.9146    1.0000 </r>
       <r>   -0.8884    1.0000 </r>
       <r>   -0.8718    1.0000 </r>
       <r>   -0.6884    1.0000 </r>
       <r>   -0.6305    1.0000 </r>
       <r>   -0.6293    1.0000 </r>
       <r>   -0.6047    1.0000 </r>
       <r>   -0.5982    1.0000 </r>
       <r>   -0.5823    1.0000 </r>
       <r>   -0.5767    1.0000 </r>
       <r>   -0.5749    1.0000 </r>
       <r>   -0.5680    1.0000 </r>
       <r>   -0.2235    1.0000 </r>
       <r>   -0.1815    1.0000 </r>
       <r>   -0.1794    1.0000 </r>
       <r>   -0.1607    1.0000 </r>
       <r>   -0.1585    1.0000 </r>
       <r>   -0.1465    1.0000 </r>
       <r>   -0.1359    1.0000 </r>
       <r>   -0.1316    1.0000 </r>
       <r>   -0.0766    1.0000 </r>
       <r>   -0.0646    1.0000 </r>
       <r>   -0.0382    1.0000 </r>
       <r>   -0.0260    1.0000 </r>
       <r>   -0.0248    1.0000 </r>
       <r>   -0.0181    1.0000 </r>
       <r>   -0.0160    1.0000 </r>
       <r>   -0.0067    1.0000 </r>
       <r>   -0.0041    1.0000 </r>
       <r>    0.0186    1.0000 </r>
       <r>    0.0362    1.0000 </r>
       <r>    0.0463    1.0000 </r>
       <r>    0.0489    1.0000 </r>
       <r>    0.0510    1.0000 </r>
       <r>    0.0813    1.0000 </r>
       <r>    0.0830    1.0000 </r>
       <r>    0.0834    1.0000 </r>
       <r>    0.0868    1.0000 </r>
       <r>    0.1626    1.0000 </r>
       <r>    0.3059    1.0000 </r>
       <r>    0.4191    1.0000 </r>
       <r>    0.4553    1.0000 </r>
       <r>    0.4674    1.0000 </r>
       <r>    0.5316    1.0000 </r>
       <r>    0.5374    1.0000 </r>
       <r>    0.5609    1.0000 </r>
       <r>    0.5619    1.0000 </r>
       <r>    0.5745    1.0000 </r>
       <r>    0.5782    1.0000 </r>
       <r>    0.5806    1.0000 </r>
       <r>    0.5898    1.0000 </r>
       <r>    0.6538    1.0000 </r>
       <r>    0.6743    1.0000 </r>
       <r>    0.6951    1.0000 </r>
       <r>    0.6953    1.0000 </r>
       <r>    0.7183    1.0000 </r>
       <r>    0.7381    1.0000 </r>
       <r>    0.7435    1.0000 </r>
       <r>    0.7526    1.0000 </r>
       <r>    0.7589    1.0000 </r>
       <r>    0.7746    1.0000 </r>
       <r>    0.7803    1.0000 </r>
       <r>    0.8011    1.0000 </r>
       <r>    0.8037    1.0000 </r>
       <r>    0.8259    1.0000 </r>
       <r>    0.8404    1.0000 </r>
       <r>    0.8454    1.0000 </r>
       <r>    0.8880    1.0000 </r>
       <r>    0.9028    1.0000 </r>
       <r>    0.9413    1.0000 </r>
       <r>    0.9517    1.0000 </r>
       <r>    0.9595    1.0000 </r>
       <r>    0.9938    1.0000 </r>
       <r>    1.0024    1.0000 </r>
       <r>    1.0273    1.0000 </r>
       <r>    1.0702    1.0000 </r>
       <r>    1.1139    1.0000 </r>
       <r>    1.1287    1.0000 </r>
       <r>    1.2053    1.0000 </r>
       <r>    1.2171    1.0000 </r>
       <r>    1.2285    1.0000 </r>
       <r>    1.2289    1.0000 </r>
       <r>    1.2376    1.0000 </r>
       <r>    1.2522    1.0000 </r>
       <r>    1.3259    1.0000 </r>
       <r>    1.3434    1.0000 </r>
       <r>    1.3617    1.0000 </r>
       <r>    1.3740    1.0000 </r>
       <r>    1.3841    1.0000 </r>
       <r>    1.4005    1.0000 </r>
       <r>    1.4077    1.0000 </r>
       <r>    1.4199    1.0000 </r>
       <r>    1.4499    1.0000 </r>
       <r>    1.4527    1.0000 </r>
       <r>    1.4639    1.0000 </r>
       <r>    1.4759    1.0000 </r>
       <r>    1.4796    1.0000 </r>
       <r>    1.5150    1.0000 </r>
       <r>    1.5262    1.0000 </r>
       <r>    1.5707    1.0000 </r>
       <r>    1.6732    1.0000 </r>
       <r>    1.6787    1.0000 </r>
       <r>    1.6851    1.0000 </r>
       <r>    1.7247    1.0000 </r>
       <r>    1.7586    1.0000 </r>
       <r>    1.7600    1.0000 </r>
       <r>    1.7811    1.0000 </r>
       <r>    1.8044    1.0000 </r>
       <r>    1.9519    1.0000 </r>
       <r>    1.9640    1.0000 </r>
       <r>    1.9772    1.0000 </r>
       <r>    1.9897    1.0000 </r>
       <r>    2.0197    1.0000 </r>
       <r>    2.0236    1.0000 </r>
       <r>    2.0639    1.0000 </r>
       <r>    2.0691    1.0000 </r>
       <r>    2.1026    1.0000 </r>
       <r>    2.1428    1.0000 </r>
       <r>    2.1639    1.0000 </r>
       <r>    2.1726    1.0000 </r>
       <r>    2.2106    1.0000 </r>
       <r>    2.2252    1.0000 </r>
       <r>    2.2263    1.0000 </r>
       <r>    2.2429    1.0000 </r>
       <r>    2.2493    1.0000 </r>
       <r>    2.2571    1.0000 </r>
       <r>    2.3196    1.0000 </r>
       <r>    2.3374    1.0000 </r>
       <r>    2.3509    1.0000 </r>
       <r>    2.3550    1.0000 </r>
       <r>    2.3639    1.0000 </r>
       <r>    2.3677    1.0000 </r>
       <r>    2.3822    1.0000 </r>
       <r>    2.3939    1.0000 </r>
       <r>    2.4106    1.0000 </r>
       <r>    2.4349    1.0000 </r>
       <r>    2.4861    1.0000 </r>
       <r>    2.5863    1.0000 </r>
       <r>    2.6478    1.0000 </r>
       <r>    2.6663    1.0000 </r>
       <r>    2.6689    1.0000 </r>
       <r>    2.6855    1.0000 </r>
       <r>    2.6902    1.0000 </r>
       <r>    2.7060    1.0000 </r>
       <r>    2.7389    1.0000 </r>
       <r>    2.7481    1.0000 </r>
       <r>    2.7795    1.0000 </r>
       <r>    2.7914    1.0000 </r>
       <r>    2.8414    1.0000 </r>
       <r>    2.8820    1.0000 </r>
       <r>    2.8987    1.0000 </r>
       <r>    2.9475    1.0000 </r>
       <r>    2.9610    1.0000 </r>
       <r>    3.2137    0.9999 </r>
       <r>    3.2190    0.9999 </r>
       <r>    3.2477    0.9995 </r>
       <r>    3.2485    0.9995 </r>
       <r>    3.3066    0.9934 </r>
       <r>    3.3192    0.9893 </r>
       <r>    3.3462    0.9725 </r>
       <r>    3.4087    0.8498 </r>
       <r>    3.4260    0.7853 </r>
       <r>    3.4809    0.5054 </r>
       <r>    3.4863    0.4750 </r>
       <r>    3.5201    0.2945 </r>
       <r>    3.5772    0.0889 </r>
       <r>    3.6239    0.0223 </r>
       <r>    3.6482    0.0093 </r>
       <r>    3.6896    0.0017 </r>
       <r>    3.7360    0.0002 </r>
       <r>    3.7361    0.0002 </r>
       <r>    3.7373    0.0002 </r>
       <r>    3.7379    0.0001 </r>
       <r>    3.7384    0.0001 </r>
       <r>    3.7644    0.0000 </r>
       <r>    3.7925    0.0000 </r>
       <r>    3.8057    0.0000 </r>
       <r>    3.8104    0.0000 </r>
       <r>    3.8231    0.0000 </r>
       <r>    3.8259    0.0000 </r>
       <r>    3.8381    0.0000 </r>
       <r>    3.8429    0.0000 </r>
       <r>    3.9502    0.0000 </r>
       <r>    3.9684    0.0000 </r>
       <r>    3.9715    0.0000 </r>
       <r>    3.9719    0.0000 </r>
       <r>    4.0302    0.0000 </r>
       <r>    4.0609    0.0000 </r>
       <r>    4.0734    0.0000 </r>
       <r>    4.0811    0.0000 </r>
       <r>    4.0911    0.0000 </r>
       <r>    4.0932    0.0000 </r>
       <r>    4.0993    0.0000 </r>
       <r>    4.1207    0.0000 </r>
       <r>    4.1614    0.0000 </r>
       <r>    4.2032    0.0000 </r>
       <r>    4.2361    0.0000 </r>
       <r>    4.3028    0.0000 </r>
       <r>    4.3566    0.0000 </r>
       <r>    4.3870    0.0000 </r>
       <r>    4.4210    0.0000 </r>
       <r>    4.4427    0.0000 </r>
       <r>    4.4788    0.0000 </r>
       <r>    4.5170    0.0000 </r>
       <r>    4.5360    0.0000 </r>
       <r>    4.5470    0.0000 </r>
       <r>    4.5501    0.0000 </r>
       <r>    4.5706    0.0000 </r>
       <r>    4.5710    0.0000 </r>
       <r>    4.6669    0.0000 </r>
       <r>    4.7036    0.0000 </r>
       <r>    4.7228    0.0000 </r>
       <r>    4.7326    0.0000 </r>
       <r>    4.7481    0.0000 </r>
       <r>    4.7570    0.0000 </r>
       <r>    4.7822    0.0000 </r>
       <r>    4.8077    0.0000 </r>
       <r>    4.8088    0.0000 </r>
       <r>    4.8185    0.0000 </r>
       <r>    4.8857    0.0000 </r>
       <r>    4.8937    0.0000 </r>
       <r>    4.8994    0.0000 </r>
       <r>    4.9174    0.0000 </r>
       <r>    4.9506    0.0000 </r>
       <r>    4.9859    0.0000 </r>
       <r>    5.0104    0.0000 </r>
       <r>    5.0596    0.0000 </r>
       <r>    5.0749    0.0000 </r>
       <r>    5.0970    0.0000 </r>
       <r>    5.1119    0.0000 </r>
       <r>    5.1280    0.0000 </r>
       <r>    5.2141    0.0000 </r>
       <r>    5.2367    0.0000 </r>
       <r>    5.2457    0.0000 </r>
       <r>    5.2737    0.0000 </r>
       <r>    5.2737    0.0000 </r>
       <r>    5.2754    0.0000 </r>
       <r>    5.3088    0.0000 </r>
       <r>    5.3297    0.0000 </r>
       <r>    5.3510    0.0000 </r>
       <r>    5.3526    0.0000 </r>
       <r>    5.3641    0.0000 </r>
       <r>    5.3812    0.0000 </r>
       <r>    5.3898    0.0000 </r>
       <r>    5.3984    0.0000 </r>
       <r>    5.3996    0.0000 </r>
       <r>    5.4418    0.0000 </r>
       <r>    5.4628    0.0000 </r>
       <r>    5.4642    0.0000 </r>
       <r>    5.5206    0.0000 </r>
       <r>    5.5386    0.0000 </r>
       <r>    5.5427    0.0000 </r>
       <r>    5.5514    0.0000 </r>
      </set>
      <set comment="kpoint 2">
       <r>  -57.7141    1.0000 </r>
       <r>  -57.6618    1.0000 </r>
       <r>  -57.6456    1.0000 </r>
       <r>  -57.6206    1.0000 </r>
       <r>  -57.6199    1.0000 </r>
       <r>  -57.6095    1.0000 </r>
       <r>  -57.5952    1.0000 </r>
       <r>  -57.5926    1.0000 </r>
       <r>  -57.5860    1.0000 </r>
       <r>  -57.5843    1.0000 </r>
       <r>  -57.5829    1.0000 </r>
       <r>  -57.5695    1.0000 </r>
       <r>  -57.5641    1.0000 </r>
       <r>  -57.5615    1.0000 </r>
       <r>  -57.5602    1.0000 </r>
       <r>  -57.5583    1.0000 </r>
       <r>  -57.5447    1.0000 </r>
       <r>  -57.5441    1.0000 </r>
       <r>  -57.4999    1.0000 </r>
       <r>  -57.4749    1.0000 </r>
       <r>  -57.4589    1.0000 </r>
       <r>  -57.4546    1.0000 </r>
       <r>  -57.4507    1.0000 </r>
       <r>  -57.4500    1.0000 </r>
       <r>  -57.4492    1.0000 </r>
       <r>  -57.4429    1.0000 </r>
       <r>  -57.4418    1.0000 </r>
       <r>  -57.4384    1.0000 </r>
       <r>  -57.4375    1.0000 </r>
       <r>  -57.4362    1.0000 </r>
       <r>  -57.4269    1.0000 </r>
       <r>  -57.4241    1.0000 </r>
       <r>  -57.4185    1.0000 </r>
       <r>  -57.4161    1.0000 </r>
       <r>  -57.4157    1.0000 </r>
       <r>  -57.4100    1.0000 </r>
       <r>  -57.4077    1.0000 </r>
       <r>  -57.4048    1.0000 </r>
       <r>  -57.4015    1.0000 </r>
       <r>  -57.3989    1.0000 </r>
       <r>  -57.3816    1.0000 </r>
       <r>  -57.3733    1.0000 </r>
       <r>  -57.3685    1.0000 </r>
       <r>  -57.3464    1.0000 </r>
       <r>  -57.3007    1.0000 </r>
       <r>  -57.2487    1.0000 </r>
       <r>  -57.2432    1.0000 </r>
       <r>  -57.2407    1.0000 </r>
       <r>  -57.2392    1.0000 </r>
       <r>  -57.2378    1.0000 </r>
       <r>  -57.2358    1.0000 </r>
       <r>  -57.2355    1.0000 </r>
       <r>  -57.2328    1.0000 </r>
       <r>  -57.2241    1.0000 </r>
       <r>  -57.2206    1.0000 </r>
       <r>  -57.2200    1.0000 </r>
       <r>  -57.2130    1.0000 </r>
       <r>  -57.1972    1.0000 </r>
       <r>  -57.1890    1.0000 </r>
       <r>  -57.1753    1.0000 </r>
       <r>  -57.1589    1.0000 </r>
       <r>  -51.5335    1.0000 </r>
       <r>  -51.4976    1.0000 </r>
       <r>  -32.3231    1.0000 </r>
       <r>  -32.3036    1.0000 </r>
       <r>  -32.2918    1.0000 </r>
       <r>  -32.2474    1.0000 </r>
       <r>  -32.2447    1.0000 </r>
       <r>  -32.2380    1.0000 </r>
       <r>  -32.2212    1.0000 </r>
       <r>  -32.2123    1.0000 </r>
       <r>  -32.1967    1.0000 </r>
       <r>  -32.1803    1.0000 </r>
       <r>  -32.1704    1.0000 </r>
       <r>  -32.1612    1.0000 </r>
       <r>  -32.1568    1.0000 </r>
       <r>  -32.1520    1.0000 </r>
       <r>  -32.1503    1.0000 </r>
       <r>  -32.1364    1.0000 </r>
       <r>  -32.1311    1.0000 </r>
       <r>  -32.1256    1.0000 </r>
       <r>  -32.1171    1.0000 </r>
       <r>  -32.1048    1.0000 </r>
       <r>  -32.1019    1.0000 </r>
       <r>  -32.0954    1.0000 </r>
       <r>  -32.0839    1.0000 </r>
       <r>  -32.0791    1.0000 </r>
       <r>  -32.0680    1.0000 </r>
       <r>  -32.0621    1.0000 </r>
       <r>  -32.0500    1.0000 </r>
       <r>  -32.0452    1.0000 </r>
       <r>  -32.0405    1.0000 </r>
       <r>  -32.0340    1.0000 </r>
       <r>  -32.0192    1.0000 </r>
       <r>  -32.0066    1.0000 </r>
       <r>  -31.9905    1.0000 </r>
       <r>  -31.9875    1.0000 </r>
       <r>  -31.9813    1.0000 </r>
       <r>  -31.9707    1.0000 </r>
       <r>  -31.9649    1.0000 </r>
       <r>  -31.9561    1.0000 </r>
       <r>  -31.9401    1.0000 </r>
       <r>  -31.9152    1.0000 </r>
       <r>  -31.9070    1.0000 </r>
       <r>  -31.8959    1.0000 </r>
       <r>  -31.8849    1.0000 </r>
       <r>  -31.8761    1.0000 </r>
       <r>  -31.8693    1.0000 </r>
       <r>  -31.8458    1.0000 </r>
       <r>  -31.8345    1.0000 </r>
       <r>  -31.8281    1.0000 </r>
       <r>  -31.8243    1.0000 </r>
       <r>  -31.8156    1.0000 </r>
       <r>  -31.8048    1.0000 </r>
       <r>  -31.7970    1.0000 </r>
       <r>  -31.7840    1.0000 </r>
       <r>  -31.7737    1.0000 </r>
       <r>  -31.7660    1.0000 </r>
       <r>  -31.7442    1.0000 </r>
       <r>  -31.7379    1.0000 </r>
       <r>  -31.7308    1.0000 </r>
       <r>  -31.7185    1.0000 </r>
       <r>  -31.7127    1.0000 </r>
       <r>  -31.7056    1.0000 </r>
       <r>  -31.6995    1.0000 </r>
       <r>  -31.6916    1.0000 </r>
       <r>  -31.6829    1.0000 </r>
       <r>  -31.6769    1.0000 </r>
       <r>  -31.6678    1.0000 </r>
       <r>  -31.6648    1.0000 </r>
       <r>  -31.6629    1.0000 </r>
       <r>  -31.6578    1.0000 </r>
       <r>  -31.6528    1.0000 </r>
       <r>  -31.6388    1.0000 </r>
       <r>  -31.6343    1.0000 </r>
       <r>  -31.6241    1.0000 </r>
       <r>  -31.6122    1.0000 </r>
       <r>  -31.6038    1.0000 </r>
       <r>  -31.5875    1.0000 </r>
       <r>  -31.5829    1.0000 </r>
       <r>  -31.5730    1.0000 </r>
       <r>  -31.5702    1.0000 </r>
       <r>  -31.5626    1.0000 </r>
       <r>  -31.5531    1.0000 </r>
       <r>  -31.5434    1.0000 </r>
       <r>  -31.5327    1.0000 </r>
       <r>  -31.5243    1.0000 </r>
       <r>  -31.5121    1.0000 </r>
       <r>  -31.5030    1.0000 </r>
       <r>  -31.4968    1.0000 </r>
       <r>  -31.4865    1.0000 </r>
       <r>  -31.4769    1.0000 </r>
       <r>  -31.4691    1.0000 </r>
       <r>  -31.4617    1.0000 </r>
       <r>  -31.4583    1.0000 </r>
       <r>  -31.4490    1.0000 </r>
       <r>  -31.4440    1.0000 </r>
       <r>  -31.4330    1.0000 </r>
       <r>  -31.4274    1.0000 </r>
       <r>  -31.4255    1.0000 </r>
       <r>  -31.4222    1.0000 </r>
       <r>  -31.4182    1.0000 </r>
       <r>  -31.4131    1.0000 </r>
       <r>  -31.4056    1.0000 </r>
       <r>  -31.4021    1.0000 </r>
       <r>  -31.3983    1.0000 </r>
       <r>  -31.3953    1.0000 </r>
       <r>  -31.3867    1.0000 </r>
       <r>  -31.3797    1.0000 </r>
       <r>  -31.3676    1.0000 </r>
       <r>  -31.3641    1.0000 </r>
       <r>  -31.3573    1.0000 </r>
       <r>  -31.3436    1.0000 </r>
       <r>  -31.3372    1.0000 </r>
       <r>  -31.3125    1.0000 </r>
       <r>  -31.3081    1.0000 </r>
       <r>  -31.3020    1.0000 </r>
       <r>  -31.2964    1.0000 </r>
       <r>  -31.2909    1.0000 </r>
       <r>  -31.2863    1.0000 </r>
       <r>  -31.2841    1.0000 </r>
       <r>  -31.2829    1.0000 </r>
       <r>  -31.2773    1.0000 </r>
       <r>  -31.2686    1.0000 </r>
       <r>  -31.2665    1.0000 </r>
       <r>  -31.2635    1.0000 </r>
       <r>  -31.2581    1.0000 </r>
       <r>  -31.2535    1.0000 </r>
       <r>  -31.2454    1.0000 </r>
       <r>  -31.2385    1.0000 </r>
       <r>  -31.2359    1.0000 </r>
       <r>  -31.2338    1.0000 </r>
       <r>  -31.2306    1.0000 </r>
       <r>  -31.2231    1.0000 </r>
       <r>  -31.2174    1.0000 </r>
       <r>  -31.2111    1.0000 </r>
       <r>  -31.2062    1.0000 </r>
       <r>  -31.2001    1.0000 </r>
       <r>  -31.1951    1.0000 </r>
       <r>  -31.1881    1.0000 </r>
       <r>  -31.1860    1.0000 </r>
       <r>  -31.1842    1.0000 </r>
       <r>  -31.1758    1.0000 </r>
       <r>  -31.1664    1.0000 </r>
       <r>  -31.1613    1.0000 </r>
       <r>  -31.1515    1.0000 </r>
       <r>  -31.1505    1.0000 </r>
       <r>  -31.1479    1.0000 </r>
       <r>  -31.1415    1.0000 </r>
       <r>  -31.1263    1.0000 </r>
       <r>  -31.1146    1.0000 </r>
       <r>  -31.1130    1.0000 </r>
       <r>  -31.1025    1.0000 </r>
       <r>  -31.0993    1.0000 </r>
       <r>  -31.0978    1.0000 </r>
       <r>  -31.0970    1.0000 </r>
       <r>  -31.0931    1.0000 </r>
       <r>  -31.0874    1.0000 </r>
       <r>  -31.0840    1.0000 </r>
       <r>  -31.0826    1.0000 </r>
       <r>  -31.0779    1.0000 </r>
       <r>  -31.0760    1.0000 </r>
       <r>  -31.0690    1.0000 </r>
       <r>  -31.0653    1.0000 </r>
       <r>  -31.0596    1.0000 </r>
       <r>  -31.0566    1.0000 </r>
       <r>  -31.0540    1.0000 </r>
       <r>  -31.0461    1.0000 </r>
       <r>  -31.0417    1.0000 </r>
       <r>  -31.0379    1.0000 </r>
       <r>  -31.0334    1.0000 </r>
       <r>  -31.0283    1.0000 </r>
       <r>  -31.0209    1.0000 </r>
       <r>  -31.0184    1.0000 </r>
       <r>  -31.0131    1.0000 </r>
       <r>  -31.0011    1.0000 </r>
       <r>  -30.9807    1.0000 </r>
       <r>  -30.9670    1.0000 </r>
       <r>  -30.9594    1.0000 </r>
       <r>  -30.9480    1.0000 </r>
       <r>  -30.9344    1.0000 </r>
       <r>  -30.9120    1.0000 </r>
       <r>  -30.9083    1.0000 </r>
       <r>  -30.9014    1.0000 </r>
       <r>  -30.8871    1.0000 </r>
       <r>  -30.8699    1.0000 </r>
       <r>  -27.6583    1.0000 </r>
       <r>  -27.6421    1.0000 </r>
       <r>  -27.5496    1.0000 </r>
       <r>  -27.5226    1.0000 </r>
       <r>  -27.4906    1.0000 </r>
       <r>  -27.4877    1.0000 </r>
       <r>   -3.1140    1.0000 </r>
       <r>   -2.1641    1.0000 </r>
       <r>   -2.0984    1.0000 </r>
       <r>   -1.5200    1.0000 </r>
       <r>   -1.4956    1.0000 </r>
       <r>   -1.4281    1.0000 </r>
       <r>   -1.4013    1.0000 </r>
       <r>   -1.3678    1.0000 </r>
       <r>   -1.3507    1.0000 </r>
       <r>   -1.3457    1.0000 </r>
       <r>   -1.2259    1.0000 </r>
       <r>   -1.2124    1.0000 </r>
       <r>   -1.1062    1.0000 </r>
       <r>   -1.0793    1.0000 </r>
       <r>   -1.0628    1.0000 </r>
       <r>   -1.0552    1.0000 </r>
       <r>   -1.0378    1.0000 </r>
       <r>   -1.0258    1.0000 </r>
       <r>   -1.0194    1.0000 </r>
       <r>   -0.9707    1.0000 </r>
       <r>   -0.9496    1.0000 </r>
       <r>   -0.9346    1.0000 </r>
       <r>   -0.9024    1.0000 </r>
       <r>   -0.8933    1.0000 </r>
       <r>   -0.8479    1.0000 </r>
       <r>   -0.8427    1.0000 </r>
       <r>   -0.8064    1.0000 </r>
       <r>   -0.7656    1.0000 </r>
       <r>   -0.7435    1.0000 </r>
       <r>   -0.5942    1.0000 </r>
       <r>   -0.5066    1.0000 </r>
       <r>   -0.4463    1.0000 </r>
       <r>   -0.4388    1.0000 </r>
       <r>   -0.3840    1.0000 </r>
       <r>   -0.3820    1.0000 </r>
       <r>   -0.3667    1.0000 </r>
       <r>   -0.3153    1.0000 </r>
       <r>   -0.3078    1.0000 </r>
       <r>   -0.3014    1.0000 </r>
       <r>   -0.2815    1.0000 </r>
       <r>   -0.2596    1.0000 </r>
       <r>   -0.2285    1.0000 </r>
       <r>   -0.2181    1.0000 </r>
       <r>   -0.1460    1.0000 </r>
       <r>   -0.1375    1.0000 </r>
       <r>   -0.0927    1.0000 </r>
       <r>   -0.0844    1.0000 </r>
       <r>   -0.0700    1.0000 </r>
       <r>   -0.0468    1.0000 </r>
       <r>   -0.0252    1.0000 </r>
       <r>   -0.0139    1.0000 </r>
       <r>   -0.0091    1.0000 </r>
       <r>    0.0152    1.0000 </r>
       <r>    0.0463    1.0000 </r>
       <r>    0.0489    1.0000 </r>
       <r>    0.0551    1.0000 </r>
       <r>    0.1809    1.0000 </r>
       <r>    0.1946    1.0000 </r>
       <r>    0.1953    1.0000 </r>
       <r>    0.2185    1.0000 </r>
       <r>    0.3164    1.0000 </r>
       <r>    0.3329    1.0000 </r>
       <r>    0.3366    1.0000 </r>
       <r>    0.3698    1.0000 </r>
       <r>    0.3806    1.0000 </r>
       <r>    0.3970    1.0000 </r>
       <r>    0.4049    1.0000 </r>
       <r>    0.4139    1.0000 </r>
       <r>    0.4240    1.0000 </r>
       <r>    0.4474    1.0000 </r>
       <r>    0.4849    1.0000 </r>
       <r>    0.5013    1.0000 </r>
       <r>    0.5164    1.0000 </r>
       <r>    0.5361    1.0000 </r>
       <r>    0.5437    1.0000 </r>
       <r>    0.5830    1.0000 </r>
       <r>    0.5906    1.0000 </r>
       <r>    0.6225    1.0000 </r>
       <r>    0.6454    1.0000 </r>
       <r>    0.6608    1.0000 </r>
       <r>    0.6741    1.0000 </r>
       <r>    0.6889    1.0000 </r>
       <r>    0.7027    1.0000 </r>
       <r>    0.7175    1.0000 </r>
       <r>    0.7296    1.0000 </r>
       <r>    0.7559    1.0000 </r>
       <r>    0.7642    1.0000 </r>
       <r>    0.7760    1.0000 </r>
       <r>    0.7979    1.0000 </r>
       <r>    0.8305    1.0000 </r>
       <r>    0.8494    1.0000 </r>
       <r>    0.8997    1.0000 </r>
       <r>    0.9101    1.0000 </r>
       <r>    0.9181    1.0000 </r>
       <r>    0.9345    1.0000 </r>
       <r>    0.9560    1.0000 </r>
       <r>    0.9657    1.0000 </r>
       <r>    1.0074    1.0000 </r>
       <r>    1.0215    1.0000 </r>
       <r>    1.0393    1.0000 </r>
       <r>    1.0698    1.0000 </r>
       <r>    1.0952    1.0000 </r>
       <r>    1.1287    1.0000 </r>
       <r>    1.1540    1.0000 </r>
       <r>    1.1808    1.0000 </r>
       <r>    1.1901    1.0000 </r>
       <r>    1.2091    1.0000 </r>
       <r>    1.2396    1.0000 </r>
       <r>    1.2566    1.0000 </r>
       <r>    1.3080    1.0000 </r>
       <r>    1.3561    1.0000 </r>
       <r>    1.3756    1.0000 </r>
       <r>    1.4333    1.0000 </r>
       <r>    1.4619    1.0000 </r>
       <r>    1.4763    1.0000 </r>
       <r>    1.4954    1.0000 </r>
       <r>    1.5112    1.0000 </r>
       <r>    1.5499    1.0000 </r>
       <r>    1.5600    1.0000 </r>
       <r>    1.5809    1.0000 </r>
       <r>    1.6466    1.0000 </r>
       <r>    1.6561    1.0000 </r>
       <r>    1.6716    1.0000 </r>
       <r>    1.6869    1.0000 </r>
       <r>    1.7030    1.0000 </r>
       <r>    1.7179    1.0000 </r>
       <r>    1.7560    1.0000 </r>
       <r>    1.7901    1.0000 </r>
       <r>    1.8004    1.0000 </r>
       <r>    1.8219    1.0000 </r>
       <r>    1.8535    1.0000 </r>
       <r>    1.8888    1.0000 </r>
       <r>    1.9138    1.0000 </r>
       <r>    1.9396    1.0000 </r>
       <r>    1.9548    1.0000 </r>
       <r>    1.9797    1.0000 </r>
       <r>    2.0002    1.0000 </r>
       <r>    2.0255    1.0000 </r>
       <r>    2.0350    1.0000 </r>
       <r>    2.0433    1.0000 </r>
       <r>    2.0884    1.0000 </r>
       <r>    2.1146    1.0000 </r>
       <r>    2.1408    1.0000 </r>
       <r>    2.1621    1.0000 </r>
       <r>    2.1823    1.0000 </r>
       <r>    2.2003    1.0000 </r>
       <r>    2.2118    1.0000 </r>
       <r>    2.2345    1.0000 </r>
       <r>    2.2544    1.0000 </r>
       <r>    2.2834    1.0000 </r>
       <r>    2.2987    1.0000 </r>
       <r>    2.3132    1.0000 </r>
       <r>    2.3198    1.0000 </r>
       <r>    2.3413    1.0000 </r>
       <r>    2.3921    1.0000 </r>
       <r>    2.4210    1.0000 </r>
       <r>    2.4363    1.0000 </r>
       <r>    2.4477    1.0000 </r>
       <r>    2.4793    1.0000 </r>
       <r>    2.5225    1.0000 </r>
       <r>    2.5436    1.0000 </r>
       <r>    2.6132    1.0000 </r>
       <r>    2.6277    1.0000 </r>
       <r>    2.6496    1.0000 </r>
       <r>    2.6813    1.0000 </r>
       <r>    2.7383    1.0000 </r>
       <r>    2.7678    1.0000 </r>
       <r>    2.7837    1.0000 </r>
       <r>    2.8340    1.0000 </r>
       <r>    2.8643    1.0000 </r>
       <r>    2.8711    1.0000 </r>
       <r>    2.8897    1.0000 </r>
       <r>    2.8986    1.0000 </r>
       <r>    2.9389    1.0000 </r>
       <r>    2.9788    1.0000 </r>
       <r>    3.0369    1.0000 </r>
       <r>    3.0790    1.0000 </r>
       <r>    3.0946    1.0000 </r>
       <r>    3.1183    1.0000 </r>
       <r>    3.1525    1.0000 </r>
       <r>    3.1775    1.0000 </r>
       <r>    3.2253    0.9999 </r>
       <r>    3.2778    0.9981 </r>
       <r>    3.3159    0.9906 </r>
       <r>    3.3607    0.9568 </r>
       <r>    3.3827    0.9197 </r>
       <r>    3.4086    0.8501 </r>
       <r>    3.4814    0.5029 </r>
       <r>    3.5127    0.3317 </r>
       <r>    3.5429    0.1943 </r>
       <r>    3.5582    0.1403 </r>
       <r>    3.5844    0.0736 </r>
       <r>    3.6613    0.0056 </r>
       <r>    3.7441    0.0001 </r>
       <r>    3.7746    0.0000 </r>
       <r>    3.8297    0.0000 </r>
       <r>    3.8597    0.0000 </r>
       <r>    3.8706    0.0000 </r>
       <r>    3.8803    0.0000 </r>
       <r>    3.8832    0.0000 </r>
       <r>    3.9136    0.0000 </r>
       <r>    3.9173    0.0000 </r>
       <r>    3.9395    0.0000 </r>
       <r>    3.9707    0.0000 </r>
       <r>    3.9897    0.0000 </r>
       <r>    3.9962    0.0000 </r>
       <r>    4.0316    0.0000 </r>
       <r>    4.0509    0.0000 </r>
       <r>    4.0969    0.0000 </r>
       <r>    4.1119    0.0000 </r>
       <r>    4.1336    0.0000 </r>
       <r>    4.1765    0.0000 </r>
       <r>    4.2138    0.0000 </r>
       <r>    4.2858    0.0000 </r>
       <r>    4.3218    0.0000 </r>
       <r>    4.3634    0.0000 </r>
       <r>    4.3792    0.0000 </r>
       <r>    4.4128    0.0000 </r>
       <r>    4.4214    0.0000 </r>
       <r>    4.4262    0.0000 </r>
       <r>    4.4336    0.0000 </r>
       <r>    4.4409    0.0000 </r>
       <r>    4.4541    0.0000 </r>
       <r>    4.4759    0.0000 </r>
       <r>    4.4954    0.0000 </r>
       <r>    4.5174    0.0000 </r>
       <r>    4.5429    0.0000 </r>
       <r>    4.5738    0.0000 </r>
       <r>    4.6063    0.0000 </r>
       <r>    4.6508    0.0000 </r>
       <r>    4.6621    0.0000 </r>
       <r>    4.6802    0.0000 </r>
       <r>    4.6928    0.0000 </r>
       <r>    4.6987    0.0000 </r>
       <r>    4.7242    0.0000 </r>
       <r>    4.7335    0.0000 </r>
       <r>    4.7367    0.0000 </r>
       <r>    4.7576    0.0000 </r>
       <r>    4.8042    0.0000 </r>
       <r>    4.8231    0.0000 </r>
       <r>    4.8344    0.0000 </r>
       <r>    4.8848    0.0000 </r>
       <r>    4.8948    0.0000 </r>
       <r>    4.9015    0.0000 </r>
       <r>    4.9068    0.0000 </r>
       <r>    4.9316    0.0000 </r>
       <r>    4.9448    0.0000 </r>
       <r>    4.9783    0.0000 </r>
       <r>    4.9915    0.0000 </r>
       <r>    5.0343    0.0000 </r>
       <r>    5.0668    0.0000 </r>
       <r>    5.0963    0.0000 </r>
       <r>    5.1182    0.0000 </r>
       <r>    5.1487    0.0000 </r>
       <r>    5.1796    0.0000 </r>
       <r>    5.1925    0.0000 </r>
       <r>    5.2071    0.0000 </r>
       <r>    5.2275    0.0000 </r>
       <r>    5.2405    0.0000 </r>
       <r>    5.2547    0.0000 </r>
       <r>    5.2776    0.0000 </r>
       <r>    5.2871    0.0000 </r>
       <r>    5.2929    0.0000 </r>
       <r>    5.3035    0.0000 </r>
       <r>    5.3170    0.0000 </r>
       <r>    5.3416    0.0000 </r>
       <r>    5.3540    0.0000 </r>
       <r>    5.3702    0.0000 </r>
       <r>    5.3858    0.0000 </r>
       <r>    5.3984    0.0000 </r>
       <r>    5.4151    0.0000 </r>
       <r>    5.4707    0.0000 </r>
       <r>    5.4836    0.0000 </r>
       <r>    5.5599    0.0000 </r>
       <r>    5.5696    0.0000 </r>
       <r>    5.5907    0.0000 </r>
      </set>
      <set comment="kpoint 3">
       <r>  -57.7141    1.0000 </r>
       <r>  -57.6618    1.0000 </r>
       <r>  -57.6456    1.0000 </r>
       <r>  -57.6206    1.0000 </r>
       <r>  -57.6199    1.0000 </r>
       <r>  -57.6095    1.0000 </r>
       <r>  -57.5952    1.0000 </r>
       <r>  -57.5926    1.0000 </r>
       <r>  -57.5860    1.0000 </r>
       <r>  -57.5843    1.0000 </r>
       <r>  -57.5829    1.0000 </r>
       <r>  -57.5695    1.0000 </r>
       <r>  -57.5641    1.0000 </r>
       <r>  -57.5615    1.0000 </r>
       <r>  -57.5602    1.0000 </r>
       <r>  -57.5583    1.0000 </r>
       <r>  -57.5447    1.0000 </r>
       <r>  -57.5441    1.0000 </r>
       <r>  -57.4999    1.0000 </r>
       <r>  -57.4749    1.0000 </r>
       <r>  -57.4589    1.0000 </r>
       <r>  -57.4546    1.0000 </r>
       <r>  -57.4507    1.0000 </r>
       <r>  -57.4500    1.0000 </r>
       <r>  -57.4492    1.0000 </r>
       <r>  -57.4429    1.0000 </r>
       <r>  -57.4418    1.0000 </r>
       <r>  -57.4384    1.0000 </r>
       <r>  -57.4375    1.0000 </r>
       <r>  -57.4362    1.0000 </r>
       <r>  -57.4269    1.0000 </r>
       <r>  -57.4241    1.0000 </r>
       <r>  -57.4185    1.0000 </r>
       <r>  -57.4161    1.0000 </r>
       <r>  -57.4157    1.0000 </r>
       <r>  -57.4100    1.0000 </r>
       <r>  -57.4077    1.0000 </r>
       <r>  -57.4048    1.0000 </r>
       <r>  -57.4015    1.0000 </r>
       <r>  -57.3989    1.0000 </r>
       <r>  -57.3816    1.0000 </r>
       <r>  -57.3733    1.0000 </r>
       <r>  -57.3685    1.0000 </r>
       <r>  -57.3464    1.0000 </r>
       <r>  -57.3007    1.0000 </r>
       <r>  -57.2487    1.0000 </r>
       <r>  -57.2432    1.0000 </r>
       <r>  -57.2407    1.0000 </r>
       <r>  -57.2392    1.0000 </r>
       <r>  -57.2378    1.0000 </r>
       <r>  -57.2358    1.0000 </r>
       <r>  -57.2355    1.0000 </r>
       <r>  -57.2328    1.0000 </r>
       <r>  -57.2241    1.0000 </r>
       <r>  -57.2206    1.0000 </r>
       <r>  -57.2200    1.0000 </r>
       <r>  -57.2130    1.0000 </r>
       <r>  -57.1972    1.0000 </r>
       <r>  -57.1890    1.0000 </r>
       <r>  -57.1753    1.0000 </r>
       <r>  -57.1589    1.0000 </r>
       <r>  -51.5335    1.0000 </r>
       <r>  -51.4976    1.0000 </r>
       <r>  -32.3231    1.0000 </r>
       <r>  -32.3036    1.0000 </r>
       <r>  -32.2918    1.0000 </r>
       <r>  -32.2474    1.0000 </r>
       <r>  -32.2447    1.0000 </r>
       <r>  -32.2380    1.0000 </r>
       <r>  -32.2212    1.0000 </r>
       <r>  -32.2123    1.0000 </r>
       <r>  -32.1967    1.0000 </r>
       <r>  -32.1803    1.0000 </r>
       <r>  -32.1704    1.0000 </r>
       <r>  -32.1612    1.0000 </r>
       <r>  -32.1568    1.0000 </r>
       <r>  -32.1520    1.0000 </r>
       <r>  -32.1503    1.0000 </r>
       <r>  -32.1364    1.0000 </r>
       <r>  -32.1311    1.0000 </r>
       <r>  -32.1256    1.0000 </r>
       <r>  -32.1171    1.0000 </r>
       <r>  -32.1048    1.0000 </r>
       <r>  -32.1019    1.0000 </r>
       <r>  -32.0954    1.0000 </r>
       <r>  -32.0839    1.0000 </r>
       <r>  -32.0791    1.0000 </r>
       <r>  -32.0680    1.0000 </r>
       <r>  -32.0621    1.0000 </r>
       <r>  -32.0500    1.0000 </r>
       <r>  -32.0452    1.0000 </r>
       <r>  -32.0405    1.0000 </r>
       <r>  -32.0340    1.0000 </r>
       <r>  -32.0192    1.0000 </r>
       <r>  -32.0066    1.0000 </r>
       <r>  -31.9905    1.0000 </r>
       <r>  -31.9875    1.0000 </r>
       <r>  -31.9813    1.0000 </r>
       <r>  -31.9707    1.0000 </r>
       <r>  -31.9649    1.0000 </r>
       <r>  -31.9561    1.0000 </r>
       <r>  -31.9401    1.0000 </r>
       <r>  -31.9152    1.0000 </r>
       <r>  -31.9070    1.0000 </r>
       <r>  -31.8959    1.0000 </r>
       <r>  -31.8849    1.0000 </r>
       <r>  -31.8761    1.0000 </r>
       <r>  -31.8693    1.0000 </r>
       <r>  -31.8458    1.0000 </r>
       <r>  -31.8345    1.0000 </r>
       <r>  -31.8281    1.0000 </r>
       <r>  -31.8243    1.0000 </r>
       <r>  -31.8156    1.0000 </r>
       <r>  -31.8048    1.0000 </r>
       <r>  -31.7970    1.0000 </r>
       <r>  -31.7840    1.0000 </r>
       <r>  -31.7737    1.0000 </r>
       <r>  -31.7660    1.0000 </r>
       <r>  -31.7442    1.0000 </r>
       <r>  -31.7379    1.0000 </r>
       <r>  -31.7308    1.0000 </r>
       <r>  -31.7185    1.0000 </r>
       <r>  -31.7127    1.0000 </r>
       <r>  -31.7056    1.0000 </r>
       <r>  -31.6995    1.0000 </r>
       <r>  -31.6916    1.0000 </r>
       <r>  -31.6829    1.0000 </r>
       <r>  -31.6769    1.0000 </r>
       <r>  -31.6678    1.0000 </r>
       <r>  -31.6648    1.0000 </r>
       <r>  -31.6629    1.0000 </r>
       <r>  -31.6578    1.0000 </r>
       <r>  -31.6528    1.0000 </r>
       <r>  -31.6388    1.0000 </r>
       <r>  -31.6343    1.0000 </r>
       <r>  -31.6241    1.0000 </r>
       <r>  -31.6122    1.0000 </r>
       <r>  -31.6038    1.0000 </r>
       <r>  -31.5875    1.0000 </r>
       <r>  -31.5829    1.0000 </r>
       <r>  -31.5730    1.0000 </r>
       <r>  -31.5702    1.0000 </r>
       <r>  -31.5626    1.0000 </r>
       <r>  -31.5530    1.0000 </r>
       <r>  -31.5434    1.0000 </r>
       <r>  -31.5327    1.0000 </r>
       <r>  -31.5243    1.0000 </r>
       <r>  -31.5121    1.0000 </r>
       <r>  -31.5030    1.0000 </r>
       <r>  -31.4968    1.0000 </r>
       <r>  -31.4865    1.0000 </r>
       <r>  -31.4768    1.0000 </r>
       <r>  -31.4691    1.0000 </r>
       <r>  -31.4617    1.0000 </r>
       <r>  -31.4583    1.0000 </r>
       <r>  -31.4490    1.0000 </r>
       <r>  -31.4440    1.0000 </r>
       <r>  -31.4330    1.0000 </r>
       <r>  -31.4274    1.0000 </r>
       <r>  -31.4255    1.0000 </r>
       <r>  -31.4222    1.0000 </r>
       <r>  -31.4182    1.0000 </r>
       <r>  -31.4131    1.0000 </r>
       <r>  -31.4056    1.0000 </r>
       <r>  -31.4021    1.0000 </r>
       <r>  -31.3983    1.0000 </r>
       <r>  -31.3953    1.0000 </r>
       <r>  -31.3867    1.0000 </r>
       <r>  -31.3797    1.0000 </r>
       <r>  -31.3676    1.0000 </r>
       <r>  -31.3641    1.0000 </r>
       <r>  -31.3573    1.0000 </r>
       <r>  -31.3436    1.0000 </r>
       <r>  -31.3372    1.0000 </r>
       <r>  -31.3125    1.0000 </r>
       <r>  -31.3081    1.0000 </r>
       <r>  -31.3020    1.0000 </r>
       <r>  -31.2964    1.0000 </r>
       <r>  -31.2909    1.0000 </r>
       <r>  -31.2863    1.0000 </r>
       <r>  -31.2841    1.0000 </r>
       <r>  -31.2829    1.0000 </r>
       <r>  -31.2773    1.0000 </r>
       <r>  -31.2686    1.0000 </r>
       <r>  -31.2665    1.0000 </r>
       <r>  -31.2635    1.0000 </r>
       <r>  -31.2581    1.0000 </r>
       <r>  -31.2535    1.0000 </r>
       <r>  -31.2454    1.0000 </r>
       <r>  -31.2385    1.0000 </r>
       <r>  -31.2359    1.0000 </r>
       <r>  -31.2338    1.0000 </r>
       <r>  -31.2306    1.0000 </r>
       <r>  -31.2231    1.0000 </r>
       <r>  -31.2174    1.0000 </r>
       <r>  -31.2111    1.0000 </r>
       <r>  -31.2062    1.0000 </r>
       <r>  -31.2001    1.0000 </r>
       <r>  -31.1951    1.0000 </r>
       <r>  -31.1881    1.0000 </r>
       <r>  -31.1860    1.0000 </r>
       <r>  -31.1842    1.0000 </r>
       <r>  -31.1758    1.0000 </r>
       <r>  -31.1664    1.0000 </r>
       <r>  -31.1613    1.0000 </r>
       <r>  -31.1515    1.0000 </r>
       <r>  -31.1505    1.0000 </r>
       <r>  -31.1479    1.0000 </r>
       <r>  -31.1415    1.0000 </r>
       <r>  -31.1263    1.0000 </r>
       <r>  -31.1146    1.0000 </r>
       <r>  -31.1130    1.0000 </r>
       <r>  -31.1025    1.0000 </r>
       <r>  -31.0993    1.0000 </r>
       <r>  -31.0978    1.0000 </r>
       <r>  -31.0970    1.0000 </r>
       <r>  -31.0931    1.0000 </r>
       <r>  -31.0874    1.0000 </r>
       <r>  -31.0840    1.0000 </r>
       <r>  -31.0826    1.0000 </r>
       <r>  -31.0779    1.0000 </r>
       <r>  -31.0760    1.0000 </r>
       <r>  -31.0690    1.0000 </r>
       <r>  -31.0653    1.0000 </r>
       <r>  -31.0596    1.0000 </r>
       <r>  -31.0566    1.0000 </r>
       <r>  -31.0540    1.0000 </r>
       <r>  -31.0461    1.0000 </r>
       <r>  -31.0417    1.0000 </r>
       <r>  -31.0379    1.0000 </r>
       <r>  -31.0334    1.0000 </r>
       <r>  -31.0283    1.0000 </r>
       <r>  -31.0209    1.0000 </r>
       <r>  -31.0184    1.0000 </r>
       <r>  -31.0131    1.0000 </r>
       <r>  -31.0012    1.0000 </r>
       <r>  -30.9807    1.0000 </r>
       <r>  -30.9670    1.0000 </r>
       <r>  -30.9594    1.0000 </r>
       <r>  -30.9480    1.0000 </r>
       <r>  -30.9344    1.0000 </r>
       <r>  -30.9120    1.0000 </r>
       <r>  -30.9083    1.0000 </r>
       <r>  -30.9014    1.0000 </r>
       <r>  -30.8871    1.0000 </r>
       <r>  -30.8699    1.0000 </r>
       <r>  -27.6583    1.0000 </r>
       <r>  -27.6421    1.0000 </r>
       <r>  -27.5496    1.0000 </r>
       <r>  -27.5226    1.0000 </r>
       <r>  -27.4906    1.0000 </r>
       <r>  -27.4877    1.0000 </r>
       <r>   -3.1140    1.0000 </r>
       <r>   -2.1641    1.0000 </r>
       <r>   -2.0984    1.0000 </r>
       <r>   -1.5200    1.0000 </r>
       <r>   -1.4956    1.0000 </r>
       <r>   -1.4281    1.0000 </r>
       <r>   -1.4013    1.0000 </r>
       <r>   -1.3678    1.0000 </r>
       <r>   -1.3507    1.0000 </r>
       <r>   -1.3457    1.0000 </r>
       <r>   -1.2259    1.0000 </r>
       <r>   -1.2124    1.0000 </r>
       <r>   -1.1062    1.0000 </r>
       <r>   -1.0793    1.0000 </r>
       <r>   -1.0628    1.0000 </r>
       <r>   -1.0552    1.0000 </r>
       <r>   -1.0378    1.0000 </r>
       <r>   -1.0258    1.0000 </r>
       <r>   -1.0194    1.0000 </r>
       <r>   -0.9707    1.0000 </r>
       <r>   -0.9496    1.0000 </r>
       <r>   -0.9346    1.0000 </r>
       <r>   -0.9024    1.0000 </r>
       <r>   -0.8933    1.0000 </r>
       <r>   -0.8479    1.0000 </r>
       <r>   -0.8427    1.0000 </r>
       <r>   -0.8064    1.0000 </r>
       <r>   -0.7656    1.0000 </r>
       <r>   -0.7435    1.0000 </r>
       <r>   -0.5942    1.0000 </r>
       <r>   -0.5066    1.0000 </r>
       <r>   -0.4463    1.0000 </r>
       <r>   -0.4388    1.0000 </r>
       <r>   -0.3840    1.0000 </r>
       <r>   -0.3820    1.0000 </r>
       <r>   -0.3667    1.0000 </r>
       <r>   -0.3153    1.0000 </r>
       <r>   -0.3078    1.0000 </r>
       <r>   -0.3014    1.0000 </r>
       <r>   -0.2815    1.0000 </r>
       <r>   -0.2596    1.0000 </r>
       <r>   -0.2285    1.0000 </r>
       <r>   -0.2181    1.0000 </r>
       <r>   -0.1460    1.0000 </r>
       <r>   -0.1375    1.0000 </r>
       <r>   -0.0927    1.0000 </r>
       <r>   -0.0844    1.0000 </r>
       <r>   -0.0700    1.0000 </r>
       <r>   -0.0468    1.0000 </r>
       <r>   -0.0252    1.0000 </r>
       <r>   -0.0139    1.0000 </r>
       <r>   -0.0091    1.0000 </r>
       <r>    0.0152    1.0000 </r>
       <r>    0.0463    1.0000 </r>
       <r>    0.0489    1.0000 </r>
       <r>    0.0551    1.0000 </r>
       <r>    0.1809    1.0000 </r>
       <r>    0.1946    1.0000 </r>
       <r>    0.1953    1.0000 </r>
       <r>    0.2185    1.0000 </r>
       <r>    0.3164    1.0000 </r>
       <r>    0.3329    1.0000 </r>
       <r>    0.3366    1.0000 </r>
       <r>    0.3698    1.0000 </r>
       <r>    0.3806    1.0000 </r>
       <r>    0.3970    1.0000 </r>
       <r>    0.4049    1.0000 </r>
       <r>    0.4139    1.0000 </r>
       <r>    0.4240    1.0000 </r>
       <r>    0.4474    1.0000 </r>
       <r>    0.4849    1.0000 </r>
       <r>    0.5013    1.0000 </r>
       <r>    0.5164    1.0000 </r>
       <r>    0.5361    1.0000 </r>
       <r>    0.5437    1.0000 </r>
       <r>    0.5830    1.0000 </r>
       <r>    0.5906    1.0000 </r>
       <r>    0.6225    1.0000 </r>
       <r>    0.6454    1.0000 </r>
       <r>    0.6608    1.0000 </r>
       <r>    0.6741    1.0000 </r>
       <r>    0.6889    1.0000 </r>
       <r>    0.7027    1.0000 </r>
       <r>    0.7175    1.0000 </r>
       <r>    0.7296    1.0000 </r>
       <r>    0.7559    1.0000 </r>
       <r>    0.7642    1.0000 </r>
       <r>    0.7760    1.0000 </r>
       <r>    0.7979    1.0000 </r>
       <r>    0.8304    1.0000 </r>
       <r>    0.8494    1.0000 </r>
       <r>    0.8997    1.0000 </r>
       <r>    0.9101    1.0000 </r>
       <r>    0.9181    1.0000 </r>
       <r>    0.9345    1.0000 </r>
       <r>    0.9560    1.0000 </r>
       <r>    0.9657    1.0000 </r>
       <r>    1.0074    1.0000 </r>
       <r>    1.0215    1.0000 </r>
       <r>    1.0393    1.0000 </r>
       <r>    1.0698    1.0000 </r>
       <r>    1.0952    1.0000 </r>
       <r>    1.1287    1.0000 </r>
       <r>    1.1540    1.0000 </r>
       <r>    1.1808    1.0000 </r>
       <r>    1.1901    1.0000 </r>
       <r>    1.2091    1.0000 </r>
       <r>    1.2396    1.0000 </r>
       <r>    1.2566    1.0000 </r>
       <r>    1.3080    1.0000 </r>
       <r>    1.3561    1.0000 </r>
       <r>    1.3756    1.0000 </r>
       <r>    1.4333    1.0000 </r>
       <r>    1.4619    1.0000 </r>
       <r>    1.4763    1.0000 </r>
       <r>    1.4954    1.0000 </r>
       <r>    1.5112    1.0000 </r>
       <r>    1.5499    1.0000 </r>
       <r>    1.5600    1.0000 </r>
       <r>    1.5809    1.0000 </r>
       <r>    1.6466    1.0000 </r>
       <r>    1.6561    1.0000 </r>
       <r>    1.6716    1.0000 </r>
       <r>    1.6870    1.0000 </r>
       <r>    1.7030    1.0000 </r>
       <r>    1.7179    1.0000 </r>
       <r>    1.7560    1.0000 </r>
       <r>    1.7901    1.0000 </r>
       <r>    1.8004    1.0000 </r>
       <r>    1.8219    1.0000 </r>
       <r>    1.8535    1.0000 </r>
       <r>    1.8888    1.0000 </r>
       <r>    1.9139    1.0000 </r>
       <r>    1.9396    1.0000 </r>
       <r>    1.9548    1.0000 </r>
       <r>    1.9797    1.0000 </r>
       <r>    2.0002    1.0000 </r>
       <r>    2.0255    1.0000 </r>
       <r>    2.0350    1.0000 </r>
       <r>    2.0433    1.0000 </r>
       <r>    2.0884    1.0000 </r>
       <r>    2.1146    1.0000 </r>
       <r>    2.1408    1.0000 </r>
       <r>    2.1621    1.0000 </r>
       <r>    2.1823    1.0000 </r>
       <r>    2.2003    1.0000 </r>
       <r>    2.2118    1.0000 </r>
       <r>    2.2344    1.0000 </r>
       <r>    2.2544    1.0000 </r>
       <r>    2.2834    1.0000 </r>
       <r>    2.2987    1.0000 </r>
       <r>    2.3132    1.0000 </r>
       <r>    2.3198    1.0000 </r>
       <r>    2.3414    1.0000 </r>
       <r>    2.3921    1.0000 </r>
       <r>    2.4210    1.0000 </r>
       <r>    2.4363    1.0000 </r>
       <r>    2.4477    1.0000 </r>
       <r>    2.4793    1.0000 </r>
       <r>    2.5225    1.0000 </r>
       <r>    2.5436    1.0000 </r>
       <r>    2.6132    1.0000 </r>
       <r>    2.6277    1.0000 </r>
       <r>    2.6496    1.0000 </r>
       <r>    2.6813    1.0000 </r>
       <r>    2.7383    1.0000 </r>
       <r>    2.7678    1.0000 </r>
       <r>    2.7837    1.0000 </r>
       <r>    2.8340    1.0000 </r>
       <r>    2.8643    1.0000 </r>
       <r>    2.8711    1.0000 </r>
       <r>    2.8897    1.0000 </r>
       <r>    2.8986    1.0000 </r>
       <r>    2.9389    1.0000 </r>
       <r>    2.9788    1.0000 </r>
       <r>    3.0369    1.0000 </r>
       <r>    3.0790    1.0000 </r>
       <r>    3.0946    1.0000 </r>
       <r>    3.1183    1.0000 </r>
       <r>    3.1525    1.0000 </r>
       <r>    3.1775    1.0000 </r>
       <r>    3.2253    0.9999 </r>
       <r>    3.2778    0.9981 </r>
       <r>    3.3159    0.9906 </r>
       <r>    3.3607    0.9568 </r>
       <r>    3.3827    0.9197 </r>
       <r>    3.4086    0.8501 </r>
       <r>    3.4814    0.5029 </r>
       <r>    3.5127    0.3316 </r>
       <r>    3.5428    0.1944 </r>
       <r>    3.5582    0.1403 </r>
       <r>    3.5844    0.0736 </r>
       <r>    3.6613    0.0056 </r>
       <r>    3.7441    0.0001 </r>
       <r>    3.7746    0.0000 </r>
       <r>    3.8297    0.0000 </r>
       <r>    3.8597    0.0000 </r>
       <r>    3.8706    0.0000 </r>
       <r>    3.8803    0.0000 </r>
       <r>    3.8832    0.0000 </r>
       <r>    3.9136    0.0000 </r>
       <r>    3.9173    0.0000 </r>
       <r>    3.9395    0.0000 </r>
       <r>    3.9707    0.0000 </r>
       <r>    3.9897    0.0000 </r>
       <r>    3.9962    0.0000 </r>
       <r>    4.0316    0.0000 </r>
       <r>    4.0509    0.0000 </r>
       <r>    4.0969    0.0000 </r>
       <r>    4.1119    0.0000 </r>
       <r>    4.1336    0.0000 </r>
       <r>    4.1764    0.0000 </r>
       <r>    4.2138    0.0000 </r>
       <r>    4.2858    0.0000 </r>
       <r>    4.3218    0.0000 </r>
       <r>    4.3634    0.0000 </r>
       <r>    4.3792    0.0000 </r>
       <r>    4.4128    0.0000 </r>
       <r>    4.4214    0.0000 </r>
       <r>    4.4262    0.0000 </r>
       <r>    4.4336    0.0000 </r>
       <r>    4.4409    0.0000 </r>
       <r>    4.4541    0.0000 </r>
       <r>    4.4759    0.0000 </r>
       <r>    4.4954    0.0000 </r>
       <r>    4.5174    0.0000 </r>
       <r>    4.5429    0.0000 </r>
       <r>    4.5738    0.0000 </r>
       <r>    4.6063    0.0000 </r>
       <r>    4.6508    0.0000 </r>
       <r>    4.6621    0.0000 </r>
       <r>    4.6802    0.0000 </r>
       <r>    4.6928    0.0000 </r>
       <r>    4.6987    0.0000 </r>
       <r>    4.7242    0.0000 </r>
       <r>    4.7335    0.0000 </r>
       <r>    4.7367    0.0000 </r>
       <r>    4.7576    0.0000 </r>
       <r>    4.8042    0.0000 </r>
       <r>    4.8231    0.0000 </r>
       <r>    4.8344    0.0000 </r>
       <r>    4.8848    0.0000 </r>
       <r>    4.8948    0.0000 </r>
       <r>    4.9015    0.0000 </r>
       <r>    4.9068    0.0000 </r>
       <r>    4.9316    0.0000 </r>
       <r>    4.9448    0.0000 </r>
       <r>    4.9782    0.0000 </r>
       <r>    4.9915    0.0000 </r>
       <r>    5.0343    0.0000 </r>
       <r>    5.0668    0.0000 </r>
       <r>    5.0963    0.0000 </r>
       <r>    5.1182    0.0000 </r>
       <r>    5.1487    0.0000 </r>
       <r>    5.1796    0.0000 </r>
       <r>    5.1925    0.0000 </r>
       <r>    5.2071    0.0000 </r>
       <r>    5.2275    0.0000 </r>
       <r>    5.2405    0.0000 </r>
       <r>    5.2547    0.0000 </r>
       <r>    5.2776    0.0000 </r>
       <r>    5.2871    0.0000 </r>
       <r>    5.2929    0.0000 </r>
       <r>    5.3035    0.0000 </r>
       <r>    5.3170    0.0000 </r>
       <r>    5.3416    0.0000 </r>
       <r>    5.3540    0.0000 </r>
       <r>    5.3702    0.0000 </r>
       <r>    5.3858    0.0000 </r>
       <r>    5.3984    0.0000 </r>
       <r>    5.4151    0.0000 </r>
       <r>    5.4714    0.0000 </r>
       <r>    5.4821    0.0000 </r>
       <r>    5.5648    0.0000 </r>
       <r>    5.5792    0.0000 </r>
       <r>    5.5955    0.0000 </r>
      </set>
      <set comment="kpoint 4">
       <r>  -57.6944    1.0000 </r>
       <r>  -57.6922    1.0000 </r>
       <r>  -57.6339    1.0000 </r>
       <r>  -57.6277    1.0000 </r>
       <r>  -57.6135    1.0000 </r>
       <r>  -57.6116    1.0000 </r>
       <r>  -57.6058    1.0000 </r>
       <r>  -57.6048    1.0000 </r>
       <r>  -57.5830    1.0000 </r>
       <r>  -57.5792    1.0000 </r>
       <r>  -57.5717    1.0000 </r>
       <r>  -57.5705    1.0000 </r>
       <r>  -57.5697    1.0000 </r>
       <r>  -57.5565    1.0000 </r>
       <r>  -57.5547    1.0000 </r>
       <r>  -57.5541    1.0000 </r>
       <r>  -57.5420    1.0000 </r>
       <r>  -57.5414    1.0000 </r>
       <r>  -57.4959    1.0000 </r>
       <r>  -57.4813    1.0000 </r>
       <r>  -57.4576    1.0000 </r>
       <r>  -57.4554    1.0000 </r>
       <r>  -57.4530    1.0000 </r>
       <r>  -57.4478    1.0000 </r>
       <r>  -57.4475    1.0000 </r>
       <r>  -57.4466    1.0000 </r>
       <r>  -57.4452    1.0000 </r>
       <r>  -57.4386    1.0000 </r>
       <r>  -57.4377    1.0000 </r>
       <r>  -57.4367    1.0000 </r>
       <r>  -57.4316    1.0000 </r>
       <r>  -57.4290    1.0000 </r>
       <r>  -57.4188    1.0000 </r>
       <r>  -57.4169    1.0000 </r>
       <r>  -57.4153    1.0000 </r>
       <r>  -57.4075    1.0000 </r>
       <r>  -57.4051    1.0000 </r>
       <r>  -57.4047    1.0000 </r>
       <r>  -57.4013    1.0000 </r>
       <r>  -57.4006    1.0000 </r>
       <r>  -57.3776    1.0000 </r>
       <r>  -57.3737    1.0000 </r>
       <r>  -57.3579    1.0000 </r>
       <r>  -57.3535    1.0000 </r>
       <r>  -57.3008    1.0000 </r>
       <r>  -57.2507    1.0000 </r>
       <r>  -57.2431    1.0000 </r>
       <r>  -57.2403    1.0000 </r>
       <r>  -57.2394    1.0000 </r>
       <r>  -57.2387    1.0000 </r>
       <r>  -57.2356    1.0000 </r>
       <r>  -57.2351    1.0000 </r>
       <r>  -57.2265    1.0000 </r>
       <r>  -57.2264    1.0000 </r>
       <r>  -57.2252    1.0000 </r>
       <r>  -57.2209    1.0000 </r>
       <r>  -57.2127    1.0000 </r>
       <r>  -57.1961    1.0000 </r>
       <r>  -57.1887    1.0000 </r>
       <r>  -57.1698    1.0000 </r>
       <r>  -57.1633    1.0000 </r>
       <r>  -51.5335    1.0000 </r>
       <r>  -51.4976    1.0000 </r>
       <r>  -32.3345    1.0000 </r>
       <r>  -32.3134    1.0000 </r>
       <r>  -32.2932    1.0000 </r>
       <r>  -32.2553    1.0000 </r>
       <r>  -32.2293    1.0000 </r>
       <r>  -32.2234    1.0000 </r>
       <r>  -32.2175    1.0000 </r>
       <r>  -32.2028    1.0000 </r>
       <r>  -32.1944    1.0000 </r>
       <r>  -32.1823    1.0000 </r>
       <r>  -32.1762    1.0000 </r>
       <r>  -32.1671    1.0000 </r>
       <r>  -32.1619    1.0000 </r>
       <r>  -32.1593    1.0000 </r>
       <r>  -32.1517    1.0000 </r>
       <r>  -32.1472    1.0000 </r>
       <r>  -32.1376    1.0000 </r>
       <r>  -32.1326    1.0000 </r>
       <r>  -32.1257    1.0000 </r>
       <r>  -32.1047    1.0000 </r>
       <r>  -32.0971    1.0000 </r>
       <r>  -32.0830    1.0000 </r>
       <r>  -32.0776    1.0000 </r>
       <r>  -32.0721    1.0000 </r>
       <r>  -32.0668    1.0000 </r>
       <r>  -32.0592    1.0000 </r>
       <r>  -32.0570    1.0000 </r>
       <r>  -32.0534    1.0000 </r>
       <r>  -32.0454    1.0000 </r>
       <r>  -32.0426    1.0000 </r>
       <r>  -32.0390    1.0000 </r>
       <r>  -32.0345    1.0000 </r>
       <r>  -32.0198    1.0000 </r>
       <r>  -32.0026    1.0000 </r>
       <r>  -31.9644    1.0000 </r>
       <r>  -31.9544    1.0000 </r>
       <r>  -31.9417    1.0000 </r>
       <r>  -31.9350    1.0000 </r>
       <r>  -31.9216    1.0000 </r>
       <r>  -31.9042    1.0000 </r>
       <r>  -31.8969    1.0000 </r>
       <r>  -31.8838    1.0000 </r>
       <r>  -31.8659    1.0000 </r>
       <r>  -31.8577    1.0000 </r>
       <r>  -31.8521    1.0000 </r>
       <r>  -31.8473    1.0000 </r>
       <r>  -31.8413    1.0000 </r>
       <r>  -31.8213    1.0000 </r>
       <r>  -31.8075    1.0000 </r>
       <r>  -31.8062    1.0000 </r>
       <r>  -31.8031    1.0000 </r>
       <r>  -31.7978    1.0000 </r>
       <r>  -31.7842    1.0000 </r>
       <r>  -31.7812    1.0000 </r>
       <r>  -31.7592    1.0000 </r>
       <r>  -31.7517    1.0000 </r>
       <r>  -31.7423    1.0000 </r>
       <r>  -31.7339    1.0000 </r>
       <r>  -31.7205    1.0000 </r>
       <r>  -31.7177    1.0000 </r>
       <r>  -31.7138    1.0000 </r>
       <r>  -31.7092    1.0000 </r>
       <r>  -31.7045    1.0000 </r>
       <r>  -31.6933    1.0000 </r>
       <r>  -31.6813    1.0000 </r>
       <r>  -31.6673    1.0000 </r>
       <r>  -31.6636    1.0000 </r>
       <r>  -31.6592    1.0000 </r>
       <r>  -31.6485    1.0000 </r>
       <r>  -31.6376    1.0000 </r>
       <r>  -31.6335    1.0000 </r>
       <r>  -31.6256    1.0000 </r>
       <r>  -31.6139    1.0000 </r>
       <r>  -31.6015    1.0000 </r>
       <r>  -31.6001    1.0000 </r>
       <r>  -31.5868    1.0000 </r>
       <r>  -31.5795    1.0000 </r>
       <r>  -31.5588    1.0000 </r>
       <r>  -31.5442    1.0000 </r>
       <r>  -31.5413    1.0000 </r>
       <r>  -31.5381    1.0000 </r>
       <r>  -31.5265    1.0000 </r>
       <r>  -31.5260    1.0000 </r>
       <r>  -31.5231    1.0000 </r>
       <r>  -31.5212    1.0000 </r>
       <r>  -31.5107    1.0000 </r>
       <r>  -31.5093    1.0000 </r>
       <r>  -31.5005    1.0000 </r>
       <r>  -31.4875    1.0000 </r>
       <r>  -31.4855    1.0000 </r>
       <r>  -31.4839    1.0000 </r>
       <r>  -31.4653    1.0000 </r>
       <r>  -31.4627    1.0000 </r>
       <r>  -31.4616    1.0000 </r>
       <r>  -31.4532    1.0000 </r>
       <r>  -31.4467    1.0000 </r>
       <r>  -31.4439    1.0000 </r>
       <r>  -31.4355    1.0000 </r>
       <r>  -31.4304    1.0000 </r>
       <r>  -31.4257    1.0000 </r>
       <r>  -31.4103    1.0000 </r>
       <r>  -31.4084    1.0000 </r>
       <r>  -31.4029    1.0000 </r>
       <r>  -31.3985    1.0000 </r>
       <r>  -31.3968    1.0000 </r>
       <r>  -31.3895    1.0000 </r>
       <r>  -31.3751    1.0000 </r>
       <r>  -31.3639    1.0000 </r>
       <r>  -31.3561    1.0000 </r>
       <r>  -31.3528    1.0000 </r>
       <r>  -31.3335    1.0000 </r>
       <r>  -31.3210    1.0000 </r>
       <r>  -31.3167    1.0000 </r>
       <r>  -31.3112    1.0000 </r>
       <r>  -31.3084    1.0000 </r>
       <r>  -31.3026    1.0000 </r>
       <r>  -31.2974    1.0000 </r>
       <r>  -31.2897    1.0000 </r>
       <r>  -31.2811    1.0000 </r>
       <r>  -31.2753    1.0000 </r>
       <r>  -31.2638    1.0000 </r>
       <r>  -31.2431    1.0000 </r>
       <r>  -31.2419    1.0000 </r>
       <r>  -31.2398    1.0000 </r>
       <r>  -31.2386    1.0000 </r>
       <r>  -31.2370    1.0000 </r>
       <r>  -31.2340    1.0000 </r>
       <r>  -31.2300    1.0000 </r>
       <r>  -31.2245    1.0000 </r>
       <r>  -31.2189    1.0000 </r>
       <r>  -31.2173    1.0000 </r>
       <r>  -31.2125    1.0000 </r>
       <r>  -31.2105    1.0000 </r>
       <r>  -31.2064    1.0000 </r>
       <r>  -31.2002    1.0000 </r>
       <r>  -31.1945    1.0000 </r>
       <r>  -31.1890    1.0000 </r>
       <r>  -31.1812    1.0000 </r>
       <r>  -31.1698    1.0000 </r>
       <r>  -31.1643    1.0000 </r>
       <r>  -31.1618    1.0000 </r>
       <r>  -31.1600    1.0000 </r>
       <r>  -31.1548    1.0000 </r>
       <r>  -31.1498    1.0000 </r>
       <r>  -31.1415    1.0000 </r>
       <r>  -31.1357    1.0000 </r>
       <r>  -31.1328    1.0000 </r>
       <r>  -31.1230    1.0000 </r>
       <r>  -31.1171    1.0000 </r>
       <r>  -31.1078    1.0000 </r>
       <r>  -31.1076    1.0000 </r>
       <r>  -31.0895    1.0000 </r>
       <r>  -31.0821    1.0000 </r>
       <r>  -31.0795    1.0000 </r>
       <r>  -31.0790    1.0000 </r>
       <r>  -31.0781    1.0000 </r>
       <r>  -31.0771    1.0000 </r>
       <r>  -31.0757    1.0000 </r>
       <r>  -31.0739    1.0000 </r>
       <r>  -31.0637    1.0000 </r>
       <r>  -31.0609    1.0000 </r>
       <r>  -31.0597    1.0000 </r>
       <r>  -31.0580    1.0000 </r>
       <r>  -31.0572    1.0000 </r>
       <r>  -31.0530    1.0000 </r>
       <r>  -31.0473    1.0000 </r>
       <r>  -31.0456    1.0000 </r>
       <r>  -31.0424    1.0000 </r>
       <r>  -31.0318    1.0000 </r>
       <r>  -31.0285    1.0000 </r>
       <r>  -31.0259    1.0000 </r>
       <r>  -31.0159    1.0000 </r>
       <r>  -30.9859    1.0000 </r>
       <r>  -30.9817    1.0000 </r>
       <r>  -30.9735    1.0000 </r>
       <r>  -30.9581    1.0000 </r>
       <r>  -30.9542    1.0000 </r>
       <r>  -30.9404    1.0000 </r>
       <r>  -30.9115    1.0000 </r>
       <r>  -30.9064    1.0000 </r>
       <r>  -30.9020    1.0000 </r>
       <r>  -30.8838    1.0000 </r>
       <r>  -30.8779    1.0000 </r>
       <r>  -27.6583    1.0000 </r>
       <r>  -27.6421    1.0000 </r>
       <r>  -27.5496    1.0000 </r>
       <r>  -27.5226    1.0000 </r>
       <r>  -27.4906    1.0000 </r>
       <r>  -27.4877    1.0000 </r>
       <r>   -2.7083    1.0000 </r>
       <r>   -2.7009    1.0000 </r>
       <r>   -1.8700    1.0000 </r>
       <r>   -1.8550    1.0000 </r>
       <r>   -1.4873    1.0000 </r>
       <r>   -1.4467    1.0000 </r>
       <r>   -1.2758    1.0000 </r>
       <r>   -1.2502    1.0000 </r>
       <r>   -1.1583    1.0000 </r>
       <r>   -1.1545    1.0000 </r>
       <r>   -1.1418    1.0000 </r>
       <r>   -1.1315    1.0000 </r>
       <r>   -1.0462    1.0000 </r>
       <r>   -1.0323    1.0000 </r>
       <r>   -1.0215    1.0000 </r>
       <r>   -1.0117    1.0000 </r>
       <r>   -0.9892    1.0000 </r>
       <r>   -0.9837    1.0000 </r>
       <r>   -0.9423    1.0000 </r>
       <r>   -0.8993    1.0000 </r>
       <r>   -0.8787    1.0000 </r>
       <r>   -0.8410    1.0000 </r>
       <r>   -0.8346    1.0000 </r>
       <r>   -0.8188    1.0000 </r>
       <r>   -0.8149    1.0000 </r>
       <r>   -0.8048    1.0000 </r>
       <r>   -0.7940    1.0000 </r>
       <r>   -0.7872    1.0000 </r>
       <r>   -0.7169    1.0000 </r>
       <r>   -0.7017    1.0000 </r>
       <r>   -0.6868    1.0000 </r>
       <r>   -0.6675    1.0000 </r>
       <r>   -0.4173    1.0000 </r>
       <r>   -0.4021    1.0000 </r>
       <r>   -0.3744    1.0000 </r>
       <r>   -0.3645    1.0000 </r>
       <r>   -0.3402    1.0000 </r>
       <r>   -0.3340    1.0000 </r>
       <r>   -0.3047    1.0000 </r>
       <r>   -0.2769    1.0000 </r>
       <r>   -0.2607    1.0000 </r>
       <r>   -0.2311    1.0000 </r>
       <r>   -0.2242    1.0000 </r>
       <r>   -0.2082    1.0000 </r>
       <r>   -0.2028    1.0000 </r>
       <r>   -0.1837    1.0000 </r>
       <r>   -0.1757    1.0000 </r>
       <r>   -0.1571    1.0000 </r>
       <r>   -0.1469    1.0000 </r>
       <r>   -0.0575    1.0000 </r>
       <r>   -0.0512    1.0000 </r>
       <r>    0.0223    1.0000 </r>
       <r>    0.0350    1.0000 </r>
       <r>    0.0476    1.0000 </r>
       <r>    0.0688    1.0000 </r>
       <r>    0.1214    1.0000 </r>
       <r>    0.1357    1.0000 </r>
       <r>    0.1437    1.0000 </r>
       <r>    0.1512    1.0000 </r>
       <r>    0.2167    1.0000 </r>
       <r>    0.2560    1.0000 </r>
       <r>    0.2896    1.0000 </r>
       <r>    0.3145    1.0000 </r>
       <r>    0.3600    1.0000 </r>
       <r>    0.4063    1.0000 </r>
       <r>    0.4159    1.0000 </r>
       <r>    0.4294    1.0000 </r>
       <r>    0.4352    1.0000 </r>
       <r>    0.4503    1.0000 </r>
       <r>    0.4514    1.0000 </r>
       <r>    0.4517    1.0000 </r>
       <r>    0.4635    1.0000 </r>
       <r>    0.4806    1.0000 </r>
       <r>    0.5270    1.0000 </r>
       <r>    0.5516    1.0000 </r>
       <r>    0.5637    1.0000 </r>
       <r>    0.5732    1.0000 </r>
       <r>    0.5934    1.0000 </r>
       <r>    0.6051    1.0000 </r>
       <r>    0.6104    1.0000 </r>
       <r>    0.6145    1.0000 </r>
       <r>    0.6243    1.0000 </r>
       <r>    0.6474    1.0000 </r>
       <r>    0.6770    1.0000 </r>
       <r>    0.6851    1.0000 </r>
       <r>    0.6883    1.0000 </r>
       <r>    0.7058    1.0000 </r>
       <r>    0.7180    1.0000 </r>
       <r>    0.7545    1.0000 </r>
       <r>    0.7748    1.0000 </r>
       <r>    0.7802    1.0000 </r>
       <r>    0.7957    1.0000 </r>
       <r>    0.8157    1.0000 </r>
       <r>    0.8183    1.0000 </r>
       <r>    0.8347    1.0000 </r>
       <r>    0.8609    1.0000 </r>
       <r>    0.8805    1.0000 </r>
       <r>    0.9467    1.0000 </r>
       <r>    1.0633    1.0000 </r>
       <r>    1.0781    1.0000 </r>
       <r>    1.0894    1.0000 </r>
       <r>    1.1326    1.0000 </r>
       <r>    1.1398    1.0000 </r>
       <r>    1.1615    1.0000 </r>
       <r>    1.1732    1.0000 </r>
       <r>    1.2098    1.0000 </r>
       <r>    1.2140    1.0000 </r>
       <r>    1.2380    1.0000 </r>
       <r>    1.2891    1.0000 </r>
       <r>    1.3710    1.0000 </r>
       <r>    1.3827    1.0000 </r>
       <r>    1.3996    1.0000 </r>
       <r>    1.4262    1.0000 </r>
       <r>    1.4601    1.0000 </r>
       <r>    1.4816    1.0000 </r>
       <r>    1.4882    1.0000 </r>
       <r>    1.5043    1.0000 </r>
       <r>    1.5385    1.0000 </r>
       <r>    1.5429    1.0000 </r>
       <r>    1.5592    1.0000 </r>
       <r>    1.5762    1.0000 </r>
       <r>    1.5881    1.0000 </r>
       <r>    1.6026    1.0000 </r>
       <r>    1.6058    1.0000 </r>
       <r>    1.6425    1.0000 </r>
       <r>    1.6568    1.0000 </r>
       <r>    1.6602    1.0000 </r>
       <r>    1.8503    1.0000 </r>
       <r>    1.8783    1.0000 </r>
       <r>    1.8822    1.0000 </r>
       <r>    1.9022    1.0000 </r>
       <r>    1.9191    1.0000 </r>
       <r>    1.9428    1.0000 </r>
       <r>    1.9653    1.0000 </r>
       <r>    1.9738    1.0000 </r>
       <r>    1.9933    1.0000 </r>
       <r>    1.9984    1.0000 </r>
       <r>    2.0088    1.0000 </r>
       <r>    2.0135    1.0000 </r>
       <r>    2.0234    1.0000 </r>
       <r>    2.0450    1.0000 </r>
       <r>    2.0559    1.0000 </r>
       <r>    2.0743    1.0000 </r>
       <r>    2.0844    1.0000 </r>
       <r>    2.0929    1.0000 </r>
       <r>    2.1082    1.0000 </r>
       <r>    2.1305    1.0000 </r>
       <r>    2.1907    1.0000 </r>
       <r>    2.2007    1.0000 </r>
       <r>    2.2159    1.0000 </r>
       <r>    2.2570    1.0000 </r>
       <r>    2.2765    1.0000 </r>
       <r>    2.2796    1.0000 </r>
       <r>    2.2950    1.0000 </r>
       <r>    2.3006    1.0000 </r>
       <r>    2.3125    1.0000 </r>
       <r>    2.4302    1.0000 </r>
       <r>    2.5943    1.0000 </r>
       <r>    2.6028    1.0000 </r>
       <r>    2.6527    1.0000 </r>
       <r>    2.6885    1.0000 </r>
       <r>    2.7070    1.0000 </r>
       <r>    2.7271    1.0000 </r>
       <r>    2.7401    1.0000 </r>
       <r>    2.7581    1.0000 </r>
       <r>    2.7699    1.0000 </r>
       <r>    2.7998    1.0000 </r>
       <r>    2.8187    1.0000 </r>
       <r>    2.8436    1.0000 </r>
       <r>    2.8680    1.0000 </r>
       <r>    2.8879    1.0000 </r>
       <r>    2.9130    1.0000 </r>
       <r>    2.9521    1.0000 </r>
       <r>    2.9841    1.0000 </r>
       <r>    3.0484    1.0000 </r>
       <r>    3.0616    1.0000 </r>
       <r>    3.0716    1.0000 </r>
       <r>    3.1325    1.0000 </r>
       <r>    3.1612    1.0000 </r>
       <r>    3.1712    1.0000 </r>
       <r>    3.1765    1.0000 </r>
       <r>    3.1809    1.0000 </r>
       <r>    3.2343    0.9998 </r>
       <r>    3.2985    0.9952 </r>
       <r>    3.3393    0.9781 </r>
       <r>    3.3526    0.9662 </r>
       <r>    3.3702    0.9429 </r>
       <r>    3.4101    0.8450 </r>
       <r>    3.4632    0.6042 </r>
       <r>    3.5045    0.3749 </r>
       <r>    3.5268    0.2628 </r>
       <r>    3.6326    0.0165 </r>
       <r>    3.6395    0.0129 </r>
       <r>    3.6765    0.0030 </r>
       <r>    3.6906    0.0016 </r>
       <r>    3.7366    0.0002 </r>
       <r>    3.7605    0.0000 </r>
       <r>    3.7971    0.0000 </r>
       <r>    3.8172    0.0000 </r>
       <r>    3.8561    0.0000 </r>
       <r>    3.9141    0.0000 </r>
       <r>    3.9153    0.0000 </r>
       <r>    4.0458    0.0000 </r>
       <r>    4.0668    0.0000 </r>
       <r>    4.0946    0.0000 </r>
       <r>    4.1341    0.0000 </r>
       <r>    4.1528    0.0000 </r>
       <r>    4.1644    0.0000 </r>
       <r>    4.2153    0.0000 </r>
       <r>    4.2220    0.0000 </r>
       <r>    4.2445    0.0000 </r>
       <r>    4.2573    0.0000 </r>
       <r>    4.2914    0.0000 </r>
       <r>    4.3045    0.0000 </r>
       <r>    4.3359    0.0000 </r>
       <r>    4.3572    0.0000 </r>
       <r>    4.5071    0.0000 </r>
       <r>    4.5335    0.0000 </r>
       <r>    4.5680    0.0000 </r>
       <r>    4.5776    0.0000 </r>
       <r>    4.5888    0.0000 </r>
       <r>    4.5921    0.0000 </r>
       <r>    4.5935    0.0000 </r>
       <r>    4.6016    0.0000 </r>
       <r>    4.6157    0.0000 </r>
       <r>    4.6232    0.0000 </r>
       <r>    4.6370    0.0000 </r>
       <r>    4.6403    0.0000 </r>
       <r>    4.6578    0.0000 </r>
       <r>    4.6837    0.0000 </r>
       <r>    4.7054    0.0000 </r>
       <r>    4.7138    0.0000 </r>
       <r>    4.7341    0.0000 </r>
       <r>    4.7457    0.0000 </r>
       <r>    4.8162    0.0000 </r>
       <r>    4.8335    0.0000 </r>
       <r>    4.8446    0.0000 </r>
       <r>    4.8725    0.0000 </r>
       <r>    4.8827    0.0000 </r>
       <r>    4.8997    0.0000 </r>
       <r>    4.9150    0.0000 </r>
       <r>    4.9306    0.0000 </r>
       <r>    4.9341    0.0000 </r>
       <r>    4.9346    0.0000 </r>
       <r>    4.9540    0.0000 </r>
       <r>    4.9593    0.0000 </r>
       <r>    4.9635    0.0000 </r>
       <r>    4.9781    0.0000 </r>
       <r>    5.0140    0.0000 </r>
       <r>    5.0322    0.0000 </r>
       <r>    5.0454    0.0000 </r>
       <r>    5.0632    0.0000 </r>
       <r>    5.0807    0.0000 </r>
       <r>    5.0922    0.0000 </r>
       <r>    5.1072    0.0000 </r>
       <r>    5.1135    0.0000 </r>
       <r>    5.1757    0.0000 </r>
       <r>    5.1949    0.0000 </r>
       <r>    5.1992    0.0000 </r>
       <r>    5.2143    0.0000 </r>
       <r>    5.2469    0.0000 </r>
       <r>    5.2757    0.0000 </r>
       <r>    5.3019    0.0000 </r>
       <r>    5.3355    0.0000 </r>
       <r>    5.3456    0.0000 </r>
       <r>    5.3469    0.0000 </r>
       <r>    5.3796    0.0000 </r>
       <r>    5.3905    0.0000 </r>
       <r>    5.3949    0.0000 </r>
       <r>    5.4124    0.0000 </r>
       <r>    5.4239    0.0000 </r>
       <r>    5.4309    0.0000 </r>
       <r>    5.4458    0.0000 </r>
       <r>    5.4882    0.0000 </r>
       <r>    5.5301    0.0000 </r>
       <r>    5.5753    0.0000 </r>
      </set>
      <set comment="kpoint 5">
       <r>  -57.6944    1.0000 </r>
       <r>  -57.6922    1.0000 </r>
       <r>  -57.6339    1.0000 </r>
       <r>  -57.6277    1.0000 </r>
       <r>  -57.6135    1.0000 </r>
       <r>  -57.6116    1.0000 </r>
       <r>  -57.6058    1.0000 </r>
       <r>  -57.6048    1.0000 </r>
       <r>  -57.5830    1.0000 </r>
       <r>  -57.5792    1.0000 </r>
       <r>  -57.5717    1.0000 </r>
       <r>  -57.5705    1.0000 </r>
       <r>  -57.5697    1.0000 </r>
       <r>  -57.5565    1.0000 </r>
       <r>  -57.5547    1.0000 </r>
       <r>  -57.5541    1.0000 </r>
       <r>  -57.5420    1.0000 </r>
       <r>  -57.5414    1.0000 </r>
       <r>  -57.4959    1.0000 </r>
       <r>  -57.4813    1.0000 </r>
       <r>  -57.4576    1.0000 </r>
       <r>  -57.4554    1.0000 </r>
       <r>  -57.4530    1.0000 </r>
       <r>  -57.4478    1.0000 </r>
       <r>  -57.4475    1.0000 </r>
       <r>  -57.4466    1.0000 </r>
       <r>  -57.4452    1.0000 </r>
       <r>  -57.4386    1.0000 </r>
       <r>  -57.4377    1.0000 </r>
       <r>  -57.4367    1.0000 </r>
       <r>  -57.4316    1.0000 </r>
       <r>  -57.4290    1.0000 </r>
       <r>  -57.4189    1.0000 </r>
       <r>  -57.4168    1.0000 </r>
       <r>  -57.4153    1.0000 </r>
       <r>  -57.4075    1.0000 </r>
       <r>  -57.4051    1.0000 </r>
       <r>  -57.4047    1.0000 </r>
       <r>  -57.4013    1.0000 </r>
       <r>  -57.4006    1.0000 </r>
       <r>  -57.3776    1.0000 </r>
       <r>  -57.3737    1.0000 </r>
       <r>  -57.3579    1.0000 </r>
       <r>  -57.3535    1.0000 </r>
       <r>  -57.3008    1.0000 </r>
       <r>  -57.2507    1.0000 </r>
       <r>  -57.2431    1.0000 </r>
       <r>  -57.2403    1.0000 </r>
       <r>  -57.2394    1.0000 </r>
       <r>  -57.2387    1.0000 </r>
       <r>  -57.2356    1.0000 </r>
       <r>  -57.2351    1.0000 </r>
       <r>  -57.2265    1.0000 </r>
       <r>  -57.2264    1.0000 </r>
       <r>  -57.2252    1.0000 </r>
       <r>  -57.2209    1.0000 </r>
       <r>  -57.2127    1.0000 </r>
       <r>  -57.1961    1.0000 </r>
       <r>  -57.1887    1.0000 </r>
       <r>  -57.1698    1.0000 </r>
       <r>  -57.1633    1.0000 </r>
       <r>  -51.5335    1.0000 </r>
       <r>  -51.4976    1.0000 </r>
       <r>  -32.3345    1.0000 </r>
       <r>  -32.3134    1.0000 </r>
       <r>  -32.2932    1.0000 </r>
       <r>  -32.2553    1.0000 </r>
       <r>  -32.2293    1.0000 </r>
       <r>  -32.2234    1.0000 </r>
       <r>  -32.2175    1.0000 </r>
       <r>  -32.2028    1.0000 </r>
       <r>  -32.1944    1.0000 </r>
       <r>  -32.1823    1.0000 </r>
       <r>  -32.1762    1.0000 </r>
       <r>  -32.1671    1.0000 </r>
       <r>  -32.1619    1.0000 </r>
       <r>  -32.1593    1.0000 </r>
       <r>  -32.1517    1.0000 </r>
       <r>  -32.1472    1.0000 </r>
       <r>  -32.1376    1.0000 </r>
       <r>  -32.1326    1.0000 </r>
       <r>  -32.1257    1.0000 </r>
       <r>  -32.1047    1.0000 </r>
       <r>  -32.0971    1.0000 </r>
       <r>  -32.0830    1.0000 </r>
       <r>  -32.0776    1.0000 </r>
       <r>  -32.0721    1.0000 </r>
       <r>  -32.0668    1.0000 </r>
       <r>  -32.0592    1.0000 </r>
       <r>  -32.0570    1.0000 </r>
       <r>  -32.0534    1.0000 </r>
       <r>  -32.0454    1.0000 </r>
       <r>  -32.0426    1.0000 </r>
       <r>  -32.0390    1.0000 </r>
       <r>  -32.0345    1.0000 </r>
       <r>  -32.0199    1.0000 </r>
       <r>  -32.0026    1.0000 </r>
       <r>  -31.9644    1.0000 </r>
       <r>  -31.9545    1.0000 </r>
       <r>  -31.9417    1.0000 </r>
       <r>  -31.9350    1.0000 </r>
       <r>  -31.9216    1.0000 </r>
       <r>  -31.9042    1.0000 </r>
       <r>  -31.8969    1.0000 </r>
       <r>  -31.8838    1.0000 </r>
       <r>  -31.8659    1.0000 </r>
       <r>  -31.8577    1.0000 </r>
       <r>  -31.8521    1.0000 </r>
       <r>  -31.8473    1.0000 </r>
       <r>  -31.8413    1.0000 </r>
       <r>  -31.8213    1.0000 </r>
       <r>  -31.8075    1.0000 </r>
       <r>  -31.8062    1.0000 </r>
       <r>  -31.8031    1.0000 </r>
       <r>  -31.7978    1.0000 </r>
       <r>  -31.7842    1.0000 </r>
       <r>  -31.7812    1.0000 </r>
       <r>  -31.7592    1.0000 </r>
       <r>  -31.7517    1.0000 </r>
       <r>  -31.7423    1.0000 </r>
       <r>  -31.7339    1.0000 </r>
       <r>  -31.7205    1.0000 </r>
       <r>  -31.7177    1.0000 </r>
       <r>  -31.7138    1.0000 </r>
       <r>  -31.7092    1.0000 </r>
       <r>  -31.7045    1.0000 </r>
       <r>  -31.6933    1.0000 </r>
       <r>  -31.6813    1.0000 </r>
       <r>  -31.6673    1.0000 </r>
       <r>  -31.6636    1.0000 </r>
       <r>  -31.6592    1.0000 </r>
       <r>  -31.6485    1.0000 </r>
       <r>  -31.6376    1.0000 </r>
       <r>  -31.6335    1.0000 </r>
       <r>  -31.6256    1.0000 </r>
       <r>  -31.6139    1.0000 </r>
       <r>  -31.6015    1.0000 </r>
       <r>  -31.6001    1.0000 </r>
       <r>  -31.5868    1.0000 </r>
       <r>  -31.5795    1.0000 </r>
       <r>  -31.5588    1.0000 </r>
       <r>  -31.5442    1.0000 </r>
       <r>  -31.5413    1.0000 </r>
       <r>  -31.5381    1.0000 </r>
       <r>  -31.5265    1.0000 </r>
       <r>  -31.5260    1.0000 </r>
       <r>  -31.5232    1.0000 </r>
       <r>  -31.5212    1.0000 </r>
       <r>  -31.5107    1.0000 </r>
       <r>  -31.5093    1.0000 </r>
       <r>  -31.5005    1.0000 </r>
       <r>  -31.4875    1.0000 </r>
       <r>  -31.4855    1.0000 </r>
       <r>  -31.4839    1.0000 </r>
       <r>  -31.4653    1.0000 </r>
       <r>  -31.4627    1.0000 </r>
       <r>  -31.4616    1.0000 </r>
       <r>  -31.4532    1.0000 </r>
       <r>  -31.4467    1.0000 </r>
       <r>  -31.4439    1.0000 </r>
       <r>  -31.4355    1.0000 </r>
       <r>  -31.4304    1.0000 </r>
       <r>  -31.4257    1.0000 </r>
       <r>  -31.4103    1.0000 </r>
       <r>  -31.4085    1.0000 </r>
       <r>  -31.4029    1.0000 </r>
       <r>  -31.3985    1.0000 </r>
       <r>  -31.3968    1.0000 </r>
       <r>  -31.3895    1.0000 </r>
       <r>  -31.3751    1.0000 </r>
       <r>  -31.3639    1.0000 </r>
       <r>  -31.3561    1.0000 </r>
       <r>  -31.3528    1.0000 </r>
       <r>  -31.3335    1.0000 </r>
       <r>  -31.3210    1.0000 </r>
       <r>  -31.3167    1.0000 </r>
       <r>  -31.3112    1.0000 </r>
       <r>  -31.3084    1.0000 </r>
       <r>  -31.3026    1.0000 </r>
       <r>  -31.2974    1.0000 </r>
       <r>  -31.2897    1.0000 </r>
       <r>  -31.2811    1.0000 </r>
       <r>  -31.2753    1.0000 </r>
       <r>  -31.2638    1.0000 </r>
       <r>  -31.2431    1.0000 </r>
       <r>  -31.2419    1.0000 </r>
       <r>  -31.2398    1.0000 </r>
       <r>  -31.2386    1.0000 </r>
       <r>  -31.2370    1.0000 </r>
       <r>  -31.2340    1.0000 </r>
       <r>  -31.2300    1.0000 </r>
       <r>  -31.2245    1.0000 </r>
       <r>  -31.2189    1.0000 </r>
       <r>  -31.2173    1.0000 </r>
       <r>  -31.2125    1.0000 </r>
       <r>  -31.2105    1.0000 </r>
       <r>  -31.2064    1.0000 </r>
       <r>  -31.2002    1.0000 </r>
       <r>  -31.1945    1.0000 </r>
       <r>  -31.1890    1.0000 </r>
       <r>  -31.1812    1.0000 </r>
       <r>  -31.1698    1.0000 </r>
       <r>  -31.1643    1.0000 </r>
       <r>  -31.1618    1.0000 </r>
       <r>  -31.1600    1.0000 </r>
       <r>  -31.1548    1.0000 </r>
       <r>  -31.1498    1.0000 </r>
       <r>  -31.1415    1.0000 </r>
       <r>  -31.1357    1.0000 </r>
       <r>  -31.1328    1.0000 </r>
       <r>  -31.1230    1.0000 </r>
       <r>  -31.1171    1.0000 </r>
       <r>  -31.1078    1.0000 </r>
       <r>  -31.1076    1.0000 </r>
       <r>  -31.0895    1.0000 </r>
       <r>  -31.0821    1.0000 </r>
       <r>  -31.0795    1.0000 </r>
       <r>  -31.0790    1.0000 </r>
       <r>  -31.0781    1.0000 </r>
       <r>  -31.0771    1.0000 </r>
       <r>  -31.0757    1.0000 </r>
       <r>  -31.0739    1.0000 </r>
       <r>  -31.0637    1.0000 </r>
       <r>  -31.0609    1.0000 </r>
       <r>  -31.0597    1.0000 </r>
       <r>  -31.0580    1.0000 </r>
       <r>  -31.0572    1.0000 </r>
       <r>  -31.0530    1.0000 </r>
       <r>  -31.0473    1.0000 </r>
       <r>  -31.0456    1.0000 </r>
       <r>  -31.0424    1.0000 </r>
       <r>  -31.0318    1.0000 </r>
       <r>  -31.0285    1.0000 </r>
       <r>  -31.0259    1.0000 </r>
       <r>  -31.0159    1.0000 </r>
       <r>  -30.9859    1.0000 </r>
       <r>  -30.9817    1.0000 </r>
       <r>  -30.9735    1.0000 </r>
       <r>  -30.9581    1.0000 </r>
       <r>  -30.9542    1.0000 </r>
       <r>  -30.9404    1.0000 </r>
       <r>  -30.9115    1.0000 </r>
       <r>  -30.9064    1.0000 </r>
       <r>  -30.9020    1.0000 </r>
       <r>  -30.8838    1.0000 </r>
       <r>  -30.8779    1.0000 </r>
       <r>  -27.6583    1.0000 </r>
       <r>  -27.6421    1.0000 </r>
       <r>  -27.5496    1.0000 </r>
       <r>  -27.5226    1.0000 </r>
       <r>  -27.4906    1.0000 </r>
       <r>  -27.4877    1.0000 </r>
       <r>   -2.7083    1.0000 </r>
       <r>   -2.7009    1.0000 </r>
       <r>   -1.8700    1.0000 </r>
       <r>   -1.8550    1.0000 </r>
       <r>   -1.4873    1.0000 </r>
       <r>   -1.4467    1.0000 </r>
       <r>   -1.2758    1.0000 </r>
       <r>   -1.2502    1.0000 </r>
       <r>   -1.1583    1.0000 </r>
       <r>   -1.1545    1.0000 </r>
       <r>   -1.1418    1.0000 </r>
       <r>   -1.1315    1.0000 </r>
       <r>   -1.0462    1.0000 </r>
       <r>   -1.0323    1.0000 </r>
       <r>   -1.0215    1.0000 </r>
       <r>   -1.0117    1.0000 </r>
       <r>   -0.9892    1.0000 </r>
       <r>   -0.9837    1.0000 </r>
       <r>   -0.9423    1.0000 </r>
       <r>   -0.8993    1.0000 </r>
       <r>   -0.8787    1.0000 </r>
       <r>   -0.8410    1.0000 </r>
       <r>   -0.8346    1.0000 </r>
       <r>   -0.8188    1.0000 </r>
       <r>   -0.8149    1.0000 </r>
       <r>   -0.8048    1.0000 </r>
       <r>   -0.7939    1.0000 </r>
       <r>   -0.7872    1.0000 </r>
       <r>   -0.7169    1.0000 </r>
       <r>   -0.7017    1.0000 </r>
       <r>   -0.6868    1.0000 </r>
       <r>   -0.6675    1.0000 </r>
       <r>   -0.4173    1.0000 </r>
       <r>   -0.4021    1.0000 </r>
       <r>   -0.3744    1.0000 </r>
       <r>   -0.3645    1.0000 </r>
       <r>   -0.3402    1.0000 </r>
       <r>   -0.3340    1.0000 </r>
       <r>   -0.3047    1.0000 </r>
       <r>   -0.2769    1.0000 </r>
       <r>   -0.2607    1.0000 </r>
       <r>   -0.2311    1.0000 </r>
       <r>   -0.2242    1.0000 </r>
       <r>   -0.2082    1.0000 </r>
       <r>   -0.2028    1.0000 </r>
       <r>   -0.1837    1.0000 </r>
       <r>   -0.1757    1.0000 </r>
       <r>   -0.1571    1.0000 </r>
       <r>   -0.1469    1.0000 </r>
       <r>   -0.0575    1.0000 </r>
       <r>   -0.0512    1.0000 </r>
       <r>    0.0223    1.0000 </r>
       <r>    0.0350    1.0000 </r>
       <r>    0.0476    1.0000 </r>
       <r>    0.0688    1.0000 </r>
       <r>    0.1214    1.0000 </r>
       <r>    0.1357    1.0000 </r>
       <r>    0.1437    1.0000 </r>
       <r>    0.1512    1.0000 </r>
       <r>    0.2167    1.0000 </r>
       <r>    0.2560    1.0000 </r>
       <r>    0.2896    1.0000 </r>
       <r>    0.3145    1.0000 </r>
       <r>    0.3600    1.0000 </r>
       <r>    0.4063    1.0000 </r>
       <r>    0.4159    1.0000 </r>
       <r>    0.4294    1.0000 </r>
       <r>    0.4352    1.0000 </r>
       <r>    0.4503    1.0000 </r>
       <r>    0.4514    1.0000 </r>
       <r>    0.4517    1.0000 </r>
       <r>    0.4634    1.0000 </r>
       <r>    0.4806    1.0000 </r>
       <r>    0.5270    1.0000 </r>
       <r>    0.5516    1.0000 </r>
       <r>    0.5637    1.0000 </r>
       <r>    0.5732    1.0000 </r>
       <r>    0.5934    1.0000 </r>
       <r>    0.6051    1.0000 </r>
       <r>    0.6104    1.0000 </r>
       <r>    0.6145    1.0000 </r>
       <r>    0.6243    1.0000 </r>
       <r>    0.6474    1.0000 </r>
       <r>    0.6770    1.0000 </r>
       <r>    0.6851    1.0000 </r>
       <r>    0.6883    1.0000 </r>
       <r>    0.7058    1.0000 </r>
       <r>    0.7180    1.0000 </r>
       <r>    0.7545    1.0000 </r>
       <r>    0.7748    1.0000 </r>
       <r>    0.7802    1.0000 </r>
       <r>    0.7957    1.0000 </r>
       <r>    0.8157    1.0000 </r>
       <r>    0.8183    1.0000 </r>
       <r>    0.8347    1.0000 </r>
       <r>    0.8609    1.0000 </r>
       <r>    0.8805    1.0000 </r>
       <r>    0.9467    1.0000 </r>
       <r>    1.0633    1.0000 </r>
       <r>    1.0781    1.0000 </r>
       <r>    1.0894    1.0000 </r>
       <r>    1.1327    1.0000 </r>
       <r>    1.1398    1.0000 </r>
       <r>    1.1615    1.0000 </r>
       <r>    1.1732    1.0000 </r>
       <r>    1.2098    1.0000 </r>
       <r>    1.2140    1.0000 </r>
       <r>    1.2380    1.0000 </r>
       <r>    1.2891    1.0000 </r>
       <r>    1.3710    1.0000 </r>
       <r>    1.3827    1.0000 </r>
       <r>    1.3996    1.0000 </r>
       <r>    1.4262    1.0000 </r>
       <r>    1.4601    1.0000 </r>
       <r>    1.4816    1.0000 </r>
       <r>    1.4882    1.0000 </r>
       <r>    1.5043    1.0000 </r>
       <r>    1.5386    1.0000 </r>
       <r>    1.5429    1.0000 </r>
       <r>    1.5592    1.0000 </r>
       <r>    1.5761    1.0000 </r>
       <r>    1.5881    1.0000 </r>
       <r>    1.6026    1.0000 </r>
       <r>    1.6058    1.0000 </r>
       <r>    1.6425    1.0000 </r>
       <r>    1.6568    1.0000 </r>
       <r>    1.6603    1.0000 </r>
       <r>    1.8503    1.0000 </r>
       <r>    1.8783    1.0000 </r>
       <r>    1.8822    1.0000 </r>
       <r>    1.9022    1.0000 </r>
       <r>    1.9191    1.0000 </r>
       <r>    1.9428    1.0000 </r>
       <r>    1.9653    1.0000 </r>
       <r>    1.9738    1.0000 </r>
       <r>    1.9933    1.0000 </r>
       <r>    1.9985    1.0000 </r>
       <r>    2.0088    1.0000 </r>
       <r>    2.0135    1.0000 </r>
       <r>    2.0234    1.0000 </r>
       <r>    2.0450    1.0000 </r>
       <r>    2.0559    1.0000 </r>
       <r>    2.0743    1.0000 </r>
       <r>    2.0844    1.0000 </r>
       <r>    2.0929    1.0000 </r>
       <r>    2.1082    1.0000 </r>
       <r>    2.1305    1.0000 </r>
       <r>    2.1907    1.0000 </r>
       <r>    2.2007    1.0000 </r>
       <r>    2.2159    1.0000 </r>
       <r>    2.2570    1.0000 </r>
       <r>    2.2765    1.0000 </r>
       <r>    2.2796    1.0000 </r>
       <r>    2.2950    1.0000 </r>
       <r>    2.3006    1.0000 </r>
       <r>    2.3125    1.0000 </r>
       <r>    2.4302    1.0000 </r>
       <r>    2.5943    1.0000 </r>
       <r>    2.6028    1.0000 </r>
       <r>    2.6527    1.0000 </r>
       <r>    2.6885    1.0000 </r>
       <r>    2.7070    1.0000 </r>
       <r>    2.7271    1.0000 </r>
       <r>    2.7401    1.0000 </r>
       <r>    2.7581    1.0000 </r>
       <r>    2.7700    1.0000 </r>
       <r>    2.7998    1.0000 </r>
       <r>    2.8187    1.0000 </r>
       <r>    2.8436    1.0000 </r>
       <r>    2.8680    1.0000 </r>
       <r>    2.8879    1.0000 </r>
       <r>    2.9129    1.0000 </r>
       <r>    2.9521    1.0000 </r>
       <r>    2.9841    1.0000 </r>
       <r>    3.0484    1.0000 </r>
       <r>    3.0616    1.0000 </r>
       <r>    3.0716    1.0000 </r>
       <r>    3.1325    1.0000 </r>
       <r>    3.1612    1.0000 </r>
       <r>    3.1712    1.0000 </r>
       <r>    3.1764    1.0000 </r>
       <r>    3.1809    1.0000 </r>
       <r>    3.2343    0.9998 </r>
       <r>    3.2985    0.9952 </r>
       <r>    3.3393    0.9781 </r>
       <r>    3.3526    0.9662 </r>
       <r>    3.3702    0.9429 </r>
       <r>    3.4101    0.8450 </r>
       <r>    3.4632    0.6042 </r>
       <r>    3.5045    0.3748 </r>
       <r>    3.5268    0.2629 </r>
       <r>    3.6326    0.0165 </r>
       <r>    3.6395    0.0129 </r>
       <r>    3.6765    0.0030 </r>
       <r>    3.6906    0.0016 </r>
       <r>    3.7366    0.0002 </r>
       <r>    3.7604    0.0000 </r>
       <r>    3.7971    0.0000 </r>
       <r>    3.8172    0.0000 </r>
       <r>    3.8561    0.0000 </r>
       <r>    3.9141    0.0000 </r>
       <r>    3.9153    0.0000 </r>
       <r>    4.0458    0.0000 </r>
       <r>    4.0668    0.0000 </r>
       <r>    4.0946    0.0000 </r>
       <r>    4.1341    0.0000 </r>
       <r>    4.1528    0.0000 </r>
       <r>    4.1644    0.0000 </r>
       <r>    4.2153    0.0000 </r>
       <r>    4.2220    0.0000 </r>
       <r>    4.2445    0.0000 </r>
       <r>    4.2573    0.0000 </r>
       <r>    4.2914    0.0000 </r>
       <r>    4.3045    0.0000 </r>
       <r>    4.3359    0.0000 </r>
       <r>    4.3572    0.0000 </r>
       <r>    4.5071    0.0000 </r>
       <r>    4.5335    0.0000 </r>
       <r>    4.5680    0.0000 </r>
       <r>    4.5776    0.0000 </r>
       <r>    4.5888    0.0000 </r>
       <r>    4.5921    0.0000 </r>
       <r>    4.5935    0.0000 </r>
       <r>    4.6016    0.0000 </r>
       <r>    4.6157    0.0000 </r>
       <r>    4.6232    0.0000 </r>
       <r>    4.6370    0.0000 </r>
       <r>    4.6403    0.0000 </r>
       <r>    4.6578    0.0000 </r>
       <r>    4.6838    0.0000 </r>
       <r>    4.7054    0.0000 </r>
       <r>    4.7138    0.0000 </r>
       <r>    4.7340    0.0000 </r>
       <r>    4.7457    0.0000 </r>
       <r>    4.8162    0.0000 </r>
       <r>    4.8335    0.0000 </r>
       <r>    4.8446    0.0000 </r>
       <r>    4.8725    0.0000 </r>
       <r>    4.8827    0.0000 </r>
       <r>    4.8997    0.0000 </r>
       <r>    4.9149    0.0000 </r>
       <r>    4.9306    0.0000 </r>
       <r>    4.9341    0.0000 </r>
       <r>    4.9346    0.0000 </r>
       <r>    4.9540    0.0000 </r>
       <r>    4.9593    0.0000 </r>
       <r>    4.9635    0.0000 </r>
       <r>    4.9781    0.0000 </r>
       <r>    5.0139    0.0000 </r>
       <r>    5.0322    0.0000 </r>
       <r>    5.0454    0.0000 </r>
       <r>    5.0632    0.0000 </r>
       <r>    5.0807    0.0000 </r>
       <r>    5.0922    0.0000 </r>
       <r>    5.1072    0.0000 </r>
       <r>    5.1135    0.0000 </r>
       <r>    5.1757    0.0000 </r>
       <r>    5.1949    0.0000 </r>
       <r>    5.1992    0.0000 </r>
       <r>    5.2143    0.0000 </r>
       <r>    5.2469    0.0000 </r>
       <r>    5.2757    0.0000 </r>
       <r>    5.3019    0.0000 </r>
       <r>    5.3355    0.0000 </r>
       <r>    5.3456    0.0000 </r>
       <r>    5.3469    0.0000 </r>
       <r>    5.3795    0.0000 </r>
       <r>    5.3905    0.0000 </r>
       <r>    5.3949    0.0000 </r>
       <r>    5.4124    0.0000 </r>
       <r>    5.4239    0.0000 </r>
       <r>    5.4308    0.0000 </r>
       <r>    5.4458    0.0000 </r>
       <r>    5.4868    0.0000 </r>
       <r>    5.5318    0.0000 </r>
       <r>    5.5648    0.0000 </r>
      </set>
      <set comment="kpoint 6">
       <r>  -57.7071    1.0000 </r>
       <r>  -57.6582    1.0000 </r>
       <r>  -57.6544    1.0000 </r>
       <r>  -57.6406    1.0000 </r>
       <r>  -57.6195    1.0000 </r>
       <r>  -57.6069    1.0000 </r>
       <r>  -57.6043    1.0000 </r>
       <r>  -57.5887    1.0000 </r>
       <r>  -57.5839    1.0000 </r>
       <r>  -57.5818    1.0000 </r>
       <r>  -57.5734    1.0000 </r>
       <r>  -57.5668    1.0000 </r>
       <r>  -57.5655    1.0000 </r>
       <r>  -57.5597    1.0000 </r>
       <r>  -57.5547    1.0000 </r>
       <r>  -57.5541    1.0000 </r>
       <r>  -57.5474    1.0000 </r>
       <r>  -57.5401    1.0000 </r>
       <r>  -57.4975    1.0000 </r>
       <r>  -57.4768    1.0000 </r>
       <r>  -57.4595    1.0000 </r>
       <r>  -57.4564    1.0000 </r>
       <r>  -57.4516    1.0000 </r>
       <r>  -57.4495    1.0000 </r>
       <r>  -57.4488    1.0000 </r>
       <r>  -57.4459    1.0000 </r>
       <r>  -57.4425    1.0000 </r>
       <r>  -57.4404    1.0000 </r>
       <r>  -57.4360    1.0000 </r>
       <r>  -57.4350    1.0000 </r>
       <r>  -57.4302    1.0000 </r>
       <r>  -57.4247    1.0000 </r>
       <r>  -57.4230    1.0000 </r>
       <r>  -57.4190    1.0000 </r>
       <r>  -57.4182    1.0000 </r>
       <r>  -57.4144    1.0000 </r>
       <r>  -57.4106    1.0000 </r>
       <r>  -57.4066    1.0000 </r>
       <r>  -57.3966    1.0000 </r>
       <r>  -57.3844    1.0000 </r>
       <r>  -57.3780    1.0000 </r>
       <r>  -57.3736    1.0000 </r>
       <r>  -57.3680    1.0000 </r>
       <r>  -57.3491    1.0000 </r>
       <r>  -57.3008    1.0000 </r>
       <r>  -57.2484    1.0000 </r>
       <r>  -57.2465    1.0000 </r>
       <r>  -57.2404    1.0000 </r>
       <r>  -57.2399    1.0000 </r>
       <r>  -57.2370    1.0000 </r>
       <r>  -57.2339    1.0000 </r>
       <r>  -57.2335    1.0000 </r>
       <r>  -57.2327    1.0000 </r>
       <r>  -57.2275    1.0000 </r>
       <r>  -57.2227    1.0000 </r>
       <r>  -57.2222    1.0000 </r>
       <r>  -57.2076    1.0000 </r>
       <r>  -57.1973    1.0000 </r>
       <r>  -57.1879    1.0000 </r>
       <r>  -57.1751    1.0000 </r>
       <r>  -57.1601    1.0000 </r>
       <r>  -51.5335    1.0000 </r>
       <r>  -51.4976    1.0000 </r>
       <r>  -32.3317    1.0000 </r>
       <r>  -32.3091    1.0000 </r>
       <r>  -32.2993    1.0000 </r>
       <r>  -32.2640    1.0000 </r>
       <r>  -32.2511    1.0000 </r>
       <r>  -32.2440    1.0000 </r>
       <r>  -32.2282    1.0000 </r>
       <r>  -32.1968    1.0000 </r>
       <r>  -32.1869    1.0000 </r>
       <r>  -32.1746    1.0000 </r>
       <r>  -32.1678    1.0000 </r>
       <r>  -32.1651    1.0000 </r>
       <r>  -32.1569    1.0000 </r>
       <r>  -32.1499    1.0000 </r>
       <r>  -32.1368    1.0000 </r>
       <r>  -32.1358    1.0000 </r>
       <r>  -32.1247    1.0000 </r>
       <r>  -32.1184    1.0000 </r>
       <r>  -32.1181    1.0000 </r>
       <r>  -32.1132    1.0000 </r>
       <r>  -32.1006    1.0000 </r>
       <r>  -32.0936    1.0000 </r>
       <r>  -32.0873    1.0000 </r>
       <r>  -32.0811    1.0000 </r>
       <r>  -32.0715    1.0000 </r>
       <r>  -32.0638    1.0000 </r>
       <r>  -32.0595    1.0000 </r>
       <r>  -32.0551    1.0000 </r>
       <r>  -32.0485    1.0000 </r>
       <r>  -32.0261    1.0000 </r>
       <r>  -32.0090    1.0000 </r>
       <r>  -31.9970    1.0000 </r>
       <r>  -31.9933    1.0000 </r>
       <r>  -31.9786    1.0000 </r>
       <r>  -31.9748    1.0000 </r>
       <r>  -31.9638    1.0000 </r>
       <r>  -31.9567    1.0000 </r>
       <r>  -31.9539    1.0000 </r>
       <r>  -31.9344    1.0000 </r>
       <r>  -31.9307    1.0000 </r>
       <r>  -31.9232    1.0000 </r>
       <r>  -31.8831    1.0000 </r>
       <r>  -31.8771    1.0000 </r>
       <r>  -31.8651    1.0000 </r>
       <r>  -31.8590    1.0000 </r>
       <r>  -31.8495    1.0000 </r>
       <r>  -31.8342    1.0000 </r>
       <r>  -31.8323    1.0000 </r>
       <r>  -31.8160    1.0000 </r>
       <r>  -31.8143    1.0000 </r>
       <r>  -31.8100    1.0000 </r>
       <r>  -31.8051    1.0000 </r>
       <r>  -31.7975    1.0000 </r>
       <r>  -31.7800    1.0000 </r>
       <r>  -31.7684    1.0000 </r>
       <r>  -31.7517    1.0000 </r>
       <r>  -31.7465    1.0000 </r>
       <r>  -31.7297    1.0000 </r>
       <r>  -31.7227    1.0000 </r>
       <r>  -31.7114    1.0000 </r>
       <r>  -31.7021    1.0000 </r>
       <r>  -31.6921    1.0000 </r>
       <r>  -31.6891    1.0000 </r>
       <r>  -31.6823    1.0000 </r>
       <r>  -31.6793    1.0000 </r>
       <r>  -31.6701    1.0000 </r>
       <r>  -31.6613    1.0000 </r>
       <r>  -31.6511    1.0000 </r>
       <r>  -31.6430    1.0000 </r>
       <r>  -31.6376    1.0000 </r>
       <r>  -31.6215    1.0000 </r>
       <r>  -31.6128    1.0000 </r>
       <r>  -31.6090    1.0000 </r>
       <r>  -31.6078    1.0000 </r>
       <r>  -31.5952    1.0000 </r>
       <r>  -31.5934    1.0000 </r>
       <r>  -31.5832    1.0000 </r>
       <r>  -31.5728    1.0000 </r>
       <r>  -31.5678    1.0000 </r>
       <r>  -31.5575    1.0000 </r>
       <r>  -31.5458    1.0000 </r>
       <r>  -31.5436    1.0000 </r>
       <r>  -31.5354    1.0000 </r>
       <r>  -31.5260    1.0000 </r>
       <r>  -31.5219    1.0000 </r>
       <r>  -31.5044    1.0000 </r>
       <r>  -31.4959    1.0000 </r>
       <r>  -31.4919    1.0000 </r>
       <r>  -31.4860    1.0000 </r>
       <r>  -31.4742    1.0000 </r>
       <r>  -31.4692    1.0000 </r>
       <r>  -31.4656    1.0000 </r>
       <r>  -31.4578    1.0000 </r>
       <r>  -31.4510    1.0000 </r>
       <r>  -31.4463    1.0000 </r>
       <r>  -31.4353    1.0000 </r>
       <r>  -31.4329    1.0000 </r>
       <r>  -31.4271    1.0000 </r>
       <r>  -31.4240    1.0000 </r>
       <r>  -31.4196    1.0000 </r>
       <r>  -31.4144    1.0000 </r>
       <r>  -31.4047    1.0000 </r>
       <r>  -31.4016    1.0000 </r>
       <r>  -31.3997    1.0000 </r>
       <r>  -31.3899    1.0000 </r>
       <r>  -31.3789    1.0000 </r>
       <r>  -31.3674    1.0000 </r>
       <r>  -31.3658    1.0000 </r>
       <r>  -31.3602    1.0000 </r>
       <r>  -31.3463    1.0000 </r>
       <r>  -31.3443    1.0000 </r>
       <r>  -31.3413    1.0000 </r>
       <r>  -31.3361    1.0000 </r>
       <r>  -31.3243    1.0000 </r>
       <r>  -31.3135    1.0000 </r>
       <r>  -31.3045    1.0000 </r>
       <r>  -31.3020    1.0000 </r>
       <r>  -31.2849    1.0000 </r>
       <r>  -31.2714    1.0000 </r>
       <r>  -31.2669    1.0000 </r>
       <r>  -31.2645    1.0000 </r>
       <r>  -31.2459    1.0000 </r>
       <r>  -31.2417    1.0000 </r>
       <r>  -31.2361    1.0000 </r>
       <r>  -31.2345    1.0000 </r>
       <r>  -31.2300    1.0000 </r>
       <r>  -31.2271    1.0000 </r>
       <r>  -31.2254    1.0000 </r>
       <r>  -31.2194    1.0000 </r>
       <r>  -31.2168    1.0000 </r>
       <r>  -31.2131    1.0000 </r>
       <r>  -31.2115    1.0000 </r>
       <r>  -31.2063    1.0000 </r>
       <r>  -31.2019    1.0000 </r>
       <r>  -31.1995    1.0000 </r>
       <r>  -31.1930    1.0000 </r>
       <r>  -31.1911    1.0000 </r>
       <r>  -31.1822    1.0000 </r>
       <r>  -31.1804    1.0000 </r>
       <r>  -31.1770    1.0000 </r>
       <r>  -31.1735    1.0000 </r>
       <r>  -31.1692    1.0000 </r>
       <r>  -31.1640    1.0000 </r>
       <r>  -31.1481    1.0000 </r>
       <r>  -31.1444    1.0000 </r>
       <r>  -31.1421    1.0000 </r>
       <r>  -31.1383    1.0000 </r>
       <r>  -31.1203    1.0000 </r>
       <r>  -31.1194    1.0000 </r>
       <r>  -31.1179    1.0000 </r>
       <r>  -31.1129    1.0000 </r>
       <r>  -31.0968    1.0000 </r>
       <r>  -31.0892    1.0000 </r>
       <r>  -31.0846    1.0000 </r>
       <r>  -31.0835    1.0000 </r>
       <r>  -31.0782    1.0000 </r>
       <r>  -31.0761    1.0000 </r>
       <r>  -31.0723    1.0000 </r>
       <r>  -31.0710    1.0000 </r>
       <r>  -31.0699    1.0000 </r>
       <r>  -31.0579    1.0000 </r>
       <r>  -31.0574    1.0000 </r>
       <r>  -31.0538    1.0000 </r>
       <r>  -31.0506    1.0000 </r>
       <r>  -31.0470    1.0000 </r>
       <r>  -31.0451    1.0000 </r>
       <r>  -31.0401    1.0000 </r>
       <r>  -31.0361    1.0000 </r>
       <r>  -31.0338    1.0000 </r>
       <r>  -31.0294    1.0000 </r>
       <r>  -31.0171    1.0000 </r>
       <r>  -31.0162    1.0000 </r>
       <r>  -30.9860    1.0000 </r>
       <r>  -30.9770    1.0000 </r>
       <r>  -30.9748    1.0000 </r>
       <r>  -30.9629    1.0000 </r>
       <r>  -30.9549    1.0000 </r>
       <r>  -30.9401    1.0000 </r>
       <r>  -30.9133    1.0000 </r>
       <r>  -30.9098    1.0000 </r>
       <r>  -30.8993    1.0000 </r>
       <r>  -30.8872    1.0000 </r>
       <r>  -30.8666    1.0000 </r>
       <r>  -27.6583    1.0000 </r>
       <r>  -27.6421    1.0000 </r>
       <r>  -27.5496    1.0000 </r>
       <r>  -27.5226    1.0000 </r>
       <r>  -27.4906    1.0000 </r>
       <r>  -27.4877    1.0000 </r>
       <r>   -2.9730    1.0000 </r>
       <r>   -2.0464    1.0000 </r>
       <r>   -1.9907    1.0000 </r>
       <r>   -1.9818    1.0000 </r>
       <r>   -1.3859    1.0000 </r>
       <r>   -1.3840    1.0000 </r>
       <r>   -1.3727    1.0000 </r>
       <r>   -1.3201    1.0000 </r>
       <r>   -1.2911    1.0000 </r>
       <r>   -1.2853    1.0000 </r>
       <r>   -1.2781    1.0000 </r>
       <r>   -1.2620    1.0000 </r>
       <r>   -1.2557    1.0000 </r>
       <r>   -1.2139    1.0000 </r>
       <r>   -1.1212    1.0000 </r>
       <r>   -0.9435    1.0000 </r>
       <r>   -0.8962    1.0000 </r>
       <r>   -0.8877    1.0000 </r>
       <r>   -0.8793    1.0000 </r>
       <r>   -0.8487    1.0000 </r>
       <r>   -0.8344    1.0000 </r>
       <r>   -0.8248    1.0000 </r>
       <r>   -0.8104    1.0000 </r>
       <r>   -0.7815    1.0000 </r>
       <r>   -0.7775    1.0000 </r>
       <r>   -0.7578    1.0000 </r>
       <r>   -0.7525    1.0000 </r>
       <r>   -0.6839    1.0000 </r>
       <r>   -0.6287    1.0000 </r>
       <r>   -0.5394    1.0000 </r>
       <r>   -0.5195    1.0000 </r>
       <r>   -0.4894    1.0000 </r>
       <r>   -0.4850    1.0000 </r>
       <r>   -0.4537    1.0000 </r>
       <r>   -0.4464    1.0000 </r>
       <r>   -0.3998    1.0000 </r>
       <r>   -0.3865    1.0000 </r>
       <r>   -0.3761    1.0000 </r>
       <r>   -0.3704    1.0000 </r>
       <r>   -0.3192    1.0000 </r>
       <r>   -0.3043    1.0000 </r>
       <r>   -0.2902    1.0000 </r>
       <r>   -0.2586    1.0000 </r>
       <r>   -0.2342    1.0000 </r>
       <r>   -0.1902    1.0000 </r>
       <r>   -0.1853    1.0000 </r>
       <r>   -0.1314    1.0000 </r>
       <r>   -0.1166    1.0000 </r>
       <r>   -0.1127    1.0000 </r>
       <r>   -0.0150    1.0000 </r>
       <r>    0.0127    1.0000 </r>
       <r>    0.0327    1.0000 </r>
       <r>    0.0382    1.0000 </r>
       <r>    0.0488    1.0000 </r>
       <r>    0.1442    1.0000 </r>
       <r>    0.1634    1.0000 </r>
       <r>    0.1722    1.0000 </r>
       <r>    0.2022    1.0000 </r>
       <r>    0.2176    1.0000 </r>
       <r>    0.2515    1.0000 </r>
       <r>    0.2581    1.0000 </r>
       <r>    0.2829    1.0000 </r>
       <r>    0.3092    1.0000 </r>
       <r>    0.3203    1.0000 </r>
       <r>    0.3253    1.0000 </r>
       <r>    0.3321    1.0000 </r>
       <r>    0.3757    1.0000 </r>
       <r>    0.4191    1.0000 </r>
       <r>    0.4272    1.0000 </r>
       <r>    0.4403    1.0000 </r>
       <r>    0.4474    1.0000 </r>
       <r>    0.4616    1.0000 </r>
       <r>    0.4804    1.0000 </r>
       <r>    0.4925    1.0000 </r>
       <r>    0.5070    1.0000 </r>
       <r>    0.5256    1.0000 </r>
       <r>    0.5433    1.0000 </r>
       <r>    0.5603    1.0000 </r>
       <r>    0.5727    1.0000 </r>
       <r>    0.5825    1.0000 </r>
       <r>    0.5860    1.0000 </r>
       <r>    0.6003    1.0000 </r>
       <r>    0.6146    1.0000 </r>
       <r>    0.6392    1.0000 </r>
       <r>    0.6427    1.0000 </r>
       <r>    0.6584    1.0000 </r>
       <r>    0.7061    1.0000 </r>
       <r>    0.7303    1.0000 </r>
       <r>    0.7970    1.0000 </r>
       <r>    0.8028    1.0000 </r>
       <r>    0.8578    1.0000 </r>
       <r>    0.8687    1.0000 </r>
       <r>    0.9068    1.0000 </r>
       <r>    0.9176    1.0000 </r>
       <r>    0.9420    1.0000 </r>
       <r>    0.9647    1.0000 </r>
       <r>    0.9837    1.0000 </r>
       <r>    0.9990    1.0000 </r>
       <r>    1.0031    1.0000 </r>
       <r>    1.0213    1.0000 </r>
       <r>    1.0437    1.0000 </r>
       <r>    1.0464    1.0000 </r>
       <r>    1.0863    1.0000 </r>
       <r>    1.1191    1.0000 </r>
       <r>    1.1760    1.0000 </r>
       <r>    1.2071    1.0000 </r>
       <r>    1.2176    1.0000 </r>
       <r>    1.2609    1.0000 </r>
       <r>    1.3239    1.0000 </r>
       <r>    1.3372    1.0000 </r>
       <r>    1.3445    1.0000 </r>
       <r>    1.3714    1.0000 </r>
       <r>    1.3908    1.0000 </r>
       <r>    1.4155    1.0000 </r>
       <r>    1.4279    1.0000 </r>
       <r>    1.4835    1.0000 </r>
       <r>    1.4964    1.0000 </r>
       <r>    1.5155    1.0000 </r>
       <r>    1.5386    1.0000 </r>
       <r>    1.5497    1.0000 </r>
       <r>    1.5819    1.0000 </r>
       <r>    1.5947    1.0000 </r>
       <r>    1.6060    1.0000 </r>
       <r>    1.6357    1.0000 </r>
       <r>    1.6688    1.0000 </r>
       <r>    1.7106    1.0000 </r>
       <r>    1.7270    1.0000 </r>
       <r>    1.7672    1.0000 </r>
       <r>    1.7815    1.0000 </r>
       <r>    1.7925    1.0000 </r>
       <r>    1.8115    1.0000 </r>
       <r>    1.8375    1.0000 </r>
       <r>    1.8619    1.0000 </r>
       <r>    1.9039    1.0000 </r>
       <r>    1.9324    1.0000 </r>
       <r>    1.9547    1.0000 </r>
       <r>    1.9638    1.0000 </r>
       <r>    1.9878    1.0000 </r>
       <r>    1.9974    1.0000 </r>
       <r>    2.0063    1.0000 </r>
       <r>    2.0095    1.0000 </r>
       <r>    2.0460    1.0000 </r>
       <r>    2.0604    1.0000 </r>
       <r>    2.0841    1.0000 </r>
       <r>    2.1051    1.0000 </r>
       <r>    2.1068    1.0000 </r>
       <r>    2.1332    1.0000 </r>
       <r>    2.1698    1.0000 </r>
       <r>    2.2160    1.0000 </r>
       <r>    2.2377    1.0000 </r>
       <r>    2.2847    1.0000 </r>
       <r>    2.2985    1.0000 </r>
       <r>    2.3152    1.0000 </r>
       <r>    2.3380    1.0000 </r>
       <r>    2.3526    1.0000 </r>
       <r>    2.4037    1.0000 </r>
       <r>    2.5041    1.0000 </r>
       <r>    2.5428    1.0000 </r>
       <r>    2.5553    1.0000 </r>
       <r>    2.5743    1.0000 </r>
       <r>    2.6732    1.0000 </r>
       <r>    2.7388    1.0000 </r>
       <r>    2.7772    1.0000 </r>
       <r>    2.8011    1.0000 </r>
       <r>    2.8691    1.0000 </r>
       <r>    2.8790    1.0000 </r>
       <r>    2.8857    1.0000 </r>
       <r>    2.8867    1.0000 </r>
       <r>    2.8967    1.0000 </r>
       <r>    2.9216    1.0000 </r>
       <r>    2.9396    1.0000 </r>
       <r>    2.9698    1.0000 </r>
       <r>    3.0263    1.0000 </r>
       <r>    3.0369    1.0000 </r>
       <r>    3.0669    1.0000 </r>
       <r>    3.0874    1.0000 </r>
       <r>    3.0941    1.0000 </r>
       <r>    3.1453    1.0000 </r>
       <r>    3.1829    1.0000 </r>
       <r>    3.1856    1.0000 </r>
       <r>    3.2081    0.9999 </r>
       <r>    3.2352    0.9998 </r>
       <r>    3.2370    0.9997 </r>
       <r>    3.2915    0.9965 </r>
       <r>    3.3342    0.9816 </r>
       <r>    3.3514    0.9675 </r>
       <r>    3.4196    0.8110 </r>
       <r>    3.4670    0.5837 </r>
       <r>    3.4896    0.4564 </r>
       <r>    3.5140    0.3248 </r>
       <r>    3.5492    0.1705 </r>
       <r>    3.6006    0.0466 </r>
       <r>    3.6217    0.0240 </r>
       <r>    3.6884    0.0017 </r>
       <r>    3.7303    0.0002 </r>
       <r>    3.7490    0.0001 </r>
       <r>    3.7977    0.0000 </r>
       <r>    3.8577    0.0000 </r>
       <r>    3.8808    0.0000 </r>
       <r>    3.9212    0.0000 </r>
       <r>    3.9694    0.0000 </r>
       <r>    3.9899    0.0000 </r>
       <r>    3.9929    0.0000 </r>
       <r>    4.0095    0.0000 </r>
       <r>    4.0290    0.0000 </r>
       <r>    4.0488    0.0000 </r>
       <r>    4.0836    0.0000 </r>
       <r>    4.1194    0.0000 </r>
       <r>    4.1750    0.0000 </r>
       <r>    4.1873    0.0000 </r>
       <r>    4.2311    0.0000 </r>
       <r>    4.2437    0.0000 </r>
       <r>    4.2514    0.0000 </r>
       <r>    4.3014    0.0000 </r>
       <r>    4.3846    0.0000 </r>
       <r>    4.4086    0.0000 </r>
       <r>    4.4098    0.0000 </r>
       <r>    4.4325    0.0000 </r>
       <r>    4.4600    0.0000 </r>
       <r>    4.4770    0.0000 </r>
       <r>    4.4842    0.0000 </r>
       <r>    4.5032    0.0000 </r>
       <r>    4.5139    0.0000 </r>
       <r>    4.5265    0.0000 </r>
       <r>    4.5602    0.0000 </r>
       <r>    4.5786    0.0000 </r>
       <r>    4.6027    0.0000 </r>
       <r>    4.6487    0.0000 </r>
       <r>    4.6535    0.0000 </r>
       <r>    4.6829    0.0000 </r>
       <r>    4.7397    0.0000 </r>
       <r>    4.7567    0.0000 </r>
       <r>    4.7694    0.0000 </r>
       <r>    4.7772    0.0000 </r>
       <r>    4.8103    0.0000 </r>
       <r>    4.8120    0.0000 </r>
       <r>    4.8281    0.0000 </r>
       <r>    4.8537    0.0000 </r>
       <r>    4.8609    0.0000 </r>
       <r>    4.8886    0.0000 </r>
       <r>    4.8947    0.0000 </r>
       <r>    4.9322    0.0000 </r>
       <r>    4.9512    0.0000 </r>
       <r>    4.9750    0.0000 </r>
       <r>    4.9815    0.0000 </r>
       <r>    4.9938    0.0000 </r>
       <r>    5.0213    0.0000 </r>
       <r>    5.0226    0.0000 </r>
       <r>    5.0438    0.0000 </r>
       <r>    5.0551    0.0000 </r>
       <r>    5.0629    0.0000 </r>
       <r>    5.0690    0.0000 </r>
       <r>    5.1007    0.0000 </r>
       <r>    5.1066    0.0000 </r>
       <r>    5.1320    0.0000 </r>
       <r>    5.1437    0.0000 </r>
       <r>    5.1755    0.0000 </r>
       <r>    5.1830    0.0000 </r>
       <r>    5.1989    0.0000 </r>
       <r>    5.2043    0.0000 </r>
       <r>    5.2301    0.0000 </r>
       <r>    5.2748    0.0000 </r>
       <r>    5.2895    0.0000 </r>
       <r>    5.3024    0.0000 </r>
       <r>    5.3266    0.0000 </r>
       <r>    5.3557    0.0000 </r>
       <r>    5.3695    0.0000 </r>
       <r>    5.3722    0.0000 </r>
       <r>    5.3776    0.0000 </r>
       <r>    5.3996    0.0000 </r>
       <r>    5.4326    0.0000 </r>
       <r>    5.4572    0.0000 </r>
       <r>    5.4901    0.0000 </r>
       <r>    5.5076    0.0000 </r>
       <r>    5.5306    0.0000 </r>
       <r>    5.5582    0.0000 </r>
      </set>
      <set comment="kpoint 7">
       <r>  -57.7071    1.0000 </r>
       <r>  -57.6585    1.0000 </r>
       <r>  -57.6543    1.0000 </r>
       <r>  -57.6405    1.0000 </r>
       <r>  -57.6189    1.0000 </r>
       <r>  -57.6080    1.0000 </r>
       <r>  -57.6040    1.0000 </r>
       <r>  -57.5884    1.0000 </r>
       <r>  -57.5833    1.0000 </r>
       <r>  -57.5821    1.0000 </r>
       <r>  -57.5722    1.0000 </r>
       <r>  -57.5671    1.0000 </r>
       <r>  -57.5660    1.0000 </r>
       <r>  -57.5613    1.0000 </r>
       <r>  -57.5554    1.0000 </r>
       <r>  -57.5529    1.0000 </r>
       <r>  -57.5467    1.0000 </r>
       <r>  -57.5403    1.0000 </r>
       <r>  -57.4973    1.0000 </r>
       <r>  -57.4764    1.0000 </r>
       <r>  -57.4629    1.0000 </r>
       <r>  -57.4542    1.0000 </r>
       <r>  -57.4510    1.0000 </r>
       <r>  -57.4492    1.0000 </r>
       <r>  -57.4489    1.0000 </r>
       <r>  -57.4466    1.0000 </r>
       <r>  -57.4421    1.0000 </r>
       <r>  -57.4405    1.0000 </r>
       <r>  -57.4368    1.0000 </r>
       <r>  -57.4347    1.0000 </r>
       <r>  -57.4266    1.0000 </r>
       <r>  -57.4249    1.0000 </r>
       <r>  -57.4225    1.0000 </r>
       <r>  -57.4196    1.0000 </r>
       <r>  -57.4180    1.0000 </r>
       <r>  -57.4160    1.0000 </r>
       <r>  -57.4136    1.0000 </r>
       <r>  -57.4053    1.0000 </r>
       <r>  -57.3945    1.0000 </r>
       <r>  -57.3834    1.0000 </r>
       <r>  -57.3834    1.0000 </r>
       <r>  -57.3699    1.0000 </r>
       <r>  -57.3685    1.0000 </r>
       <r>  -57.3492    1.0000 </r>
       <r>  -57.3007    1.0000 </r>
       <r>  -57.2490    1.0000 </r>
       <r>  -57.2452    1.0000 </r>
       <r>  -57.2420    1.0000 </r>
       <r>  -57.2386    1.0000 </r>
       <r>  -57.2369    1.0000 </r>
       <r>  -57.2356    1.0000 </r>
       <r>  -57.2327    1.0000 </r>
       <r>  -57.2322    1.0000 </r>
       <r>  -57.2253    1.0000 </r>
       <r>  -57.2232    1.0000 </r>
       <r>  -57.2223    1.0000 </r>
       <r>  -57.2107    1.0000 </r>
       <r>  -57.1983    1.0000 </r>
       <r>  -57.1868    1.0000 </r>
       <r>  -57.1716    1.0000 </r>
       <r>  -57.1622    1.0000 </r>
       <r>  -51.5335    1.0000 </r>
       <r>  -51.4976    1.0000 </r>
       <r>  -32.3187    1.0000 </r>
       <r>  -32.3058    1.0000 </r>
       <r>  -32.2881    1.0000 </r>
       <r>  -32.2866    1.0000 </r>
       <r>  -32.2706    1.0000 </r>
       <r>  -32.2543    1.0000 </r>
       <r>  -32.2196    1.0000 </r>
       <r>  -32.2109    1.0000 </r>
       <r>  -32.1830    1.0000 </r>
       <r>  -32.1679    1.0000 </r>
       <r>  -32.1624    1.0000 </r>
       <r>  -32.1601    1.0000 </r>
       <r>  -32.1431    1.0000 </r>
       <r>  -32.1405    1.0000 </r>
       <r>  -32.1393    1.0000 </r>
       <r>  -32.1317    1.0000 </r>
       <r>  -32.1270    1.0000 </r>
       <r>  -32.1260    1.0000 </r>
       <r>  -32.1174    1.0000 </r>
       <r>  -32.1157    1.0000 </r>
       <r>  -32.1057    1.0000 </r>
       <r>  -32.0987    1.0000 </r>
       <r>  -32.0827    1.0000 </r>
       <r>  -32.0746    1.0000 </r>
       <r>  -32.0739    1.0000 </r>
       <r>  -32.0635    1.0000 </r>
       <r>  -32.0573    1.0000 </r>
       <r>  -32.0503    1.0000 </r>
       <r>  -32.0446    1.0000 </r>
       <r>  -32.0169    1.0000 </r>
       <r>  -32.0152    1.0000 </r>
       <r>  -32.0023    1.0000 </r>
       <r>  -31.9962    1.0000 </r>
       <r>  -31.9842    1.0000 </r>
       <r>  -31.9770    1.0000 </r>
       <r>  -31.9696    1.0000 </r>
       <r>  -31.9576    1.0000 </r>
       <r>  -31.9396    1.0000 </r>
       <r>  -31.9391    1.0000 </r>
       <r>  -31.9216    1.0000 </r>
       <r>  -31.9111    1.0000 </r>
       <r>  -31.8931    1.0000 </r>
       <r>  -31.8786    1.0000 </r>
       <r>  -31.8693    1.0000 </r>
       <r>  -31.8558    1.0000 </r>
       <r>  -31.8519    1.0000 </r>
       <r>  -31.8477    1.0000 </r>
       <r>  -31.8250    1.0000 </r>
       <r>  -31.8246    1.0000 </r>
       <r>  -31.8109    1.0000 </r>
       <r>  -31.8107    1.0000 </r>
       <r>  -31.8074    1.0000 </r>
       <r>  -31.7971    1.0000 </r>
       <r>  -31.7787    1.0000 </r>
       <r>  -31.7766    1.0000 </r>
       <r>  -31.7624    1.0000 </r>
       <r>  -31.7443    1.0000 </r>
       <r>  -31.7371    1.0000 </r>
       <r>  -31.7109    1.0000 </r>
       <r>  -31.7027    1.0000 </r>
       <r>  -31.7011    1.0000 </r>
       <r>  -31.6894    1.0000 </r>
       <r>  -31.6842    1.0000 </r>
       <r>  -31.6808    1.0000 </r>
       <r>  -31.6765    1.0000 </r>
       <r>  -31.6683    1.0000 </r>
       <r>  -31.6624    1.0000 </r>
       <r>  -31.6570    1.0000 </r>
       <r>  -31.6543    1.0000 </r>
       <r>  -31.6369    1.0000 </r>
       <r>  -31.6247    1.0000 </r>
       <r>  -31.6180    1.0000 </r>
       <r>  -31.6149    1.0000 </r>
       <r>  -31.5990    1.0000 </r>
       <r>  -31.5962    1.0000 </r>
       <r>  -31.5867    1.0000 </r>
       <r>  -31.5786    1.0000 </r>
       <r>  -31.5723    1.0000 </r>
       <r>  -31.5616    1.0000 </r>
       <r>  -31.5599    1.0000 </r>
       <r>  -31.5443    1.0000 </r>
       <r>  -31.5439    1.0000 </r>
       <r>  -31.5318    1.0000 </r>
       <r>  -31.5291    1.0000 </r>
       <r>  -31.5179    1.0000 </r>
       <r>  -31.5057    1.0000 </r>
       <r>  -31.5035    1.0000 </r>
       <r>  -31.4897    1.0000 </r>
       <r>  -31.4855    1.0000 </r>
       <r>  -31.4741    1.0000 </r>
       <r>  -31.4716    1.0000 </r>
       <r>  -31.4638    1.0000 </r>
       <r>  -31.4542    1.0000 </r>
       <r>  -31.4471    1.0000 </r>
       <r>  -31.4456    1.0000 </r>
       <r>  -31.4381    1.0000 </r>
       <r>  -31.4332    1.0000 </r>
       <r>  -31.4291    1.0000 </r>
       <r>  -31.4281    1.0000 </r>
       <r>  -31.4183    1.0000 </r>
       <r>  -31.4081    1.0000 </r>
       <r>  -31.4072    1.0000 </r>
       <r>  -31.4050    1.0000 </r>
       <r>  -31.4016    1.0000 </r>
       <r>  -31.3864    1.0000 </r>
       <r>  -31.3843    1.0000 </r>
       <r>  -31.3695    1.0000 </r>
       <r>  -31.3577    1.0000 </r>
       <r>  -31.3501    1.0000 </r>
       <r>  -31.3450    1.0000 </r>
       <r>  -31.3449    1.0000 </r>
       <r>  -31.3402    1.0000 </r>
       <r>  -31.3352    1.0000 </r>
       <r>  -31.3257    1.0000 </r>
       <r>  -31.3131    1.0000 </r>
       <r>  -31.3099    1.0000 </r>
       <r>  -31.3014    1.0000 </r>
       <r>  -31.2838    1.0000 </r>
       <r>  -31.2781    1.0000 </r>
       <r>  -31.2685    1.0000 </r>
       <r>  -31.2613    1.0000 </r>
       <r>  -31.2511    1.0000 </r>
       <r>  -31.2464    1.0000 </r>
       <r>  -31.2382    1.0000 </r>
       <r>  -31.2335    1.0000 </r>
       <r>  -31.2281    1.0000 </r>
       <r>  -31.2256    1.0000 </r>
       <r>  -31.2219    1.0000 </r>
       <r>  -31.2198    1.0000 </r>
       <r>  -31.2171    1.0000 </r>
       <r>  -31.2155    1.0000 </r>
       <r>  -31.2079    1.0000 </r>
       <r>  -31.2062    1.0000 </r>
       <r>  -31.2019    1.0000 </r>
       <r>  -31.1994    1.0000 </r>
       <r>  -31.1953    1.0000 </r>
       <r>  -31.1866    1.0000 </r>
       <r>  -31.1843    1.0000 </r>
       <r>  -31.1790    1.0000 </r>
       <r>  -31.1756    1.0000 </r>
       <r>  -31.1728    1.0000 </r>
       <r>  -31.1678    1.0000 </r>
       <r>  -31.1582    1.0000 </r>
       <r>  -31.1560    1.0000 </r>
       <r>  -31.1536    1.0000 </r>
       <r>  -31.1531    1.0000 </r>
       <r>  -31.1220    1.0000 </r>
       <r>  -31.1193    1.0000 </r>
       <r>  -31.1183    1.0000 </r>
       <r>  -31.1156    1.0000 </r>
       <r>  -31.1091    1.0000 </r>
       <r>  -31.0954    1.0000 </r>
       <r>  -31.0936    1.0000 </r>
       <r>  -31.0876    1.0000 </r>
       <r>  -31.0858    1.0000 </r>
       <r>  -31.0785    1.0000 </r>
       <r>  -31.0774    1.0000 </r>
       <r>  -31.0739    1.0000 </r>
       <r>  -31.0719    1.0000 </r>
       <r>  -31.0702    1.0000 </r>
       <r>  -31.0603    1.0000 </r>
       <r>  -31.0569    1.0000 </r>
       <r>  -31.0525    1.0000 </r>
       <r>  -31.0523    1.0000 </r>
       <r>  -31.0500    1.0000 </r>
       <r>  -31.0404    1.0000 </r>
       <r>  -31.0393    1.0000 </r>
       <r>  -31.0368    1.0000 </r>
       <r>  -31.0305    1.0000 </r>
       <r>  -31.0292    1.0000 </r>
       <r>  -31.0163    1.0000 </r>
       <r>  -31.0141    1.0000 </r>
       <r>  -31.0048    1.0000 </r>
       <r>  -30.9824    1.0000 </r>
       <r>  -30.9676    1.0000 </r>
       <r>  -30.9642    1.0000 </r>
       <r>  -30.9404    1.0000 </r>
       <r>  -30.9319    1.0000 </r>
       <r>  -30.9117    1.0000 </r>
       <r>  -30.9054    1.0000 </r>
       <r>  -30.9031    1.0000 </r>
       <r>  -30.8827    1.0000 </r>
       <r>  -30.8793    1.0000 </r>
       <r>  -27.6583    1.0000 </r>
       <r>  -27.6421    1.0000 </r>
       <r>  -27.5496    1.0000 </r>
       <r>  -27.5226    1.0000 </r>
       <r>  -27.4906    1.0000 </r>
       <r>  -27.4877    1.0000 </r>
       <r>   -2.9738    1.0000 </r>
       <r>   -2.0476    1.0000 </r>
       <r>   -1.9869    1.0000 </r>
       <r>   -1.9826    1.0000 </r>
       <r>   -1.3843    1.0000 </r>
       <r>   -1.3766    1.0000 </r>
       <r>   -1.3726    1.0000 </r>
       <r>   -1.3228    1.0000 </r>
       <r>   -1.2943    1.0000 </r>
       <r>   -1.2858    1.0000 </r>
       <r>   -1.2841    1.0000 </r>
       <r>   -1.2624    1.0000 </r>
       <r>   -1.2562    1.0000 </r>
       <r>   -1.2113    1.0000 </r>
       <r>   -1.1095    1.0000 </r>
       <r>   -0.9338    1.0000 </r>
       <r>   -0.9210    1.0000 </r>
       <r>   -0.8829    1.0000 </r>
       <r>   -0.8635    1.0000 </r>
       <r>   -0.8439    1.0000 </r>
       <r>   -0.8344    1.0000 </r>
       <r>   -0.8167    1.0000 </r>
       <r>   -0.8156    1.0000 </r>
       <r>   -0.7819    1.0000 </r>
       <r>   -0.7789    1.0000 </r>
       <r>   -0.7579    1.0000 </r>
       <r>   -0.7552    1.0000 </r>
       <r>   -0.6604    1.0000 </r>
       <r>   -0.6583    1.0000 </r>
       <r>   -0.5444    1.0000 </r>
       <r>   -0.5166    1.0000 </r>
       <r>   -0.5049    1.0000 </r>
       <r>   -0.4862    1.0000 </r>
       <r>   -0.4534    1.0000 </r>
       <r>   -0.4484    1.0000 </r>
       <r>   -0.3976    1.0000 </r>
       <r>   -0.3769    1.0000 </r>
       <r>   -0.3748    1.0000 </r>
       <r>   -0.3646    1.0000 </r>
       <r>   -0.3175    1.0000 </r>
       <r>   -0.3137    1.0000 </r>
       <r>   -0.2841    1.0000 </r>
       <r>   -0.2744    1.0000 </r>
       <r>   -0.2358    1.0000 </r>
       <r>   -0.1988    1.0000 </r>
       <r>   -0.1842    1.0000 </r>
       <r>   -0.1750    1.0000 </r>
       <r>   -0.1134    1.0000 </r>
       <r>   -0.1069    1.0000 </r>
       <r>    0.0040    1.0000 </r>
       <r>    0.0339    1.0000 </r>
       <r>    0.0350    1.0000 </r>
       <r>    0.0395    1.0000 </r>
       <r>    0.0567    1.0000 </r>
       <r>    0.1413    1.0000 </r>
       <r>    0.1529    1.0000 </r>
       <r>    0.1540    1.0000 </r>
       <r>    0.2025    1.0000 </r>
       <r>    0.2094    1.0000 </r>
       <r>    0.2211    1.0000 </r>
       <r>    0.2593    1.0000 </r>
       <r>    0.2669    1.0000 </r>
       <r>    0.3096    1.0000 </r>
       <r>    0.3174    1.0000 </r>
       <r>    0.3243    1.0000 </r>
       <r>    0.3371    1.0000 </r>
       <r>    0.3935    1.0000 </r>
       <r>    0.4070    1.0000 </r>
       <r>    0.4353    1.0000 </r>
       <r>    0.4422    1.0000 </r>
       <r>    0.4473    1.0000 </r>
       <r>    0.4849    1.0000 </r>
       <r>    0.4938    1.0000 </r>
       <r>    0.5013    1.0000 </r>
       <r>    0.5055    1.0000 </r>
       <r>    0.5241    1.0000 </r>
       <r>    0.5255    1.0000 </r>
       <r>    0.5416    1.0000 </r>
       <r>    0.5792    1.0000 </r>
       <r>    0.5825    1.0000 </r>
       <r>    0.6029    1.0000 </r>
       <r>    0.6238    1.0000 </r>
       <r>    0.6277    1.0000 </r>
       <r>    0.6397    1.0000 </r>
       <r>    0.6555    1.0000 </r>
       <r>    0.6949    1.0000 </r>
       <r>    0.7086    1.0000 </r>
       <r>    0.7332    1.0000 </r>
       <r>    0.7589    1.0000 </r>
       <r>    0.8054    1.0000 </r>
       <r>    0.8523    1.0000 </r>
       <r>    0.8724    1.0000 </r>
       <r>    0.8738    1.0000 </r>
       <r>    0.9296    1.0000 </r>
       <r>    0.9555    1.0000 </r>
       <r>    0.9687    1.0000 </r>
       <r>    0.9745    1.0000 </r>
       <r>    0.9988    1.0000 </r>
       <r>    1.0030    1.0000 </r>
       <r>    1.0264    1.0000 </r>
       <r>    1.0472    1.0000 </r>
       <r>    1.0602    1.0000 </r>
       <r>    1.0835    1.0000 </r>
       <r>    1.1169    1.0000 </r>
       <r>    1.1374    1.0000 </r>
       <r>    1.1945    1.0000 </r>
       <r>    1.2315    1.0000 </r>
       <r>    1.2721    1.0000 </r>
       <r>    1.3314    1.0000 </r>
       <r>    1.3415    1.0000 </r>
       <r>    1.3577    1.0000 </r>
       <r>    1.3832    1.0000 </r>
       <r>    1.4012    1.0000 </r>
       <r>    1.4155    1.0000 </r>
       <r>    1.4236    1.0000 </r>
       <r>    1.4593    1.0000 </r>
       <r>    1.4970    1.0000 </r>
       <r>    1.5136    1.0000 </r>
       <r>    1.5440    1.0000 </r>
       <r>    1.5454    1.0000 </r>
       <r>    1.5658    1.0000 </r>
       <r>    1.5811    1.0000 </r>
       <r>    1.6007    1.0000 </r>
       <r>    1.6846    1.0000 </r>
       <r>    1.7005    1.0000 </r>
       <r>    1.7121    1.0000 </r>
       <r>    1.7404    1.0000 </r>
       <r>    1.7451    1.0000 </r>
       <r>    1.7917    1.0000 </r>
       <r>    1.7941    1.0000 </r>
       <r>    1.8011    1.0000 </r>
       <r>    1.8305    1.0000 </r>
       <r>    1.8746    1.0000 </r>
       <r>    1.8965    1.0000 </r>
       <r>    1.9523    1.0000 </r>
       <r>    1.9529    1.0000 </r>
       <r>    1.9663    1.0000 </r>
       <r>    1.9837    1.0000 </r>
       <r>    1.9996    1.0000 </r>
       <r>    2.0013    1.0000 </r>
       <r>    2.0240    1.0000 </r>
       <r>    2.0422    1.0000 </r>
       <r>    2.0613    1.0000 </r>
       <r>    2.0723    1.0000 </r>
       <r>    2.0841    1.0000 </r>
       <r>    2.1001    1.0000 </r>
       <r>    2.1186    1.0000 </r>
       <r>    2.1601    1.0000 </r>
       <r>    2.2049    1.0000 </r>
       <r>    2.2433    1.0000 </r>
       <r>    2.2965    1.0000 </r>
       <r>    2.3047    1.0000 </r>
       <r>    2.3355    1.0000 </r>
       <r>    2.3450    1.0000 </r>
       <r>    2.3566    1.0000 </r>
       <r>    2.3907    1.0000 </r>
       <r>    2.4873    1.0000 </r>
       <r>    2.5062    1.0000 </r>
       <r>    2.5638    1.0000 </r>
       <r>    2.6472    1.0000 </r>
       <r>    2.6946    1.0000 </r>
       <r>    2.7105    1.0000 </r>
       <r>    2.7487    1.0000 </r>
       <r>    2.7786    1.0000 </r>
       <r>    2.8395    1.0000 </r>
       <r>    2.8616    1.0000 </r>
       <r>    2.8853    1.0000 </r>
       <r>    2.8871    1.0000 </r>
       <r>    2.9001    1.0000 </r>
       <r>    2.9130    1.0000 </r>
       <r>    2.9233    1.0000 </r>
       <r>    2.9545    1.0000 </r>
       <r>    2.9550    1.0000 </r>
       <r>    3.0071    1.0000 </r>
       <r>    3.0217    1.0000 </r>
       <r>    3.0466    1.0000 </r>
       <r>    3.1413    1.0000 </r>
       <r>    3.1872    1.0000 </r>
       <r>    3.1883    1.0000 </r>
       <r>    3.2031    1.0000 </r>
       <r>    3.2355    0.9998 </r>
       <r>    3.2382    0.9997 </r>
       <r>    3.2942    0.9960 </r>
       <r>    3.3101    0.9925 </r>
       <r>    3.3264    0.9861 </r>
       <r>    3.3882    0.9075 </r>
       <r>    3.4192    0.8124 </r>
       <r>    3.4563    0.6413 </r>
       <r>    3.5022    0.3871 </r>
       <r>    3.5088    0.3521 </r>
       <r>    3.5490    0.1712 </r>
       <r>    3.5645    0.1214 </r>
       <r>    3.6285    0.0191 </r>
       <r>    3.6591    0.0061 </r>
       <r>    3.7152    0.0005 </r>
       <r>    3.7574    0.0000 </r>
       <r>    3.8273    0.0000 </r>
       <r>    3.8406    0.0000 </r>
       <r>    3.9068    0.0000 </r>
       <r>    3.9275    0.0000 </r>
       <r>    3.9931    0.0000 </r>
       <r>    3.9931    0.0000 </r>
       <r>    4.0158    0.0000 </r>
       <r>    4.0215    0.0000 </r>
       <r>    4.0594    0.0000 </r>
       <r>    4.0662    0.0000 </r>
       <r>    4.0844    0.0000 </r>
       <r>    4.1501    0.0000 </r>
       <r>    4.1766    0.0000 </r>
       <r>    4.1967    0.0000 </r>
       <r>    4.2150    0.0000 </r>
       <r>    4.2603    0.0000 </r>
       <r>    4.2606    0.0000 </r>
       <r>    4.3082    0.0000 </r>
       <r>    4.3250    0.0000 </r>
       <r>    4.3362    0.0000 </r>
       <r>    4.4179    0.0000 </r>
       <r>    4.4363    0.0000 </r>
       <r>    4.4713    0.0000 </r>
       <r>    4.4764    0.0000 </r>
       <r>    4.5102    0.0000 </r>
       <r>    4.5139    0.0000 </r>
       <r>    4.5454    0.0000 </r>
       <r>    4.5548    0.0000 </r>
       <r>    4.5838    0.0000 </r>
       <r>    4.5840    0.0000 </r>
       <r>    4.6278    0.0000 </r>
       <r>    4.6489    0.0000 </r>
       <r>    4.6581    0.0000 </r>
       <r>    4.6630    0.0000 </r>
       <r>    4.7279    0.0000 </r>
       <r>    4.7396    0.0000 </r>
       <r>    4.7590    0.0000 </r>
       <r>    4.7630    0.0000 </r>
       <r>    4.7704    0.0000 </r>
       <r>    4.7972    0.0000 </r>
       <r>    4.8106    0.0000 </r>
       <r>    4.8133    0.0000 </r>
       <r>    4.8405    0.0000 </r>
       <r>    4.8536    0.0000 </r>
       <r>    4.8675    0.0000 </r>
       <r>    4.9287    0.0000 </r>
       <r>    4.9297    0.0000 </r>
       <r>    4.9670    0.0000 </r>
       <r>    4.9924    0.0000 </r>
       <r>    4.9961    0.0000 </r>
       <r>    5.0056    0.0000 </r>
       <r>    5.0343    0.0000 </r>
       <r>    5.0519    0.0000 </r>
       <r>    5.0540    0.0000 </r>
       <r>    5.0825    0.0000 </r>
       <r>    5.0955    0.0000 </r>
       <r>    5.1088    0.0000 </r>
       <r>    5.1095    0.0000 </r>
       <r>    5.1213    0.0000 </r>
       <r>    5.1341    0.0000 </r>
       <r>    5.1684    0.0000 </r>
       <r>    5.1888    0.0000 </r>
       <r>    5.2016    0.0000 </r>
       <r>    5.2096    0.0000 </r>
       <r>    5.2505    0.0000 </r>
       <r>    5.2734    0.0000 </r>
       <r>    5.2923    0.0000 </r>
       <r>    5.2982    0.0000 </r>
       <r>    5.3166    0.0000 </r>
       <r>    5.3472    0.0000 </r>
       <r>    5.3507    0.0000 </r>
       <r>    5.3870    0.0000 </r>
       <r>    5.3939    0.0000 </r>
       <r>    5.4307    0.0000 </r>
       <r>    5.4320    0.0000 </r>
       <r>    5.4406    0.0000 </r>
       <r>    5.4550    0.0000 </r>
       <r>    5.4905    0.0000 </r>
       <r>    5.5055    0.0000 </r>
       <r>    5.5285    0.0000 </r>
      </set>
      <set comment="kpoint 8">
       <r>  -57.6880    1.0000 </r>
       <r>  -57.6859    1.0000 </r>
       <r>  -57.6420    1.0000 </r>
       <r>  -57.6406    1.0000 </r>
       <r>  -57.6291    1.0000 </r>
       <r>  -57.6234    1.0000 </r>
       <r>  -57.5974    1.0000 </r>
       <r>  -57.5944    1.0000 </r>
       <r>  -57.5812    1.0000 </r>
       <r>  -57.5792    1.0000 </r>
       <r>  -57.5680    1.0000 </r>
       <r>  -57.5640    1.0000 </r>
       <r>  -57.5594    1.0000 </r>
       <r>  -57.5583    1.0000 </r>
       <r>  -57.5529    1.0000 </r>
       <r>  -57.5512    1.0000 </r>
       <r>  -57.5448    1.0000 </r>
       <r>  -57.5385    1.0000 </r>
       <r>  -57.4937    1.0000 </r>
       <r>  -57.4807    1.0000 </r>
       <r>  -57.4615    1.0000 </r>
       <r>  -57.4561    1.0000 </r>
       <r>  -57.4519    1.0000 </r>
       <r>  -57.4512    1.0000 </r>
       <r>  -57.4496    1.0000 </r>
       <r>  -57.4461    1.0000 </r>
       <r>  -57.4453    1.0000 </r>
       <r>  -57.4423    1.0000 </r>
       <r>  -57.4362    1.0000 </r>
       <r>  -57.4342    1.0000 </r>
       <r>  -57.4312    1.0000 </r>
       <r>  -57.4297    1.0000 </r>
       <r>  -57.4232    1.0000 </r>
       <r>  -57.4216    1.0000 </r>
       <r>  -57.4199    1.0000 </r>
       <r>  -57.4139    1.0000 </r>
       <r>  -57.4118    1.0000 </r>
       <r>  -57.4051    1.0000 </r>
       <r>  -57.3892    1.0000 </r>
       <r>  -57.3850    1.0000 </r>
       <r>  -57.3772    1.0000 </r>
       <r>  -57.3714    1.0000 </r>
       <r>  -57.3603    1.0000 </r>
       <r>  -57.3556    1.0000 </r>
       <r>  -57.3008    1.0000 </r>
       <r>  -57.2498    1.0000 </r>
       <r>  -57.2451    1.0000 </r>
       <r>  -57.2431    1.0000 </r>
       <r>  -57.2402    1.0000 </r>
       <r>  -57.2361    1.0000 </r>
       <r>  -57.2345    1.0000 </r>
       <r>  -57.2319    1.0000 </r>
       <r>  -57.2298    1.0000 </r>
       <r>  -57.2275    1.0000 </r>
       <r>  -57.2263    1.0000 </r>
       <r>  -57.2229    1.0000 </r>
       <r>  -57.2073    1.0000 </r>
       <r>  -57.1982    1.0000 </r>
       <r>  -57.1858    1.0000 </r>
       <r>  -57.1700    1.0000 </r>
       <r>  -57.1645    1.0000 </r>
       <r>  -51.5335    1.0000 </r>
       <r>  -51.4976    1.0000 </r>
       <r>  -32.3318    1.0000 </r>
       <r>  -32.3171    1.0000 </r>
       <r>  -32.2985    1.0000 </r>
       <r>  -32.2879    1.0000 </r>
       <r>  -32.2574    1.0000 </r>
       <r>  -32.2375    1.0000 </r>
       <r>  -32.2265    1.0000 </r>
       <r>  -32.2146    1.0000 </r>
       <r>  -32.1993    1.0000 </r>
       <r>  -32.1866    1.0000 </r>
       <r>  -32.1668    1.0000 </r>
       <r>  -32.1616    1.0000 </r>
       <r>  -32.1538    1.0000 </r>
       <r>  -32.1471    1.0000 </r>
       <r>  -32.1424    1.0000 </r>
       <r>  -32.1338    1.0000 </r>
       <r>  -32.1127    1.0000 </r>
       <r>  -32.1096    1.0000 </r>
       <r>  -32.0992    1.0000 </r>
       <r>  -32.0966    1.0000 </r>
       <r>  -32.0937    1.0000 </r>
       <r>  -32.0906    1.0000 </r>
       <r>  -32.0848    1.0000 </r>
       <r>  -32.0773    1.0000 </r>
       <r>  -32.0688    1.0000 </r>
       <r>  -32.0598    1.0000 </r>
       <r>  -32.0523    1.0000 </r>
       <r>  -32.0498    1.0000 </r>
       <r>  -32.0465    1.0000 </r>
       <r>  -32.0427    1.0000 </r>
       <r>  -32.0365    1.0000 </r>
       <r>  -31.9975    1.0000 </r>
       <r>  -31.9862    1.0000 </r>
       <r>  -31.9784    1.0000 </r>
       <r>  -31.9678    1.0000 </r>
       <r>  -31.9624    1.0000 </r>
       <r>  -31.9507    1.0000 </r>
       <r>  -31.9453    1.0000 </r>
       <r>  -31.9265    1.0000 </r>
       <r>  -31.9163    1.0000 </r>
       <r>  -31.9016    1.0000 </r>
       <r>  -31.8891    1.0000 </r>
       <r>  -31.8842    1.0000 </r>
       <r>  -31.8764    1.0000 </r>
       <r>  -31.8668    1.0000 </r>
       <r>  -31.8565    1.0000 </r>
       <r>  -31.8525    1.0000 </r>
       <r>  -31.8367    1.0000 </r>
       <r>  -31.8327    1.0000 </r>
       <r>  -31.8169    1.0000 </r>
       <r>  -31.8065    1.0000 </r>
       <r>  -31.8013    1.0000 </r>
       <r>  -31.7963    1.0000 </r>
       <r>  -31.7770    1.0000 </r>
       <r>  -31.7684    1.0000 </r>
       <r>  -31.7562    1.0000 </r>
       <r>  -31.7537    1.0000 </r>
       <r>  -31.7426    1.0000 </r>
       <r>  -31.7201    1.0000 </r>
       <r>  -31.7044    1.0000 </r>
       <r>  -31.6998    1.0000 </r>
       <r>  -31.6843    1.0000 </r>
       <r>  -31.6799    1.0000 </r>
       <r>  -31.6688    1.0000 </r>
       <r>  -31.6621    1.0000 </r>
       <r>  -31.6549    1.0000 </r>
       <r>  -31.6518    1.0000 </r>
       <r>  -31.6449    1.0000 </r>
       <r>  -31.6405    1.0000 </r>
       <r>  -31.6359    1.0000 </r>
       <r>  -31.6321    1.0000 </r>
       <r>  -31.6242    1.0000 </r>
       <r>  -31.6148    1.0000 </r>
       <r>  -31.5985    1.0000 </r>
       <r>  -31.5934    1.0000 </r>
       <r>  -31.5729    1.0000 </r>
       <r>  -31.5676    1.0000 </r>
       <r>  -31.5616    1.0000 </r>
       <r>  -31.5523    1.0000 </r>
       <r>  -31.5474    1.0000 </r>
       <r>  -31.5453    1.0000 </r>
       <r>  -31.5331    1.0000 </r>
       <r>  -31.5272    1.0000 </r>
       <r>  -31.5229    1.0000 </r>
       <r>  -31.5134    1.0000 </r>
       <r>  -31.5078    1.0000 </r>
       <r>  -31.5013    1.0000 </r>
       <r>  -31.4928    1.0000 </r>
       <r>  -31.4908    1.0000 </r>
       <r>  -31.4867    1.0000 </r>
       <r>  -31.4817    1.0000 </r>
       <r>  -31.4767    1.0000 </r>
       <r>  -31.4731    1.0000 </r>
       <r>  -31.4599    1.0000 </r>
       <r>  -31.4549    1.0000 </r>
       <r>  -31.4494    1.0000 </r>
       <r>  -31.4463    1.0000 </r>
       <r>  -31.4450    1.0000 </r>
       <r>  -31.4400    1.0000 </r>
       <r>  -31.4342    1.0000 </r>
       <r>  -31.4284    1.0000 </r>
       <r>  -31.4156    1.0000 </r>
       <r>  -31.4113    1.0000 </r>
       <r>  -31.4032    1.0000 </r>
       <r>  -31.4011    1.0000 </r>
       <r>  -31.3911    1.0000 </r>
       <r>  -31.3804    1.0000 </r>
       <r>  -31.3724    1.0000 </r>
       <r>  -31.3609    1.0000 </r>
       <r>  -31.3579    1.0000 </r>
       <r>  -31.3435    1.0000 </r>
       <r>  -31.3337    1.0000 </r>
       <r>  -31.3186    1.0000 </r>
       <r>  -31.2989    1.0000 </r>
       <r>  -31.2937    1.0000 </r>
       <r>  -31.2864    1.0000 </r>
       <r>  -31.2818    1.0000 </r>
       <r>  -31.2797    1.0000 </r>
       <r>  -31.2772    1.0000 </r>
       <r>  -31.2761    1.0000 </r>
       <r>  -31.2722    1.0000 </r>
       <r>  -31.2686    1.0000 </r>
       <r>  -31.2589    1.0000 </r>
       <r>  -31.2545    1.0000 </r>
       <r>  -31.2435    1.0000 </r>
       <r>  -31.2378    1.0000 </r>
       <r>  -31.2250    1.0000 </r>
       <r>  -31.2189    1.0000 </r>
       <r>  -31.2139    1.0000 </r>
       <r>  -31.2119    1.0000 </r>
       <r>  -31.2028    1.0000 </r>
       <r>  -31.1961    1.0000 </r>
       <r>  -31.1945    1.0000 </r>
       <r>  -31.1895    1.0000 </r>
       <r>  -31.1868    1.0000 </r>
       <r>  -31.1819    1.0000 </r>
       <r>  -31.1801    1.0000 </r>
       <r>  -31.1752    1.0000 </r>
       <r>  -31.1745    1.0000 </r>
       <r>  -31.1698    1.0000 </r>
       <r>  -31.1671    1.0000 </r>
       <r>  -31.1639    1.0000 </r>
       <r>  -31.1604    1.0000 </r>
       <r>  -31.1567    1.0000 </r>
       <r>  -31.1503    1.0000 </r>
       <r>  -31.1450    1.0000 </r>
       <r>  -31.1421    1.0000 </r>
       <r>  -31.1327    1.0000 </r>
       <r>  -31.1295    1.0000 </r>
       <r>  -31.1275    1.0000 </r>
       <r>  -31.0985    1.0000 </r>
       <r>  -31.0909    1.0000 </r>
       <r>  -31.0902    1.0000 </r>
       <r>  -31.0880    1.0000 </r>
       <r>  -31.0823    1.0000 </r>
       <r>  -31.0807    1.0000 </r>
       <r>  -31.0796    1.0000 </r>
       <r>  -31.0747    1.0000 </r>
       <r>  -31.0725    1.0000 </r>
       <r>  -31.0721    1.0000 </r>
       <r>  -31.0599    1.0000 </r>
       <r>  -31.0588    1.0000 </r>
       <r>  -31.0538    1.0000 </r>
       <r>  -31.0489    1.0000 </r>
       <r>  -31.0441    1.0000 </r>
       <r>  -31.0417    1.0000 </r>
       <r>  -31.0380    1.0000 </r>
       <r>  -31.0353    1.0000 </r>
       <r>  -31.0298    1.0000 </r>
       <r>  -31.0285    1.0000 </r>
       <r>  -31.0250    1.0000 </r>
       <r>  -31.0154    1.0000 </r>
       <r>  -30.9936    1.0000 </r>
       <r>  -30.9805    1.0000 </r>
       <r>  -30.9745    1.0000 </r>
       <r>  -30.9665    1.0000 </r>
       <r>  -30.9460    1.0000 </r>
       <r>  -30.9375    1.0000 </r>
       <r>  -30.9135    1.0000 </r>
       <r>  -30.9066    1.0000 </r>
       <r>  -30.9001    1.0000 </r>
       <r>  -30.8863    1.0000 </r>
       <r>  -30.8727    1.0000 </r>
       <r>  -27.6582    1.0000 </r>
       <r>  -27.6421    1.0000 </r>
       <r>  -27.5497    1.0000 </r>
       <r>  -27.5226    1.0000 </r>
       <r>  -27.4906    1.0000 </r>
       <r>  -27.4878    1.0000 </r>
       <r>   -2.5775    1.0000 </r>
       <r>   -2.5700    1.0000 </r>
       <r>   -1.7440    1.0000 </r>
       <r>   -1.7297    1.0000 </r>
       <r>   -1.6905    1.0000 </r>
       <r>   -1.6814    1.0000 </r>
       <r>   -1.3455    1.0000 </r>
       <r>   -1.3057    1.0000 </r>
       <r>   -1.2491    1.0000 </r>
       <r>   -1.2340    1.0000 </r>
       <r>   -1.1413    1.0000 </r>
       <r>   -1.1135    1.0000 </r>
       <r>   -1.0103    1.0000 </r>
       <r>   -0.9993    1.0000 </r>
       <r>   -0.9792    1.0000 </r>
       <r>   -0.9611    1.0000 </r>
       <r>   -0.8959    1.0000 </r>
       <r>   -0.8804    1.0000 </r>
       <r>   -0.8764    1.0000 </r>
       <r>   -0.8659    1.0000 </r>
       <r>   -0.8119    1.0000 </r>
       <r>   -0.7825    1.0000 </r>
       <r>   -0.7671    1.0000 </r>
       <r>   -0.7225    1.0000 </r>
       <r>   -0.7044    1.0000 </r>
       <r>   -0.6903    1.0000 </r>
       <r>   -0.6839    1.0000 </r>
       <r>   -0.6705    1.0000 </r>
       <r>   -0.6656    1.0000 </r>
       <r>   -0.6193    1.0000 </r>
       <r>   -0.5732    1.0000 </r>
       <r>   -0.5551    1.0000 </r>
       <r>   -0.4753    1.0000 </r>
       <r>   -0.4640    1.0000 </r>
       <r>   -0.4467    1.0000 </r>
       <r>   -0.4322    1.0000 </r>
       <r>   -0.4229    1.0000 </r>
       <r>   -0.4066    1.0000 </r>
       <r>   -0.3527    1.0000 </r>
       <r>   -0.3137    1.0000 </r>
       <r>   -0.2938    1.0000 </r>
       <r>   -0.2762    1.0000 </r>
       <r>   -0.2440    1.0000 </r>
       <r>   -0.2193    1.0000 </r>
       <r>   -0.2092    1.0000 </r>
       <r>   -0.2002    1.0000 </r>
       <r>   -0.1759    1.0000 </r>
       <r>   -0.1628    1.0000 </r>
       <r>   -0.1243    1.0000 </r>
       <r>   -0.1034    1.0000 </r>
       <r>   -0.0751    1.0000 </r>
       <r>   -0.0501    1.0000 </r>
       <r>   -0.0083    1.0000 </r>
       <r>    0.0362    1.0000 </r>
       <r>    0.0507    1.0000 </r>
       <r>    0.0635    1.0000 </r>
       <r>    0.1079    1.0000 </r>
       <r>    0.1252    1.0000 </r>
       <r>    0.1703    1.0000 </r>
       <r>    0.1874    1.0000 </r>
       <r>    0.2651    1.0000 </r>
       <r>    0.2906    1.0000 </r>
       <r>    0.3093    1.0000 </r>
       <r>    0.3190    1.0000 </r>
       <r>    0.3313    1.0000 </r>
       <r>    0.3374    1.0000 </r>
       <r>    0.3461    1.0000 </r>
       <r>    0.3582    1.0000 </r>
       <r>    0.3772    1.0000 </r>
       <r>    0.4020    1.0000 </r>
       <r>    0.4212    1.0000 </r>
       <r>    0.4366    1.0000 </r>
       <r>    0.4480    1.0000 </r>
       <r>    0.4608    1.0000 </r>
       <r>    0.4812    1.0000 </r>
       <r>    0.4932    1.0000 </r>
       <r>    0.5043    1.0000 </r>
       <r>    0.5232    1.0000 </r>
       <r>    0.5384    1.0000 </r>
       <r>    0.5618    1.0000 </r>
       <r>    0.5979    1.0000 </r>
       <r>    0.6116    1.0000 </r>
       <r>    0.6441    1.0000 </r>
       <r>    0.6612    1.0000 </r>
       <r>    0.6923    1.0000 </r>
       <r>    0.7099    1.0000 </r>
       <r>    0.7250    1.0000 </r>
       <r>    0.7372    1.0000 </r>
       <r>    0.7476    1.0000 </r>
       <r>    0.7582    1.0000 </r>
       <r>    0.8091    1.0000 </r>
       <r>    0.8363    1.0000 </r>
       <r>    0.8647    1.0000 </r>
       <r>    0.8786    1.0000 </r>
       <r>    0.8905    1.0000 </r>
       <r>    0.9036    1.0000 </r>
       <r>    0.9514    1.0000 </r>
       <r>    0.9677    1.0000 </r>
       <r>    0.9745    1.0000 </r>
       <r>    1.0553    1.0000 </r>
       <r>    1.0861    1.0000 </r>
       <r>    1.0976    1.0000 </r>
       <r>    1.1090    1.0000 </r>
       <r>    1.1433    1.0000 </r>
       <r>    1.1563    1.0000 </r>
       <r>    1.1769    1.0000 </r>
       <r>    1.1898    1.0000 </r>
       <r>    1.2220    1.0000 </r>
       <r>    1.2488    1.0000 </r>
       <r>    1.2878    1.0000 </r>
       <r>    1.2959    1.0000 </r>
       <r>    1.3154    1.0000 </r>
       <r>    1.3626    1.0000 </r>
       <r>    1.3725    1.0000 </r>
       <r>    1.4438    1.0000 </r>
       <r>    1.4718    1.0000 </r>
       <r>    1.4859    1.0000 </r>
       <r>    1.4949    1.0000 </r>
       <r>    1.5148    1.0000 </r>
       <r>    1.5266    1.0000 </r>
       <r>    1.5383    1.0000 </r>
       <r>    1.5484    1.0000 </r>
       <r>    1.5606    1.0000 </r>
       <r>    1.5785    1.0000 </r>
       <r>    1.6305    1.0000 </r>
       <r>    1.6422    1.0000 </r>
       <r>    1.6545    1.0000 </r>
       <r>    1.6650    1.0000 </r>
       <r>    1.6847    1.0000 </r>
       <r>    1.7445    1.0000 </r>
       <r>    1.7569    1.0000 </r>
       <r>    1.8009    1.0000 </r>
       <r>    1.8157    1.0000 </r>
       <r>    1.8409    1.0000 </r>
       <r>    1.8482    1.0000 </r>
       <r>    1.8862    1.0000 </r>
       <r>    1.9003    1.0000 </r>
       <r>    1.9247    1.0000 </r>
       <r>    1.9272    1.0000 </r>
       <r>    1.9426    1.0000 </r>
       <r>    1.9593    1.0000 </r>
       <r>    1.9697    1.0000 </r>
       <r>    1.9809    1.0000 </r>
       <r>    2.0073    1.0000 </r>
       <r>    2.0500    1.0000 </r>
       <r>    2.1003    1.0000 </r>
       <r>    2.1279    1.0000 </r>
       <r>    2.1720    1.0000 </r>
       <r>    2.1946    1.0000 </r>
       <r>    2.2468    1.0000 </r>
       <r>    2.3696    1.0000 </r>
       <r>    2.3846    1.0000 </r>
       <r>    2.4113    1.0000 </r>
       <r>    2.4224    1.0000 </r>
       <r>    2.4902    1.0000 </r>
       <r>    2.5218    1.0000 </r>
       <r>    2.5345    1.0000 </r>
       <r>    2.6036    1.0000 </r>
       <r>    2.6341    1.0000 </r>
       <r>    2.6940    1.0000 </r>
       <r>    2.7507    1.0000 </r>
       <r>    2.7730    1.0000 </r>
       <r>    2.8184    1.0000 </r>
       <r>    2.8289    1.0000 </r>
       <r>    2.8841    1.0000 </r>
       <r>    2.9043    1.0000 </r>
       <r>    2.9207    1.0000 </r>
       <r>    2.9541    1.0000 </r>
       <r>    2.9717    1.0000 </r>
       <r>    3.0000    1.0000 </r>
       <r>    3.0225    1.0000 </r>
       <r>    3.0730    1.0000 </r>
       <r>    3.0774    1.0000 </r>
       <r>    3.0874    1.0000 </r>
       <r>    3.1353    1.0000 </r>
       <r>    3.1565    1.0000 </r>
       <r>    3.1634    1.0000 </r>
       <r>    3.1867    1.0000 </r>
       <r>    3.2209    0.9999 </r>
       <r>    3.2257    0.9999 </r>
       <r>    3.2641    0.9990 </r>
       <r>    3.3005    0.9949 </r>
       <r>    3.3229    0.9877 </r>
       <r>    3.3448    0.9737 </r>
       <r>    3.3713    0.9412 </r>
       <r>    3.3808    0.9236 </r>
       <r>    3.4148    0.8286 </r>
       <r>    3.4465    0.6918 </r>
       <r>    3.4896    0.4565 </r>
       <r>    3.5070    0.3613 </r>
       <r>    3.5237    0.2775 </r>
       <r>    3.6046    0.0414 </r>
       <r>    3.6308    0.0176 </r>
       <r>    3.6503    0.0086 </r>
       <r>    3.6675    0.0043 </r>
       <r>    3.6865    0.0019 </r>
       <r>    3.7232    0.0003 </r>
       <r>    3.8083    0.0000 </r>
       <r>    3.8203    0.0000 </r>
       <r>    3.8606    0.0000 </r>
       <r>    3.9801    0.0000 </r>
       <r>    3.9969    0.0000 </r>
       <r>    4.0101    0.0000 </r>
       <r>    4.0409    0.0000 </r>
       <r>    4.0836    0.0000 </r>
       <r>    4.1074    0.0000 </r>
       <r>    4.1286    0.0000 </r>
       <r>    4.1387    0.0000 </r>
       <r>    4.2228    0.0000 </r>
       <r>    4.2553    0.0000 </r>
       <r>    4.2622    0.0000 </r>
       <r>    4.2987    0.0000 </r>
       <r>    4.3168    0.0000 </r>
       <r>    4.3579    0.0000 </r>
       <r>    4.3735    0.0000 </r>
       <r>    4.4251    0.0000 </r>
       <r>    4.4474    0.0000 </r>
       <r>    4.4883    0.0000 </r>
       <r>    4.5379    0.0000 </r>
       <r>    4.5593    0.0000 </r>
       <r>    4.5790    0.0000 </r>
       <r>    4.6038    0.0000 </r>
       <r>    4.6461    0.0000 </r>
       <r>    4.6608    0.0000 </r>
       <r>    4.6715    0.0000 </r>
       <r>    4.6854    0.0000 </r>
       <r>    4.6905    0.0000 </r>
       <r>    4.6940    0.0000 </r>
       <r>    4.7027    0.0000 </r>
       <r>    4.7455    0.0000 </r>
       <r>    4.7537    0.0000 </r>
       <r>    4.7578    0.0000 </r>
       <r>    4.7767    0.0000 </r>
       <r>    4.7873    0.0000 </r>
       <r>    4.7908    0.0000 </r>
       <r>    4.8203    0.0000 </r>
       <r>    4.8297    0.0000 </r>
       <r>    4.8642    0.0000 </r>
       <r>    4.8804    0.0000 </r>
       <r>    4.8920    0.0000 </r>
       <r>    4.8991    0.0000 </r>
       <r>    4.9131    0.0000 </r>
       <r>    4.9438    0.0000 </r>
       <r>    4.9545    0.0000 </r>
       <r>    5.0027    0.0000 </r>
       <r>    5.0131    0.0000 </r>
       <r>    5.0420    0.0000 </r>
       <r>    5.0725    0.0000 </r>
       <r>    5.0855    0.0000 </r>
       <r>    5.0921    0.0000 </r>
       <r>    5.1027    0.0000 </r>
       <r>    5.1144    0.0000 </r>
       <r>    5.1300    0.0000 </r>
       <r>    5.1408    0.0000 </r>
       <r>    5.1668    0.0000 </r>
       <r>    5.1758    0.0000 </r>
       <r>    5.1906    0.0000 </r>
       <r>    5.1989    0.0000 </r>
       <r>    5.2316    0.0000 </r>
       <r>    5.2507    0.0000 </r>
       <r>    5.2623    0.0000 </r>
       <r>    5.2741    0.0000 </r>
       <r>    5.2829    0.0000 </r>
       <r>    5.2922    0.0000 </r>
       <r>    5.3027    0.0000 </r>
       <r>    5.3291    0.0000 </r>
       <r>    5.3398    0.0000 </r>
       <r>    5.3603    0.0000 </r>
       <r>    5.3944    0.0000 </r>
       <r>    5.4128    0.0000 </r>
       <r>    5.4436    0.0000 </r>
       <r>    5.4560    0.0000 </r>
       <r>    5.4641    0.0000 </r>
       <r>    5.5199    0.0000 </r>
       <r>    5.5391    0.0000 </r>
       <r>    5.5535    0.0000 </r>
      </set>
      <set comment="kpoint 9">
       <r>  -57.6880    1.0000 </r>
       <r>  -57.6859    1.0000 </r>
       <r>  -57.6420    1.0000 </r>
       <r>  -57.6406    1.0000 </r>
       <r>  -57.6291    1.0000 </r>
       <r>  -57.6234    1.0000 </r>
       <r>  -57.5974    1.0000 </r>
       <r>  -57.5944    1.0000 </r>
       <r>  -57.5812    1.0000 </r>
       <r>  -57.5792    1.0000 </r>
       <r>  -57.5680    1.0000 </r>
       <r>  -57.5640    1.0000 </r>
       <r>  -57.5594    1.0000 </r>
       <r>  -57.5583    1.0000 </r>
       <r>  -57.5529    1.0000 </r>
       <r>  -57.5512    1.0000 </r>
       <r>  -57.5448    1.0000 </r>
       <r>  -57.5385    1.0000 </r>
       <r>  -57.4937    1.0000 </r>
       <r>  -57.4807    1.0000 </r>
       <r>  -57.4615    1.0000 </r>
       <r>  -57.4561    1.0000 </r>
       <r>  -57.4519    1.0000 </r>
       <r>  -57.4512    1.0000 </r>
       <r>  -57.4496    1.0000 </r>
       <r>  -57.4461    1.0000 </r>
       <r>  -57.4453    1.0000 </r>
       <r>  -57.4423    1.0000 </r>
       <r>  -57.4362    1.0000 </r>
       <r>  -57.4342    1.0000 </r>
       <r>  -57.4312    1.0000 </r>
       <r>  -57.4297    1.0000 </r>
       <r>  -57.4232    1.0000 </r>
       <r>  -57.4216    1.0000 </r>
       <r>  -57.4199    1.0000 </r>
       <r>  -57.4139    1.0000 </r>
       <r>  -57.4118    1.0000 </r>
       <r>  -57.4051    1.0000 </r>
       <r>  -57.3892    1.0000 </r>
       <r>  -57.3850    1.0000 </r>
       <r>  -57.3772    1.0000 </r>
       <r>  -57.3714    1.0000 </r>
       <r>  -57.3603    1.0000 </r>
       <r>  -57.3556    1.0000 </r>
       <r>  -57.3008    1.0000 </r>
       <r>  -57.2498    1.0000 </r>
       <r>  -57.2451    1.0000 </r>
       <r>  -57.2431    1.0000 </r>
       <r>  -57.2402    1.0000 </r>
       <r>  -57.2361    1.0000 </r>
       <r>  -57.2345    1.0000 </r>
       <r>  -57.2319    1.0000 </r>
       <r>  -57.2298    1.0000 </r>
       <r>  -57.2275    1.0000 </r>
       <r>  -57.2263    1.0000 </r>
       <r>  -57.2229    1.0000 </r>
       <r>  -57.2073    1.0000 </r>
       <r>  -57.1982    1.0000 </r>
       <r>  -57.1858    1.0000 </r>
       <r>  -57.1700    1.0000 </r>
       <r>  -57.1645    1.0000 </r>
       <r>  -51.5335    1.0000 </r>
       <r>  -51.4976    1.0000 </r>
       <r>  -32.3318    1.0000 </r>
       <r>  -32.3171    1.0000 </r>
       <r>  -32.2985    1.0000 </r>
       <r>  -32.2879    1.0000 </r>
       <r>  -32.2574    1.0000 </r>
       <r>  -32.2375    1.0000 </r>
       <r>  -32.2265    1.0000 </r>
       <r>  -32.2146    1.0000 </r>
       <r>  -32.1993    1.0000 </r>
       <r>  -32.1866    1.0000 </r>
       <r>  -32.1668    1.0000 </r>
       <r>  -32.1616    1.0000 </r>
       <r>  -32.1538    1.0000 </r>
       <r>  -32.1471    1.0000 </r>
       <r>  -32.1424    1.0000 </r>
       <r>  -32.1338    1.0000 </r>
       <r>  -32.1127    1.0000 </r>
       <r>  -32.1096    1.0000 </r>
       <r>  -32.0992    1.0000 </r>
       <r>  -32.0966    1.0000 </r>
       <r>  -32.0937    1.0000 </r>
       <r>  -32.0906    1.0000 </r>
       <r>  -32.0848    1.0000 </r>
       <r>  -32.0773    1.0000 </r>
       <r>  -32.0688    1.0000 </r>
       <r>  -32.0598    1.0000 </r>
       <r>  -32.0523    1.0000 </r>
       <r>  -32.0498    1.0000 </r>
       <r>  -32.0465    1.0000 </r>
       <r>  -32.0427    1.0000 </r>
       <r>  -32.0365    1.0000 </r>
       <r>  -31.9975    1.0000 </r>
       <r>  -31.9862    1.0000 </r>
       <r>  -31.9784    1.0000 </r>
       <r>  -31.9678    1.0000 </r>
       <r>  -31.9624    1.0000 </r>
       <r>  -31.9507    1.0000 </r>
       <r>  -31.9453    1.0000 </r>
       <r>  -31.9265    1.0000 </r>
       <r>  -31.9164    1.0000 </r>
       <r>  -31.9016    1.0000 </r>
       <r>  -31.8891    1.0000 </r>
       <r>  -31.8842    1.0000 </r>
       <r>  -31.8764    1.0000 </r>
       <r>  -31.8668    1.0000 </r>
       <r>  -31.8565    1.0000 </r>
       <r>  -31.8525    1.0000 </r>
       <r>  -31.8367    1.0000 </r>
       <r>  -31.8327    1.0000 </r>
       <r>  -31.8169    1.0000 </r>
       <r>  -31.8065    1.0000 </r>
       <r>  -31.8013    1.0000 </r>
       <r>  -31.7963    1.0000 </r>
       <r>  -31.7770    1.0000 </r>
       <r>  -31.7684    1.0000 </r>
       <r>  -31.7562    1.0000 </r>
       <r>  -31.7537    1.0000 </r>
       <r>  -31.7426    1.0000 </r>
       <r>  -31.7201    1.0000 </r>
       <r>  -31.7044    1.0000 </r>
       <r>  -31.6998    1.0000 </r>
       <r>  -31.6843    1.0000 </r>
       <r>  -31.6799    1.0000 </r>
       <r>  -31.6688    1.0000 </r>
       <r>  -31.6621    1.0000 </r>
       <r>  -31.6549    1.0000 </r>
       <r>  -31.6518    1.0000 </r>
       <r>  -31.6449    1.0000 </r>
       <r>  -31.6405    1.0000 </r>
       <r>  -31.6359    1.0000 </r>
       <r>  -31.6321    1.0000 </r>
       <r>  -31.6242    1.0000 </r>
       <r>  -31.6148    1.0000 </r>
       <r>  -31.5985    1.0000 </r>
       <r>  -31.5934    1.0000 </r>
       <r>  -31.5729    1.0000 </r>
       <r>  -31.5676    1.0000 </r>
       <r>  -31.5615    1.0000 </r>
       <r>  -31.5523    1.0000 </r>
       <r>  -31.5474    1.0000 </r>
       <r>  -31.5453    1.0000 </r>
       <r>  -31.5331    1.0000 </r>
       <r>  -31.5272    1.0000 </r>
       <r>  -31.5229    1.0000 </r>
       <r>  -31.5134    1.0000 </r>
       <r>  -31.5078    1.0000 </r>
       <r>  -31.5013    1.0000 </r>
       <r>  -31.4928    1.0000 </r>
       <r>  -31.4908    1.0000 </r>
       <r>  -31.4867    1.0000 </r>
       <r>  -31.4817    1.0000 </r>
       <r>  -31.4767    1.0000 </r>
       <r>  -31.4732    1.0000 </r>
       <r>  -31.4599    1.0000 </r>
       <r>  -31.4550    1.0000 </r>
       <r>  -31.4494    1.0000 </r>
       <r>  -31.4463    1.0000 </r>
       <r>  -31.4450    1.0000 </r>
       <r>  -31.4400    1.0000 </r>
       <r>  -31.4342    1.0000 </r>
       <r>  -31.4284    1.0000 </r>
       <r>  -31.4156    1.0000 </r>
       <r>  -31.4113    1.0000 </r>
       <r>  -31.4032    1.0000 </r>
       <r>  -31.4011    1.0000 </r>
       <r>  -31.3911    1.0000 </r>
       <r>  -31.3804    1.0000 </r>
       <r>  -31.3724    1.0000 </r>
       <r>  -31.3609    1.0000 </r>
       <r>  -31.3579    1.0000 </r>
       <r>  -31.3435    1.0000 </r>
       <r>  -31.3337    1.0000 </r>
       <r>  -31.3186    1.0000 </r>
       <r>  -31.2989    1.0000 </r>
       <r>  -31.2937    1.0000 </r>
       <r>  -31.2864    1.0000 </r>
       <r>  -31.2817    1.0000 </r>
       <r>  -31.2797    1.0000 </r>
       <r>  -31.2772    1.0000 </r>
       <r>  -31.2761    1.0000 </r>
       <r>  -31.2722    1.0000 </r>
       <r>  -31.2686    1.0000 </r>
       <r>  -31.2589    1.0000 </r>
       <r>  -31.2545    1.0000 </r>
       <r>  -31.2435    1.0000 </r>
       <r>  -31.2378    1.0000 </r>
       <r>  -31.2250    1.0000 </r>
       <r>  -31.2189    1.0000 </r>
       <r>  -31.2139    1.0000 </r>
       <r>  -31.2119    1.0000 </r>
       <r>  -31.2028    1.0000 </r>
       <r>  -31.1961    1.0000 </r>
       <r>  -31.1945    1.0000 </r>
       <r>  -31.1895    1.0000 </r>
       <r>  -31.1868    1.0000 </r>
       <r>  -31.1819    1.0000 </r>
       <r>  -31.1801    1.0000 </r>
       <r>  -31.1752    1.0000 </r>
       <r>  -31.1745    1.0000 </r>
       <r>  -31.1698    1.0000 </r>
       <r>  -31.1671    1.0000 </r>
       <r>  -31.1639    1.0000 </r>
       <r>  -31.1604    1.0000 </r>
       <r>  -31.1567    1.0000 </r>
       <r>  -31.1503    1.0000 </r>
       <r>  -31.1450    1.0000 </r>
       <r>  -31.1421    1.0000 </r>
       <r>  -31.1327    1.0000 </r>
       <r>  -31.1295    1.0000 </r>
       <r>  -31.1275    1.0000 </r>
       <r>  -31.0985    1.0000 </r>
       <r>  -31.0909    1.0000 </r>
       <r>  -31.0902    1.0000 </r>
       <r>  -31.0880    1.0000 </r>
       <r>  -31.0823    1.0000 </r>
       <r>  -31.0807    1.0000 </r>
       <r>  -31.0796    1.0000 </r>
       <r>  -31.0747    1.0000 </r>
       <r>  -31.0725    1.0000 </r>
       <r>  -31.0721    1.0000 </r>
       <r>  -31.0599    1.0000 </r>
       <r>  -31.0588    1.0000 </r>
       <r>  -31.0538    1.0000 </r>
       <r>  -31.0489    1.0000 </r>
       <r>  -31.0441    1.0000 </r>
       <r>  -31.0417    1.0000 </r>
       <r>  -31.0380    1.0000 </r>
       <r>  -31.0353    1.0000 </r>
       <r>  -31.0298    1.0000 </r>
       <r>  -31.0285    1.0000 </r>
       <r>  -31.0250    1.0000 </r>
       <r>  -31.0154    1.0000 </r>
       <r>  -30.9936    1.0000 </r>
       <r>  -30.9805    1.0000 </r>
       <r>  -30.9745    1.0000 </r>
       <r>  -30.9665    1.0000 </r>
       <r>  -30.9460    1.0000 </r>
       <r>  -30.9375    1.0000 </r>
       <r>  -30.9135    1.0000 </r>
       <r>  -30.9066    1.0000 </r>
       <r>  -30.9001    1.0000 </r>
       <r>  -30.8863    1.0000 </r>
       <r>  -30.8727    1.0000 </r>
       <r>  -27.6582    1.0000 </r>
       <r>  -27.6421    1.0000 </r>
       <r>  -27.5497    1.0000 </r>
       <r>  -27.5226    1.0000 </r>
       <r>  -27.4906    1.0000 </r>
       <r>  -27.4878    1.0000 </r>
       <r>   -2.5775    1.0000 </r>
       <r>   -2.5700    1.0000 </r>
       <r>   -1.7440    1.0000 </r>
       <r>   -1.7297    1.0000 </r>
       <r>   -1.6905    1.0000 </r>
       <r>   -1.6814    1.0000 </r>
       <r>   -1.3455    1.0000 </r>
       <r>   -1.3057    1.0000 </r>
       <r>   -1.2491    1.0000 </r>
       <r>   -1.2340    1.0000 </r>
       <r>   -1.1413    1.0000 </r>
       <r>   -1.1135    1.0000 </r>
       <r>   -1.0103    1.0000 </r>
       <r>   -0.9993    1.0000 </r>
       <r>   -0.9792    1.0000 </r>
       <r>   -0.9611    1.0000 </r>
       <r>   -0.8959    1.0000 </r>
       <r>   -0.8804    1.0000 </r>
       <r>   -0.8764    1.0000 </r>
       <r>   -0.8659    1.0000 </r>
       <r>   -0.8119    1.0000 </r>
       <r>   -0.7825    1.0000 </r>
       <r>   -0.7671    1.0000 </r>
       <r>   -0.7225    1.0000 </r>
       <r>   -0.7044    1.0000 </r>
       <r>   -0.6903    1.0000 </r>
       <r>   -0.6839    1.0000 </r>
       <r>   -0.6705    1.0000 </r>
       <r>   -0.6656    1.0000 </r>
       <r>   -0.6193    1.0000 </r>
       <r>   -0.5732    1.0000 </r>
       <r>   -0.5551    1.0000 </r>
       <r>   -0.4753    1.0000 </r>
       <r>   -0.4640    1.0000 </r>
       <r>   -0.4467    1.0000 </r>
       <r>   -0.4322    1.0000 </r>
       <r>   -0.4229    1.0000 </r>
       <r>   -0.4066    1.0000 </r>
       <r>   -0.3527    1.0000 </r>
       <r>   -0.3137    1.0000 </r>
       <r>   -0.2938    1.0000 </r>
       <r>   -0.2762    1.0000 </r>
       <r>   -0.2439    1.0000 </r>
       <r>   -0.2193    1.0000 </r>
       <r>   -0.2092    1.0000 </r>
       <r>   -0.2002    1.0000 </r>
       <r>   -0.1759    1.0000 </r>
       <r>   -0.1628    1.0000 </r>
       <r>   -0.1243    1.0000 </r>
       <r>   -0.1034    1.0000 </r>
       <r>   -0.0751    1.0000 </r>
       <r>   -0.0501    1.0000 </r>
       <r>   -0.0083    1.0000 </r>
       <r>    0.0362    1.0000 </r>
       <r>    0.0507    1.0000 </r>
       <r>    0.0635    1.0000 </r>
       <r>    0.1079    1.0000 </r>
       <r>    0.1252    1.0000 </r>
       <r>    0.1703    1.0000 </r>
       <r>    0.1874    1.0000 </r>
       <r>    0.2651    1.0000 </r>
       <r>    0.2906    1.0000 </r>
       <r>    0.3093    1.0000 </r>
       <r>    0.3190    1.0000 </r>
       <r>    0.3313    1.0000 </r>
       <r>    0.3374    1.0000 </r>
       <r>    0.3461    1.0000 </r>
       <r>    0.3582    1.0000 </r>
       <r>    0.3771    1.0000 </r>
       <r>    0.4020    1.0000 </r>
       <r>    0.4212    1.0000 </r>
       <r>    0.4366    1.0000 </r>
       <r>    0.4480    1.0000 </r>
       <r>    0.4608    1.0000 </r>
       <r>    0.4812    1.0000 </r>
       <r>    0.4932    1.0000 </r>
       <r>    0.5043    1.0000 </r>
       <r>    0.5232    1.0000 </r>
       <r>    0.5384    1.0000 </r>
       <r>    0.5618    1.0000 </r>
       <r>    0.5979    1.0000 </r>
       <r>    0.6116    1.0000 </r>
       <r>    0.6441    1.0000 </r>
       <r>    0.6612    1.0000 </r>
       <r>    0.6923    1.0000 </r>
       <r>    0.7099    1.0000 </r>
       <r>    0.7250    1.0000 </r>
       <r>    0.7372    1.0000 </r>
       <r>    0.7476    1.0000 </r>
       <r>    0.7582    1.0000 </r>
       <r>    0.8091    1.0000 </r>
       <r>    0.8363    1.0000 </r>
       <r>    0.8647    1.0000 </r>
       <r>    0.8786    1.0000 </r>
       <r>    0.8905    1.0000 </r>
       <r>    0.9036    1.0000 </r>
       <r>    0.9514    1.0000 </r>
       <r>    0.9677    1.0000 </r>
       <r>    0.9745    1.0000 </r>
       <r>    1.0553    1.0000 </r>
       <r>    1.0861    1.0000 </r>
       <r>    1.0976    1.0000 </r>
       <r>    1.1090    1.0000 </r>
       <r>    1.1433    1.0000 </r>
       <r>    1.1563    1.0000 </r>
       <r>    1.1769    1.0000 </r>
       <r>    1.1898    1.0000 </r>
       <r>    1.2220    1.0000 </r>
       <r>    1.2488    1.0000 </r>
       <r>    1.2878    1.0000 </r>
       <r>    1.2959    1.0000 </r>
       <r>    1.3154    1.0000 </r>
       <r>    1.3626    1.0000 </r>
       <r>    1.3725    1.0000 </r>
       <r>    1.4438    1.0000 </r>
       <r>    1.4717    1.0000 </r>
       <r>    1.4859    1.0000 </r>
       <r>    1.4949    1.0000 </r>
       <r>    1.5148    1.0000 </r>
       <r>    1.5266    1.0000 </r>
       <r>    1.5383    1.0000 </r>
       <r>    1.5484    1.0000 </r>
       <r>    1.5606    1.0000 </r>
       <r>    1.5785    1.0000 </r>
       <r>    1.6305    1.0000 </r>
       <r>    1.6422    1.0000 </r>
       <r>    1.6545    1.0000 </r>
       <r>    1.6650    1.0000 </r>
       <r>    1.6847    1.0000 </r>
       <r>    1.7445    1.0000 </r>
       <r>    1.7569    1.0000 </r>
       <r>    1.8009    1.0000 </r>
       <r>    1.8157    1.0000 </r>
       <r>    1.8409    1.0000 </r>
       <r>    1.8482    1.0000 </r>
       <r>    1.8862    1.0000 </r>
       <r>    1.9003    1.0000 </r>
       <r>    1.9247    1.0000 </r>
       <r>    1.9272    1.0000 </r>
       <r>    1.9426    1.0000 </r>
       <r>    1.9593    1.0000 </r>
       <r>    1.9697    1.0000 </r>
       <r>    1.9808    1.0000 </r>
       <r>    2.0073    1.0000 </r>
       <r>    2.0500    1.0000 </r>
       <r>    2.1003    1.0000 </r>
       <r>    2.1279    1.0000 </r>
       <r>    2.1720    1.0000 </r>
       <r>    2.1946    1.0000 </r>
       <r>    2.2468    1.0000 </r>
       <r>    2.3696    1.0000 </r>
       <r>    2.3846    1.0000 </r>
       <r>    2.4113    1.0000 </r>
       <r>    2.4224    1.0000 </r>
       <r>    2.4902    1.0000 </r>
       <r>    2.5218    1.0000 </r>
       <r>    2.5345    1.0000 </r>
       <r>    2.6036    1.0000 </r>
       <r>    2.6341    1.0000 </r>
       <r>    2.6940    1.0000 </r>
       <r>    2.7507    1.0000 </r>
       <r>    2.7730    1.0000 </r>
       <r>    2.8184    1.0000 </r>
       <r>    2.8289    1.0000 </r>
       <r>    2.8841    1.0000 </r>
       <r>    2.9042    1.0000 </r>
       <r>    2.9207    1.0000 </r>
       <r>    2.9541    1.0000 </r>
       <r>    2.9717    1.0000 </r>
       <r>    3.0000    1.0000 </r>
       <r>    3.0225    1.0000 </r>
       <r>    3.0730    1.0000 </r>
       <r>    3.0774    1.0000 </r>
       <r>    3.0874    1.0000 </r>
       <r>    3.1353    1.0000 </r>
       <r>    3.1565    1.0000 </r>
       <r>    3.1634    1.0000 </r>
       <r>    3.1867    1.0000 </r>
       <r>    3.2209    0.9999 </r>
       <r>    3.2257    0.9999 </r>
       <r>    3.2641    0.9990 </r>
       <r>    3.3005    0.9949 </r>
       <r>    3.3229    0.9877 </r>
       <r>    3.3448    0.9737 </r>
       <r>    3.3713    0.9412 </r>
       <r>    3.3808    0.9236 </r>
       <r>    3.4148    0.8286 </r>
       <r>    3.4465    0.6918 </r>
       <r>    3.4896    0.4565 </r>
       <r>    3.5070    0.3613 </r>
       <r>    3.5236    0.2775 </r>
       <r>    3.6046    0.0414 </r>
       <r>    3.6308    0.0176 </r>
       <r>    3.6503    0.0086 </r>
       <r>    3.6675    0.0043 </r>
       <r>    3.6865    0.0019 </r>
       <r>    3.7232    0.0003 </r>
       <r>    3.8083    0.0000 </r>
       <r>    3.8203    0.0000 </r>
       <r>    3.8606    0.0000 </r>
       <r>    3.9801    0.0000 </r>
       <r>    3.9969    0.0000 </r>
       <r>    4.0101    0.0000 </r>
       <r>    4.0409    0.0000 </r>
       <r>    4.0836    0.0000 </r>
       <r>    4.1074    0.0000 </r>
       <r>    4.1286    0.0000 </r>
       <r>    4.1387    0.0000 </r>
       <r>    4.2228    0.0000 </r>
       <r>    4.2553    0.0000 </r>
       <r>    4.2622    0.0000 </r>
       <r>    4.2987    0.0000 </r>
       <r>    4.3169    0.0000 </r>
       <r>    4.3579    0.0000 </r>
       <r>    4.3735    0.0000 </r>
       <r>    4.4251    0.0000 </r>
       <r>    4.4474    0.0000 </r>
       <r>    4.4883    0.0000 </r>
       <r>    4.5379    0.0000 </r>
       <r>    4.5593    0.0000 </r>
       <r>    4.5790    0.0000 </r>
       <r>    4.6038    0.0000 </r>
       <r>    4.6461    0.0000 </r>
       <r>    4.6608    0.0000 </r>
       <r>    4.6715    0.0000 </r>
       <r>    4.6854    0.0000 </r>
       <r>    4.6905    0.0000 </r>
       <r>    4.6939    0.0000 </r>
       <r>    4.7027    0.0000 </r>
       <r>    4.7455    0.0000 </r>
       <r>    4.7537    0.0000 </r>
       <r>    4.7578    0.0000 </r>
       <r>    4.7767    0.0000 </r>
       <r>    4.7873    0.0000 </r>
       <r>    4.7908    0.0000 </r>
       <r>    4.8203    0.0000 </r>
       <r>    4.8297    0.0000 </r>
       <r>    4.8642    0.0000 </r>
       <r>    4.8804    0.0000 </r>
       <r>    4.8920    0.0000 </r>
       <r>    4.8991    0.0000 </r>
       <r>    4.9131    0.0000 </r>
       <r>    4.9438    0.0000 </r>
       <r>    4.9545    0.0000 </r>
       <r>    5.0027    0.0000 </r>
       <r>    5.0131    0.0000 </r>
       <r>    5.0420    0.0000 </r>
       <r>    5.0725    0.0000 </r>
       <r>    5.0855    0.0000 </r>
       <r>    5.0921    0.0000 </r>
       <r>    5.1027    0.0000 </r>
       <r>    5.1144    0.0000 </r>
       <r>    5.1300    0.0000 </r>
       <r>    5.1408    0.0000 </r>
       <r>    5.1668    0.0000 </r>
       <r>    5.1758    0.0000 </r>
       <r>    5.1906    0.0000 </r>
       <r>    5.1988    0.0000 </r>
       <r>    5.2316    0.0000 </r>
       <r>    5.2507    0.0000 </r>
       <r>    5.2623    0.0000 </r>
       <r>    5.2741    0.0000 </r>
       <r>    5.2829    0.0000 </r>
       <r>    5.2922    0.0000 </r>
       <r>    5.3027    0.0000 </r>
       <r>    5.3291    0.0000 </r>
       <r>    5.3398    0.0000 </r>
       <r>    5.3603    0.0000 </r>
       <r>    5.3944    0.0000 </r>
       <r>    5.4129    0.0000 </r>
       <r>    5.4428    0.0000 </r>
       <r>    5.4562    0.0000 </r>
       <r>    5.4629    0.0000 </r>
       <r>    5.5213    0.0000 </r>
       <r>    5.5375    0.0000 </r>
       <r>    5.5476    0.0000 </r>
      </set>
      <set comment="kpoint 10">
       <r>  -57.6715    1.0000 </r>
       <r>  -57.6703    1.0000 </r>
       <r>  -57.6669    1.0000 </r>
       <r>  -57.6662    1.0000 </r>
       <r>  -57.6189    1.0000 </r>
       <r>  -57.6140    1.0000 </r>
       <r>  -57.6122    1.0000 </r>
       <r>  -57.6095    1.0000 </r>
       <r>  -57.5724    1.0000 </r>
       <r>  -57.5673    1.0000 </r>
       <r>  -57.5655    1.0000 </r>
       <r>  -57.5608    1.0000 </r>
       <r>  -57.5583    1.0000 </r>
       <r>  -57.5522    1.0000 </r>
       <r>  -57.5518    1.0000 </r>
       <r>  -57.5496    1.0000 </r>
       <r>  -57.5446    1.0000 </r>
       <r>  -57.5373    1.0000 </r>
       <r>  -57.4904    1.0000 </r>
       <r>  -57.4813    1.0000 </r>
       <r>  -57.4634    1.0000 </r>
       <r>  -57.4601    1.0000 </r>
       <r>  -57.4511    1.0000 </r>
       <r>  -57.4509    1.0000 </r>
       <r>  -57.4492    1.0000 </r>
       <r>  -57.4488    1.0000 </r>
       <r>  -57.4481    1.0000 </r>
       <r>  -57.4456    1.0000 </r>
       <r>  -57.4348    1.0000 </r>
       <r>  -57.4338    1.0000 </r>
       <r>  -57.4320    1.0000 </r>
       <r>  -57.4307    1.0000 </r>
       <r>  -57.4265    1.0000 </r>
       <r>  -57.4264    1.0000 </r>
       <r>  -57.4235    1.0000 </r>
       <r>  -57.4122    1.0000 </r>
       <r>  -57.4121    1.0000 </r>
       <r>  -57.4041    1.0000 </r>
       <r>  -57.3841    1.0000 </r>
       <r>  -57.3799    1.0000 </r>
       <r>  -57.3702    1.0000 </r>
       <r>  -57.3695    1.0000 </r>
       <r>  -57.3644    1.0000 </r>
       <r>  -57.3594    1.0000 </r>
       <r>  -57.3008    1.0000 </r>
       <r>  -57.2487    1.0000 </r>
       <r>  -57.2458    1.0000 </r>
       <r>  -57.2444    1.0000 </r>
       <r>  -57.2431    1.0000 </r>
       <r>  -57.2336    1.0000 </r>
       <r>  -57.2330    1.0000 </r>
       <r>  -57.2306    1.0000 </r>
       <r>  -57.2305    1.0000 </r>
       <r>  -57.2293    1.0000 </r>
       <r>  -57.2288    1.0000 </r>
       <r>  -57.2230    1.0000 </r>
       <r>  -57.2038    1.0000 </r>
       <r>  -57.1999    1.0000 </r>
       <r>  -57.1831    1.0000 </r>
       <r>  -57.1704    1.0000 </r>
       <r>  -57.1659    1.0000 </r>
       <r>  -51.5335    1.0000 </r>
       <r>  -51.4976    1.0000 </r>
       <r>  -32.3458    1.0000 </r>
       <r>  -32.3171    1.0000 </r>
       <r>  -32.3074    1.0000 </r>
       <r>  -32.2757    1.0000 </r>
       <r>  -32.2497    1.0000 </r>
       <r>  -32.2471    1.0000 </r>
       <r>  -32.2317    1.0000 </r>
       <r>  -32.2293    1.0000 </r>
       <r>  -32.2205    1.0000 </r>
       <r>  -32.2164    1.0000 </r>
       <r>  -32.1996    1.0000 </r>
       <r>  -32.1698    1.0000 </r>
       <r>  -32.1586    1.0000 </r>
       <r>  -32.1571    1.0000 </r>
       <r>  -32.1268    1.0000 </r>
       <r>  -32.1205    1.0000 </r>
       <r>  -32.0988    1.0000 </r>
       <r>  -32.0896    1.0000 </r>
       <r>  -32.0818    1.0000 </r>
       <r>  -32.0773    1.0000 </r>
       <r>  -32.0727    1.0000 </r>
       <r>  -32.0614    1.0000 </r>
       <r>  -32.0611    1.0000 </r>
       <r>  -32.0583    1.0000 </r>
       <r>  -32.0502    1.0000 </r>
       <r>  -32.0467    1.0000 </r>
       <r>  -32.0385    1.0000 </r>
       <r>  -32.0359    1.0000 </r>
       <r>  -32.0276    1.0000 </r>
       <r>  -32.0207    1.0000 </r>
       <r>  -32.0186    1.0000 </r>
       <r>  -32.0116    1.0000 </r>
       <r>  -32.0108    1.0000 </r>
       <r>  -32.0047    1.0000 </r>
       <r>  -31.9890    1.0000 </r>
       <r>  -31.9835    1.0000 </r>
       <r>  -31.9510    1.0000 </r>
       <r>  -31.9420    1.0000 </r>
       <r>  -31.9313    1.0000 </r>
       <r>  -31.9104    1.0000 </r>
       <r>  -31.9051    1.0000 </r>
       <r>  -31.9012    1.0000 </r>
       <r>  -31.8933    1.0000 </r>
       <r>  -31.8819    1.0000 </r>
       <r>  -31.8807    1.0000 </r>
       <r>  -31.8713    1.0000 </r>
       <r>  -31.8608    1.0000 </r>
       <r>  -31.8607    1.0000 </r>
       <r>  -31.8555    1.0000 </r>
       <r>  -31.8369    1.0000 </r>
       <r>  -31.8073    1.0000 </r>
       <r>  -31.8007    1.0000 </r>
       <r>  -31.7812    1.0000 </r>
       <r>  -31.7764    1.0000 </r>
       <r>  -31.7600    1.0000 </r>
       <r>  -31.7592    1.0000 </r>
       <r>  -31.7590    1.0000 </r>
       <r>  -31.7582    1.0000 </r>
       <r>  -31.7366    1.0000 </r>
       <r>  -31.7196    1.0000 </r>
       <r>  -31.6837    1.0000 </r>
       <r>  -31.6804    1.0000 </r>
       <r>  -31.6745    1.0000 </r>
       <r>  -31.6676    1.0000 </r>
       <r>  -31.6477    1.0000 </r>
       <r>  -31.6439    1.0000 </r>
       <r>  -31.6338    1.0000 </r>
       <r>  -31.6211    1.0000 </r>
       <r>  -31.6152    1.0000 </r>
       <r>  -31.6116    1.0000 </r>
       <r>  -31.6030    1.0000 </r>
       <r>  -31.6019    1.0000 </r>
       <r>  -31.5973    1.0000 </r>
       <r>  -31.5972    1.0000 </r>
       <r>  -31.5947    1.0000 </r>
       <r>  -31.5880    1.0000 </r>
       <r>  -31.5785    1.0000 </r>
       <r>  -31.5555    1.0000 </r>
       <r>  -31.5500    1.0000 </r>
       <r>  -31.5409    1.0000 </r>
       <r>  -31.5369    1.0000 </r>
       <r>  -31.5276    1.0000 </r>
       <r>  -31.5212    1.0000 </r>
       <r>  -31.5182    1.0000 </r>
       <r>  -31.5110    1.0000 </r>
       <r>  -31.5085    1.0000 </r>
       <r>  -31.4992    1.0000 </r>
       <r>  -31.4942    1.0000 </r>
       <r>  -31.4914    1.0000 </r>
       <r>  -31.4865    1.0000 </r>
       <r>  -31.4807    1.0000 </r>
       <r>  -31.4790    1.0000 </r>
       <r>  -31.4782    1.0000 </r>
       <r>  -31.4774    1.0000 </r>
       <r>  -31.4768    1.0000 </r>
       <r>  -31.4699    1.0000 </r>
       <r>  -31.4676    1.0000 </r>
       <r>  -31.4617    1.0000 </r>
       <r>  -31.4556    1.0000 </r>
       <r>  -31.4523    1.0000 </r>
       <r>  -31.4390    1.0000 </r>
       <r>  -31.4330    1.0000 </r>
       <r>  -31.4118    1.0000 </r>
       <r>  -31.4095    1.0000 </r>
       <r>  -31.4000    1.0000 </r>
       <r>  -31.3945    1.0000 </r>
       <r>  -31.3939    1.0000 </r>
       <r>  -31.3846    1.0000 </r>
       <r>  -31.3814    1.0000 </r>
       <r>  -31.3491    1.0000 </r>
       <r>  -31.3153    1.0000 </r>
       <r>  -31.3148    1.0000 </r>
       <r>  -31.2923    1.0000 </r>
       <r>  -31.2910    1.0000 </r>
       <r>  -31.2899    1.0000 </r>
       <r>  -31.2888    1.0000 </r>
       <r>  -31.2888    1.0000 </r>
       <r>  -31.2881    1.0000 </r>
       <r>  -31.2673    1.0000 </r>
       <r>  -31.2633    1.0000 </r>
       <r>  -31.2558    1.0000 </r>
       <r>  -31.2505    1.0000 </r>
       <r>  -31.2459    1.0000 </r>
       <r>  -31.2436    1.0000 </r>
       <r>  -31.2411    1.0000 </r>
       <r>  -31.2404    1.0000 </r>
       <r>  -31.2386    1.0000 </r>
       <r>  -31.2259    1.0000 </r>
       <r>  -31.2136    1.0000 </r>
       <r>  -31.2113    1.0000 </r>
       <r>  -31.2031    1.0000 </r>
       <r>  -31.2009    1.0000 </r>
       <r>  -31.1972    1.0000 </r>
       <r>  -31.1952    1.0000 </r>
       <r>  -31.1937    1.0000 </r>
       <r>  -31.1931    1.0000 </r>
       <r>  -31.1927    1.0000 </r>
       <r>  -31.1902    1.0000 </r>
       <r>  -31.1838    1.0000 </r>
       <r>  -31.1718    1.0000 </r>
       <r>  -31.1682    1.0000 </r>
       <r>  -31.1643    1.0000 </r>
       <r>  -31.1605    1.0000 </r>
       <r>  -31.1591    1.0000 </r>
       <r>  -31.1534    1.0000 </r>
       <r>  -31.1399    1.0000 </r>
       <r>  -31.1370    1.0000 </r>
       <r>  -31.1312    1.0000 </r>
       <r>  -31.1307    1.0000 </r>
       <r>  -31.1006    1.0000 </r>
       <r>  -31.0926    1.0000 </r>
       <r>  -31.0920    1.0000 </r>
       <r>  -31.0914    1.0000 </r>
       <r>  -31.0912    1.0000 </r>
       <r>  -31.0887    1.0000 </r>
       <r>  -31.0828    1.0000 </r>
       <r>  -31.0807    1.0000 </r>
       <r>  -31.0799    1.0000 </r>
       <r>  -31.0787    1.0000 </r>
       <r>  -31.0779    1.0000 </r>
       <r>  -31.0746    1.0000 </r>
       <r>  -31.0460    1.0000 </r>
       <r>  -31.0457    1.0000 </r>
       <r>  -31.0451    1.0000 </r>
       <r>  -31.0445    1.0000 </r>
       <r>  -31.0408    1.0000 </r>
       <r>  -31.0337    1.0000 </r>
       <r>  -31.0300    1.0000 </r>
       <r>  -31.0293    1.0000 </r>
       <r>  -31.0287    1.0000 </r>
       <r>  -31.0252    1.0000 </r>
       <r>  -31.0059    1.0000 </r>
       <r>  -31.0027    1.0000 </r>
       <r>  -30.9841    1.0000 </r>
       <r>  -30.9798    1.0000 </r>
       <r>  -30.9693    1.0000 </r>
       <r>  -30.9414    1.0000 </r>
       <r>  -30.9336    1.0000 </r>
       <r>  -30.9154    1.0000 </r>
       <r>  -30.9064    1.0000 </r>
       <r>  -30.8988    1.0000 </r>
       <r>  -30.8871    1.0000 </r>
       <r>  -30.8691    1.0000 </r>
       <r>  -27.6582    1.0000 </r>
       <r>  -27.6422    1.0000 </r>
       <r>  -27.5497    1.0000 </r>
       <r>  -27.5226    1.0000 </r>
       <r>  -27.4907    1.0000 </r>
       <r>  -27.4878    1.0000 </r>
       <r>   -2.2178    1.0000 </r>
       <r>   -2.2085    1.0000 </r>
       <r>   -2.2059    1.0000 </r>
       <r>   -2.1978    1.0000 </r>
       <r>   -1.4146    1.0000 </r>
       <r>   -1.4010    1.0000 </r>
       <r>   -1.3933    1.0000 </r>
       <r>   -1.3801    1.0000 </r>
       <r>   -1.3251    1.0000 </r>
       <r>   -1.3153    1.0000 </r>
       <r>   -0.9703    1.0000 </r>
       <r>   -0.9682    1.0000 </r>
       <r>   -0.9459    1.0000 </r>
       <r>   -0.9450    1.0000 </r>
       <r>   -0.9245    1.0000 </r>
       <r>   -0.9172    1.0000 </r>
       <r>   -0.9102    1.0000 </r>
       <r>   -0.9084    1.0000 </r>
       <r>   -0.8351    1.0000 </r>
       <r>   -0.8169    1.0000 </r>
       <r>   -0.8103    1.0000 </r>
       <r>   -0.7963    1.0000 </r>
       <r>   -0.7844    1.0000 </r>
       <r>   -0.7466    1.0000 </r>
       <r>   -0.7091    1.0000 </r>
       <r>   -0.6679    1.0000 </r>
       <r>   -0.5509    1.0000 </r>
       <r>   -0.5448    1.0000 </r>
       <r>   -0.5373    1.0000 </r>
       <r>   -0.5248    1.0000 </r>
       <r>   -0.5158    1.0000 </r>
       <r>   -0.4943    1.0000 </r>
       <r>   -0.4885    1.0000 </r>
       <r>   -0.4724    1.0000 </r>
       <r>   -0.4622    1.0000 </r>
       <r>   -0.4572    1.0000 </r>
       <r>   -0.4546    1.0000 </r>
       <r>   -0.4431    1.0000 </r>
       <r>   -0.4384    1.0000 </r>
       <r>   -0.3741    1.0000 </r>
       <r>   -0.3458    1.0000 </r>
       <r>   -0.3194    1.0000 </r>
       <r>   -0.2981    1.0000 </r>
       <r>   -0.2423    1.0000 </r>
       <r>   -0.2390    1.0000 </r>
       <r>   -0.2346    1.0000 </r>
       <r>   -0.2266    1.0000 </r>
       <r>   -0.2193    1.0000 </r>
       <r>   -0.1471    1.0000 </r>
       <r>   -0.1460    1.0000 </r>
       <r>   -0.1357    1.0000 </r>
       <r>   -0.1162    1.0000 </r>
       <r>    0.0156    1.0000 </r>
       <r>    0.0361    1.0000 </r>
       <r>    0.0483    1.0000 </r>
       <r>    0.0561    1.0000 </r>
       <r>    0.0900    1.0000 </r>
       <r>    0.2077    1.0000 </r>
       <r>    0.2207    1.0000 </r>
       <r>    0.2349    1.0000 </r>
       <r>    0.2376    1.0000 </r>
       <r>    0.2622    1.0000 </r>
       <r>    0.2623    1.0000 </r>
       <r>    0.3056    1.0000 </r>
       <r>    0.3068    1.0000 </r>
       <r>    0.3290    1.0000 </r>
       <r>    0.3413    1.0000 </r>
       <r>    0.3727    1.0000 </r>
       <r>    0.3763    1.0000 </r>
       <r>    0.3912    1.0000 </r>
       <r>    0.3966    1.0000 </r>
       <r>    0.4069    1.0000 </r>
       <r>    0.4196    1.0000 </r>
       <r>    0.4232    1.0000 </r>
       <r>    0.4308    1.0000 </r>
       <r>    0.4340    1.0000 </r>
       <r>    0.4419    1.0000 </r>
       <r>    0.4553    1.0000 </r>
       <r>    0.4565    1.0000 </r>
       <r>    0.4632    1.0000 </r>
       <r>    0.4670    1.0000 </r>
       <r>    0.5278    1.0000 </r>
       <r>    0.5374    1.0000 </r>
       <r>    0.5429    1.0000 </r>
       <r>    0.5958    1.0000 </r>
       <r>    0.6661    1.0000 </r>
       <r>    0.7301    1.0000 </r>
       <r>    0.7683    1.0000 </r>
       <r>    0.7769    1.0000 </r>
       <r>    0.8077    1.0000 </r>
       <r>    0.8086    1.0000 </r>
       <r>    0.8734    1.0000 </r>
       <r>    0.8765    1.0000 </r>
       <r>    0.9194    1.0000 </r>
       <r>    0.9215    1.0000 </r>
       <r>    0.9467    1.0000 </r>
       <r>    0.9611    1.0000 </r>
       <r>    0.9622    1.0000 </r>
       <r>    0.9828    1.0000 </r>
       <r>    1.0213    1.0000 </r>
       <r>    1.0407    1.0000 </r>
       <r>    1.0544    1.0000 </r>
       <r>    1.0644    1.0000 </r>
       <r>    1.1354    1.0000 </r>
       <r>    1.1931    1.0000 </r>
       <r>    1.1955    1.0000 </r>
       <r>    1.2043    1.0000 </r>
       <r>    1.2091    1.0000 </r>
       <r>    1.2111    1.0000 </r>
       <r>    1.2449    1.0000 </r>
       <r>    1.2652    1.0000 </r>
       <r>    1.3130    1.0000 </r>
       <r>    1.3137    1.0000 </r>
       <r>    1.3270    1.0000 </r>
       <r>    1.3842    1.0000 </r>
       <r>    1.3949    1.0000 </r>
       <r>    1.4439    1.0000 </r>
       <r>    1.4681    1.0000 </r>
       <r>    1.4892    1.0000 </r>
       <r>    1.4958    1.0000 </r>
       <r>    1.5016    1.0000 </r>
       <r>    1.5040    1.0000 </r>
       <r>    1.5200    1.0000 </r>
       <r>    1.5234    1.0000 </r>
       <r>    1.5267    1.0000 </r>
       <r>    1.5312    1.0000 </r>
       <r>    1.5321    1.0000 </r>
       <r>    1.5464    1.0000 </r>
       <r>    1.5551    1.0000 </r>
       <r>    1.5586    1.0000 </r>
       <r>    1.5708    1.0000 </r>
       <r>    1.7485    1.0000 </r>
       <r>    1.7592    1.0000 </r>
       <r>    1.7601    1.0000 </r>
       <r>    1.8015    1.0000 </r>
       <r>    1.8327    1.0000 </r>
       <r>    1.8562    1.0000 </r>
       <r>    1.8966    1.0000 </r>
       <r>    1.8980    1.0000 </r>
       <r>    1.9175    1.0000 </r>
       <r>    1.9385    1.0000 </r>
       <r>    1.9692    1.0000 </r>
       <r>    1.9706    1.0000 </r>
       <r>    1.9788    1.0000 </r>
       <r>    2.0029    1.0000 </r>
       <r>    2.0115    1.0000 </r>
       <r>    2.0151    1.0000 </r>
       <r>    2.2547    1.0000 </r>
       <r>    2.2964    1.0000 </r>
       <r>    2.3330    1.0000 </r>
       <r>    2.3799    1.0000 </r>
       <r>    2.4413    1.0000 </r>
       <r>    2.4981    1.0000 </r>
       <r>    2.5102    1.0000 </r>
       <r>    2.5867    1.0000 </r>
       <r>    2.6611    1.0000 </r>
       <r>    2.6666    1.0000 </r>
       <r>    2.7476    1.0000 </r>
       <r>    2.7839    1.0000 </r>
       <r>    2.8240    1.0000 </r>
       <r>    2.8482    1.0000 </r>
       <r>    2.8775    1.0000 </r>
       <r>    2.8873    1.0000 </r>
       <r>    2.9487    1.0000 </r>
       <r>    2.9716    1.0000 </r>
       <r>    2.9796    1.0000 </r>
       <r>    3.0044    1.0000 </r>
       <r>    3.0338    1.0000 </r>
       <r>    3.0342    1.0000 </r>
       <r>    3.0348    1.0000 </r>
       <r>    3.0356    1.0000 </r>
       <r>    3.0479    1.0000 </r>
       <r>    3.0698    1.0000 </r>
       <r>    3.0732    1.0000 </r>
       <r>    3.0899    1.0000 </r>
       <r>    3.0970    1.0000 </r>
       <r>    3.1217    1.0000 </r>
       <r>    3.1675    1.0000 </r>
       <r>    3.1747    1.0000 </r>
       <r>    3.2256    0.9999 </r>
       <r>    3.3271    0.9857 </r>
       <r>    3.3642    0.9519 </r>
       <r>    3.3896    0.9040 </r>
       <r>    3.4509    0.6695 </r>
       <r>    3.5031    0.3820 </r>
       <r>    3.5266    0.2637 </r>
       <r>    3.5411    0.2014 </r>
       <r>    3.5600    0.1346 </r>
       <r>    3.5874    0.0679 </r>
       <r>    3.6159    0.0290 </r>
       <r>    3.6610    0.0057 </r>
       <r>    3.6824    0.0023 </r>
       <r>    3.6838    0.0021 </r>
       <r>    3.7280    0.0002 </r>
       <r>    3.7311    0.0002 </r>
       <r>    3.7406    0.0001 </r>
       <r>    3.8088    0.0000 </r>
       <r>    3.8091    0.0000 </r>
       <r>    3.8615    0.0000 </r>
       <r>    3.9594    0.0000 </r>
       <r>    3.9780    0.0000 </r>
       <r>    4.0015    0.0000 </r>
       <r>    4.0101    0.0000 </r>
       <r>    4.0432    0.0000 </r>
       <r>    4.1144    0.0000 </r>
       <r>    4.1755    0.0000 </r>
       <r>    4.1888    0.0000 </r>
       <r>    4.1929    0.0000 </r>
       <r>    4.2132    0.0000 </r>
       <r>    4.2169    0.0000 </r>
       <r>    4.3101    0.0000 </r>
       <r>    4.3139    0.0000 </r>
       <r>    4.3247    0.0000 </r>
       <r>    4.3260    0.0000 </r>
       <r>    4.3599    0.0000 </r>
       <r>    4.3619    0.0000 </r>
       <r>    4.3654    0.0000 </r>
       <r>    4.3688    0.0000 </r>
       <r>    4.4402    0.0000 </r>
       <r>    4.4460    0.0000 </r>
       <r>    4.4543    0.0000 </r>
       <r>    4.4590    0.0000 </r>
       <r>    4.4645    0.0000 </r>
       <r>    4.5511    0.0000 </r>
       <r>    4.5636    0.0000 </r>
       <r>    4.5834    0.0000 </r>
       <r>    4.5942    0.0000 </r>
       <r>    4.6491    0.0000 </r>
       <r>    4.6516    0.0000 </r>
       <r>    4.6551    0.0000 </r>
       <r>    4.6673    0.0000 </r>
       <r>    4.8432    0.0000 </r>
       <r>    4.8609    0.0000 </r>
       <r>    4.8840    0.0000 </r>
       <r>    4.8910    0.0000 </r>
       <r>    4.9301    0.0000 </r>
       <r>    4.9364    0.0000 </r>
       <r>    4.9412    0.0000 </r>
       <r>    4.9579    0.0000 </r>
       <r>    4.9662    0.0000 </r>
       <r>    5.0041    0.0000 </r>
       <r>    5.0186    0.0000 </r>
       <r>    5.0296    0.0000 </r>
       <r>    5.0346    0.0000 </r>
       <r>    5.0505    0.0000 </r>
       <r>    5.0555    0.0000 </r>
       <r>    5.0660    0.0000 </r>
       <r>    5.0839    0.0000 </r>
       <r>    5.0854    0.0000 </r>
       <r>    5.0920    0.0000 </r>
       <r>    5.1249    0.0000 </r>
       <r>    5.1459    0.0000 </r>
       <r>    5.1460    0.0000 </r>
       <r>    5.1540    0.0000 </r>
       <r>    5.1691    0.0000 </r>
       <r>    5.1691    0.0000 </r>
       <r>    5.2130    0.0000 </r>
       <r>    5.2283    0.0000 </r>
       <r>    5.2352    0.0000 </r>
       <r>    5.2535    0.0000 </r>
       <r>    5.2663    0.0000 </r>
       <r>    5.2906    0.0000 </r>
       <r>    5.3297    0.0000 </r>
       <r>    5.3392    0.0000 </r>
       <r>    5.3686    0.0000 </r>
       <r>    5.3759    0.0000 </r>
       <r>    5.3855    0.0000 </r>
       <r>    5.4053    0.0000 </r>
       <r>    5.4059    0.0000 </r>
       <r>    5.4210    0.0000 </r>
       <r>    5.4816    0.0000 </r>
       <r>    5.5058    0.0000 </r>
       <r>    5.5770    0.0000 </r>
       <r>    5.5978    0.0000 </r>
       <r>    5.6399    0.0000 </r>
       <r>    5.6759    0.0000 </r>
      </set>
     </set>
    </set>
   </array>
  </eigenvalues>
  <separator name="orbital magnetization" >
   <v name="MAGDIPOLOUT">      0.00000000      0.00000000      0.00000000</v>
  </separator>
  <dos>
   <i name="efermi">      3.48190271 </i>
   <total>
    <array>
     <dimension dim="1">gridpoints</dimension>
     <dimension dim="2">spin</dimension>
     <field>energy</field>
     <field>total</field>
     <field>integrated</field>
     <set>
      <set comment="spin 1">
       <r>   -60.8912     0.0000     0.0000 </r>
       <r>   -60.6587     0.0000     0.0000 </r>
       <r>   -60.4263     0.0000     0.0000 </r>
       <r>   -60.1938     0.0000     0.0000 </r>
       <r>   -59.9614     0.0000     0.0000 </r>
       <r>   -59.7289     0.0000     0.0000 </r>
       <r>   -59.4964     0.0000     0.0000 </r>
       <r>   -59.2640     0.0000     0.0000 </r>
       <r>   -59.0315     0.0000     0.0000 </r>
       <r>   -58.7991     0.0000     0.0000 </r>
       <r>   -58.5666     0.0000     0.0000 </r>
       <r>   -58.3342     0.0000     0.0000 </r>
       <r>   -58.1017     0.0000     0.0000 </r>
       <r>   -57.8693     0.1263     0.0294 </r>
       <r>   -57.6368    47.1191    10.9825 </r>
       <r>   -57.4043   242.6118    67.3792 </r>
       <r>   -57.1719   198.4710   113.5151 </r>
       <r>   -56.9394    36.4842   121.9961 </r>
       <r>   -56.7070     0.0167   122.0000 </r>
       <r>   -56.4745     0.0000   122.0000 </r>
       <r>   -56.2421     0.0000   122.0000 </r>
       <r>   -56.0096     0.0000   122.0000 </r>
       <r>   -55.7771     0.0000   122.0000 </r>
       <r>   -55.5447     0.0000   122.0000 </r>
       <r>   -55.3122     0.0000   122.0000 </r>
       <r>   -55.0798     0.0000   122.0000 </r>
       <r>   -54.8473     0.0000   122.0000 </r>
       <r>   -54.6149     0.0000   122.0000 </r>
       <r>   -54.3824     0.0000   122.0000 </r>
       <r>   -54.1499     0.0000   122.0000 </r>
       <r>   -53.9175     0.0000   122.0000 </r>
       <r>   -53.6850     0.0000   122.0000 </r>
       <r>   -53.4526     0.0000   122.0000 </r>
       <r>   -53.2201     0.0000   122.0000 </r>
       <r>   -52.9877     0.0000   122.0000 </r>
       <r>   -52.7552     0.0000   122.0000 </r>
       <r>   -52.5227     0.0000   122.0000 </r>
       <r>   -52.2903     0.0000   122.0000 </r>
       <r>   -52.0578     0.0000   122.0000 </r>
       <r>   -51.8254     0.0002   122.0000 </r>
       <r>   -51.5929     2.4893   122.5787 </r>
       <r>   -51.3605    14.4307   125.9332 </r>
       <r>   -51.1280     0.2874   126.0000 </r>
       <r>   -50.8956     0.0000   126.0000 </r>
       <r>   -50.6631     0.0000   126.0000 </r>
       <r>   -50.4306     0.0000   126.0000 </r>
       <r>   -50.1982     0.0000   126.0000 </r>
       <r>   -49.9657     0.0000   126.0000 </r>
       <r>   -49.7333     0.0000   126.0000 </r>
       <r>   -49.5008     0.0000   126.0000 </r>
       <r>   -49.2684     0.0000   126.0000 </r>
       <r>   -49.0359     0.0000   126.0000 </r>
       <r>   -48.8034     0.0000   126.0000 </r>
       <r>   -48.5710     0.0000   126.0000 </r>
       <r>   -48.3385     0.0000   126.0000 </r>
       <r>   -48.1061     0.0000   126.0000 </r>
       <r>   -47.8736     0.0000   126.0000 </r>
       <r>   -47.6412     0.0000   126.0000 </r>
       <r>   -47.4087     0.0000   126.0000 </r>
       <r>   -47.1762     0.0000   126.0000 </r>
       <r>   -46.9438     0.0000   126.0000 </r>
       <r>   -46.7113     0.0000   126.0000 </r>
       <r>   -46.4789     0.0000   126.0000 </r>
       <r>   -46.2464     0.0000   126.0000 </r>
       <r>   -46.0140     0.0000   126.0000 </r>
       <r>   -45.7815     0.0000   126.0000 </r>
       <r>   -45.5490     0.0000   126.0000 </r>
       <r>   -45.3166     0.0000   126.0000 </r>
       <r>   -45.0841     0.0000   126.0000 </r>
       <r>   -44.8517     0.0000   126.0000 </r>
       <r>   -44.6192     0.0000   126.0000 </r>
       <r>   -44.3868     0.0000   126.0000 </r>
       <r>   -44.1543     0.0000   126.0000 </r>
       <r>   -43.9219     0.0000   126.0000 </r>
       <r>   -43.6894     0.0000   126.0000 </r>
       <r>   -43.4569     0.0000   126.0000 </r>
       <r>   -43.2245     0.0000   126.0000 </r>
       <r>   -42.9920     0.0000   126.0000 </r>
       <r>   -42.7596     0.0000   126.0000 </r>
       <r>   -42.5271     0.0000   126.0000 </r>
       <r>   -42.2947     0.0000   126.0000 </r>
       <r>   -42.0622     0.0000   126.0000 </r>
       <r>   -41.8297     0.0000   126.0000 </r>
       <r>   -41.5973     0.0000   126.0000 </r>
       <r>   -41.3648     0.0000   126.0000 </r>
       <r>   -41.1324     0.0000   126.0000 </r>
       <r>   -40.8999     0.0000   126.0000 </r>
       <r>   -40.6675     0.0000   126.0000 </r>
       <r>   -40.4350     0.0000   126.0000 </r>
       <r>   -40.2025     0.0000   126.0000 </r>
       <r>   -39.9701     0.0000   126.0000 </r>
       <r>   -39.7376     0.0000   126.0000 </r>
       <r>   -39.5052     0.0000   126.0000 </r>
       <r>   -39.2727     0.0000   126.0000 </r>
       <r>   -39.0403     0.0000   126.0000 </r>
       <r>   -38.8078     0.0000   126.0000 </r>
       <r>   -38.5754     0.0000   126.0000 </r>
       <r>   -38.3429     0.0000   126.0000 </r>
       <r>   -38.1104     0.0000   126.0000 </r>
       <r>   -37.8780     0.0000   126.0000 </r>
       <r>   -37.6455     0.0000   126.0000 </r>
       <r>   -37.4131     0.0000   126.0000 </r>
       <r>   -37.1806     0.0000   126.0000 </r>
       <r>   -36.9482     0.0000   126.0000 </r>
       <r>   -36.7157     0.0000   126.0000 </r>
       <r>   -36.4832     0.0000   126.0000 </r>
       <r>   -36.2508     0.0000   126.0000 </r>
       <r>   -36.0183     0.0000   126.0000 </r>
       <r>   -35.7859     0.0000   126.0000 </r>
       <r>   -35.5534     0.0000   126.0000 </r>
       <r>   -35.3210     0.0000   126.0000 </r>
       <r>   -35.0885     0.0000   126.0000 </r>
       <r>   -34.8560     0.0000   126.0000 </r>
       <r>   -34.6236     0.0000   126.0000 </r>
       <r>   -34.3911     0.0000   126.0000 </r>
       <r>   -34.1587     0.0000   126.0000 </r>
       <r>   -33.9262     0.0000   126.0000 </r>
       <r>   -33.6938     0.0000   126.0000 </r>
       <r>   -33.4613     0.0000   126.0000 </r>
       <r>   -33.2288     0.0000   126.0000 </r>
       <r>   -32.9964     0.0000   126.0000 </r>
       <r>   -32.7639     0.0000   126.0000 </r>
       <r>   -32.5315     0.0313   126.0073 </r>
       <r>   -32.2990    25.8629   132.0193 </r>
       <r>   -32.0666   182.3078   174.3979 </r>
       <r>   -31.8341   202.1616   221.3917 </r>
       <r>   -31.6017   224.7246   273.6304 </r>
       <r>   -31.3692   279.6854   338.6452 </r>
       <r>   -31.1367   339.1641   417.4861 </r>
       <r>   -30.9043   282.9356   483.2563 </r>
       <r>   -30.6718    37.5699   491.9897 </r>
       <r>   -30.4394     0.0443   492.0000 </r>
       <r>   -30.2069     0.0000   492.0000 </r>
       <r>   -29.9745     0.0000   492.0000 </r>
       <r>   -29.7420     0.0000   492.0000 </r>
       <r>   -29.5095     0.0000   492.0000 </r>
       <r>   -29.2771     0.0000   492.0000 </r>
       <r>   -29.0446     0.0000   492.0000 </r>
       <r>   -28.8122     0.0000   492.0000 </r>
       <r>   -28.5797     0.0000   492.0000 </r>
       <r>   -28.3473     0.0000   492.0000 </r>
       <r>   -28.1148     0.0000   492.0000 </r>
       <r>   -27.8823     0.0095   492.0022 </r>
       <r>   -27.6499     9.8013   494.2806 </r>
       <r>   -27.4174    38.2777   503.1785 </r>
       <r>   -27.1850     3.5339   504.0000 </r>
       <r>   -26.9525     0.0002   504.0000 </r>
       <r>   -26.7201     0.0000   504.0000 </r>
       <r>   -26.4876     0.0000   504.0000 </r>
       <r>   -26.2552     0.0000   504.0000 </r>
       <r>   -26.0227     0.0000   504.0000 </r>
       <r>   -25.7902     0.0000   504.0000 </r>
       <r>   -25.5578     0.0000   504.0000 </r>
       <r>   -25.3253     0.0000   504.0000 </r>
       <r>   -25.0929     0.0000   504.0000 </r>
       <r>   -24.8604     0.0000   504.0000 </r>
       <r>   -24.6280     0.0000   504.0000 </r>
       <r>   -24.3955     0.0000   504.0000 </r>
       <r>   -24.1630     0.0000   504.0000 </r>
       <r>   -23.9306     0.0000   504.0000 </r>
       <r>   -23.6981     0.0000   504.0000 </r>
       <r>   -23.4657     0.0000   504.0000 </r>
       <r>   -23.2332     0.0000   504.0000 </r>
       <r>   -23.0008     0.0000   504.0000 </r>
       <r>   -22.7683     0.0000   504.0000 </r>
       <r>   -22.5358     0.0000   504.0000 </r>
       <r>   -22.3034     0.0000   504.0000 </r>
       <r>   -22.0709     0.0000   504.0000 </r>
       <r>   -21.8385     0.0000   504.0000 </r>
       <r>   -21.6060     0.0000   504.0000 </r>
       <r>   -21.3736     0.0000   504.0000 </r>
       <r>   -21.1411     0.0000   504.0000 </r>
       <r>   -20.9086     0.0000   504.0000 </r>
       <r>   -20.6762     0.0000   504.0000 </r>
       <r>   -20.4437     0.0000   504.0000 </r>
       <r>   -20.2113     0.0000   504.0000 </r>
       <r>   -19.9788     0.0000   504.0000 </r>
       <r>   -19.7464     0.0000   504.0000 </r>
       <r>   -19.5139     0.0000   504.0000 </r>
       <r>   -19.2815     0.0000   504.0000 </r>
       <r>   -19.0490     0.0000   504.0000 </r>
       <r>   -18.8165     0.0000   504.0000 </r>
       <r>   -18.5841     0.0000   504.0000 </r>
       <r>   -18.3516     0.0000   504.0000 </r>
       <r>   -18.1192     0.0000   504.0000 </r>
       <r>   -17.8867     0.0000   504.0000 </r>
       <r>   -17.6543     0.0000   504.0000 </r>
       <r>   -17.4218     0.0000   504.0000 </r>
       <r>   -17.1893     0.0000   504.0000 </r>
       <r>   -16.9569     0.0000   504.0000 </r>
       <r>   -16.7244     0.0000   504.0000 </r>
       <r>   -16.4920     0.0000   504.0000 </r>
       <r>   -16.2595     0.0000   504.0000 </r>
       <r>   -16.0271     0.0000   504.0000 </r>
       <r>   -15.7946     0.0000   504.0000 </r>
       <r>   -15.5621     0.0000   504.0000 </r>
       <r>   -15.3297     0.0000   504.0000 </r>
       <r>   -15.0972     0.0000   504.0000 </r>
       <r>   -14.8648     0.0000   504.0000 </r>
       <r>   -14.6323     0.0000   504.0000 </r>
       <r>   -14.3999     0.0000   504.0000 </r>
       <r>   -14.1674     0.0000   504.0000 </r>
       <r>   -13.9350     0.0000   504.0000 </r>
       <r>   -13.7025     0.0000   504.0000 </r>
       <r>   -13.4700     0.0000   504.0000 </r>
       <r>   -13.2376     0.0000   504.0000 </r>
       <r>   -13.0051     0.0000   504.0000 </r>
       <r>   -12.7727     0.0000   504.0000 </r>
       <r>   -12.5402     0.0000   504.0000 </r>
       <r>   -12.3078     0.0000   504.0000 </r>
       <r>   -12.0753     0.0000   504.0000 </r>
       <r>   -11.8428     0.0000   504.0000 </r>
       <r>   -11.6104     0.0000   504.0000 </r>
       <r>   -11.3779     0.0000   504.0000 </r>
       <r>   -11.1455     0.0000   504.0000 </r>
       <r>   -10.9130     0.0000   504.0000 </r>
       <r>   -10.6806     0.0000   504.0000 </r>
       <r>   -10.4481     0.0000   504.0000 </r>
       <r>   -10.2156     0.0000   504.0000 </r>
       <r>    -9.9832     0.0000   504.0000 </r>
       <r>    -9.7507     0.0000   504.0000 </r>
       <r>    -9.5183     0.0000   504.0000 </r>
       <r>    -9.2858     0.0000   504.0000 </r>
       <r>    -9.0534     0.0000   504.0000 </r>
       <r>    -8.8209     0.0000   504.0000 </r>
       <r>    -8.5884     0.0000   504.0000 </r>
       <r>    -8.3560     0.0000   504.0000 </r>
       <r>    -8.1235     0.0000   504.0000 </r>
       <r>    -7.8911     0.0000   504.0000 </r>
       <r>    -7.6586     0.0000   504.0000 </r>
       <r>    -7.4262     0.0000   504.0000 </r>
       <r>    -7.1937     0.0000   504.0000 </r>
       <r>    -6.9613     0.0000   504.0000 </r>
       <r>    -6.7288     0.0000   504.0000 </r>
       <r>    -6.4963     0.0000   504.0000 </r>
       <r>    -6.2639     0.0000   504.0000 </r>
       <r>    -6.0314     0.0000   504.0000 </r>
       <r>    -5.7990     0.0000   504.0000 </r>
       <r>    -5.5665     0.0000   504.0000 </r>
       <r>    -5.3341     0.0000   504.0000 </r>
       <r>    -5.1016     0.0000   504.0000 </r>
       <r>    -4.8691     0.0000   504.0000 </r>
       <r>    -4.6367     0.0000   504.0000 </r>
       <r>    -4.4042     0.0000   504.0000 </r>
       <r>    -4.1718     0.0000   504.0000 </r>
       <r>    -3.9393     0.0000   504.0000 </r>
       <r>    -3.7069     0.0000   504.0000 </r>
       <r>    -3.4744     0.0006   504.0001 </r>
       <r>    -3.2419     0.3917   504.0912 </r>
       <r>    -3.0095     2.8023   504.7426 </r>
       <r>    -2.7770     1.9772   505.2022 </r>
       <r>    -2.5446     4.6316   506.2789 </r>
       <r>    -2.3121     1.8521   506.7094 </r>
       <r>    -2.0797     6.5378   508.2292 </r>
       <r>    -1.8472     7.9947   510.0876 </r>
       <r>    -1.6148     9.0469   512.1906 </r>
       <r>    -1.3823    22.0063   517.3061 </r>
       <r>    -1.1498    46.7468   528.1727 </r>
       <r>    -0.9174    57.3772   541.5104 </r>
       <r>    -0.6849    75.2685   559.0070 </r>
       <r>    -0.4525    52.7506   571.2693 </r>
       <r>    -0.2200    80.2756   589.9299 </r>
       <r>     0.0124    78.9572   608.2840 </r>
       <r>     0.2449    70.3467   624.6365 </r>
       <r>     0.4774   101.5646   648.2459 </r>
       <r>     0.7098   109.6052   673.7243 </r>
       <r>     0.9423    90.5412   694.7713 </r>
       <r>     1.1747    79.8902   713.3423 </r>
       <r>     1.4072    73.0515   730.3236 </r>
       <r>     1.6396    92.0136   751.7127 </r>
       <r>     1.8721    76.7647   769.5572 </r>
       <r>     2.1046    94.6821   791.5667 </r>
       <r>     2.3370    72.1386   808.3358 </r>
       <r>     2.5695    54.1201   820.9164 </r>
       <r>     2.8019    55.8066   833.8890 </r>
       <r>     3.0344    74.0889   851.1114 </r>
       <r>     3.2668    68.9494   867.1392 </r>
       <r>     3.4993    59.6151   880.9971 </r>
       <r>     3.7318    55.2270   893.8350 </r>
       <r>     3.9642    61.2315   908.0687 </r>
       <r>     4.1967    69.4505   924.2129 </r>
       <r>     4.4291    68.3071   940.0913 </r>
       <r>     4.6616    89.3404   960.8591 </r>
       <r>     4.8940   105.4236   985.3655 </r>
       <r>     5.1265   106.6789  1010.1638 </r>
       <r>     5.3589   112.9528  1036.4204 </r>
       <r>     5.5914    75.5481  1053.9820 </r>
       <r>     5.8239     8.6657  1055.9964 </r>
       <r>     6.0563     0.0153  1056.0000 </r>
       <r>     6.2888     0.0000  1056.0000 </r>
       <r>     6.5212     0.0000  1056.0000 </r>
       <r>     6.7537     0.0000  1056.0000 </r>
       <r>     6.9861     0.0000  1056.0000 </r>
       <r>     7.2186     0.0000  1056.0000 </r>
       <r>     7.4511     0.0000  1056.0000 </r>
       <r>     7.6835     0.0000  1056.0000 </r>
       <r>     7.9160     0.0000  1056.0000 </r>
       <r>     8.1484     0.0000  1056.0000 </r>
       <r>     8.3809     0.0000  1056.0000 </r>
       <r>     8.6133     0.0000  1056.0000 </r>
       <r>     8.8458     0.0000  1056.0000 </r>
      </set>
     </set>
    </array>
   </total>
  </dos>
 </calculation>
 <structure name="finalpos" >
  <crystal>
   <varray name="basis" >
    <v>       9.49839973       0.00000000       0.00000000 </v>
    <v>       0.00000000       9.49839973       0.00000000 </v>
    <v>       0.00000000       0.00000000      24.50289917 </v>
   </varray>
   <i name="volume">   2210.64170109 </i>
   <varray name="rec_basis" >
    <v>       0.10528089       0.00000000       0.00000000 </v>
    <v>       0.00000000       0.10528089       0.00000000 </v>
    <v>       0.00000000       0.00000000       0.04081150 </v>
   </varray>
  </crystal>
  <varray name="positions" >
   <v>       0.00000000       0.00000000       0.00000000 </v>
   <v>       0.02110403       0.97888828       0.38367706 </v>
   <v>       0.16667000       0.16667000       0.06464000 </v>
   <v>       0.33333000       0.00000000       0.00000000 </v>
   <v>       0.31174052       0.01988766       0.38320983 </v>
   <v>       0.50000000       0.16667000       0.06464000 </v>
   <v>       0.66667000       0.00000000       0.00000000 </v>
   <v>       0.66723403       0.00076157       0.38066267 </v>
   <v>       0.83333000       0.16667000       0.06464000 </v>
   <v>       0.00000000       0.33333000       0.00000000 </v>
   <v>       0.16667000       0.50000000       0.06464000 </v>
   <v>       0.33333000       0.33333000       0.00000000 </v>
   <v>       0.34384477       0.31180199       0.38297893 </v>
   <v>       0.50000000       0.50000000       0.06464000 </v>
   <v>       0.66667000       0.33333000       0.00000000 </v>
   <v>       0.83333000       0.50000000       0.06464000 </v>
   <v>       0.00000000       0.66667000       0.00000000 </v>
   <v>       0.98010031       0.68825201       0.38321031 </v>
   <v>       0.16667000       0.83333000       0.06464000 </v>
   <v>       0.33333000       0.66667000       0.00000000 </v>
   <v>       0.50000000       0.83333000       0.06464000 </v>
   <v>       0.66667000       0.66667000       0.00000000 </v>
   <v>       0.68818265       0.65614676       0.38297857 </v>
   <v>       0.83333000       0.83333000       0.06464000 </v>
   <v>       0.00000000       0.00000000       0.12928000 </v>
   <v>       0.16667000       0.16667000       0.19391000 </v>
   <v>       0.33333000       0.00000000       0.12928000 </v>
   <v>       0.50000000       0.16667000       0.19391000 </v>
   <v>       0.66667000       0.00000000       0.12928000 </v>
   <v>       0.83333000       0.16667000       0.19391000 </v>
   <v>       0.00000000       0.33333000       0.12928000 </v>
   <v>       0.16667000       0.50000000       0.19391000 </v>
   <v>       0.33333000       0.33333000       0.12928000 </v>
   <v>       0.50000000       0.50000000       0.19391000 </v>
   <v>       0.66667000       0.33333000       0.12928000 </v>
   <v>       0.83333000       0.50000000       0.19391000 </v>
   <v>       0.00000000       0.66667000       0.12928000 </v>
   <v>       0.16667000       0.83333000       0.19391000 </v>
   <v>       0.33333000       0.66667000       0.12928000 </v>
   <v>       0.50000000       0.83333000       0.19391000 </v>
   <v>       0.66667000       0.66667000       0.12928000 </v>
   <v>       0.83333000       0.83333000       0.19391000 </v>
   <v>       0.00000000       0.00000000       0.25855000 </v>
   <v>       0.16266153       0.16956834       0.32321204 </v>
   <v>       0.33333000       0.00000000       0.25855000 </v>
   <v>       0.50176007       0.16419529       0.32373380 </v>
   <v>       0.66667000       0.00000000       0.25855000 </v>
   <v>       0.83300381       0.16699753       0.32500219 </v>
   <v>       0.00000000       0.33333000       0.25855000 </v>
   <v>       0.16619126       0.49960653       0.32466813 </v>
   <v>       0.33333000       0.33333000       0.25855000 </v>
   <v>       0.49905050       0.50094714       0.32067968 </v>
   <v>       0.66667000       0.33333000       0.25855000 </v>
   <v>       0.83580311       0.49823948       0.32373369 </v>
   <v>       0.00000000       0.66667000       0.25855000 </v>
   <v>       0.16861911       0.83137781       0.32259405 </v>
   <v>       0.33333000       0.66667000       0.25855000 </v>
   <v>       0.50039379       0.83380909       0.32466826 </v>
   <v>       0.66667000       0.66667000       0.25855000 </v>
   <v>       0.83043100       0.83733674       0.32321177 </v>
   <v>       0.99925278       0.33278319       0.38066287 </v>
   <v>       0.65187910       0.34811471       0.38805810 </v>
   <v>       0.34255817       0.65745176       0.38739091 </v>
  </varray>
  <varray name="selective"  type="logical" >
   <v type="logical" >  F  F  F </v>
   <v type="logical" >  T  T  T </v>
   <v type="logical" >  F  F  F </v>
   <v type="logical" >  F  F  F </v>
   <v type="logical" >  T  T  T </v>
   <v type="logical" >  F  F  F </v>
   <v type="logical" >  F  F  F </v>
   <v type="logical" >  T  T  T </v>
   <v type="logical" >  F  F  F </v>
   <v type="logical" >  F  F  F </v>
   <v type="logical" >  F  F  F </v>
   <v type="logical" >  F  F  F </v>
   <v type="logical" >  T  T  T </v>
   <v type="logical" >  F  F  F </v>
   <v type="logical" >  F  F  F </v>
   <v type="logical" >  F  F  F </v>
   <v type="logical" >  F  F  F </v>
   <v type="logical" >  T  T  T </v>
   <v type="logical" >  F  F  F </v>
   <v type="logical" >  F  F  F </v>
   <v type="logical" >  F  F  F </v>
   <v type="logical" >  F  F  F </v>
   <v type="logical" >  T  T  T </v>
   <v type="logical" >  F  F  F </v>
   <v type="logical" >  F  F  F </v>
   <v type="logical" >  F  F  F </v>
   <v type="logical" >  F  F  F </v>
   <v type="logical" >  F  F  F </v>
   <v type="logical" >  F  F  F </v>
   <v type="logical" >  F  F  F </v>
   <v type="logical" >  F  F  F </v>
   <v type="logical" >  F  F  F </v>
   <v type="logical" >  F  F  F </v>
   <v type="logical" >  F  F  F </v>
   <v type="logical" >  F  F  F </v>
   <v type="logical" >  F  F  F </v>
   <v type="logical" >  F  F  F </v>
   <v type="logical" >  F  F  F </v>
   <v type="logical" >  F  F  F </v>
   <v type="logical" >  F  F  F </v>
   <v type="logical" >  F  F  F </v>
   <v type="logical" >  F  F  F </v>
   <v type="logical" >  F  F  F </v>
   <v type="logical" >  T  T  T </v>
   <v type="logical" >  F  F  F </v>
   <v type="logical" >  T  T  T </v>
   <v type="logical" >  F  F  F </v>
   <v type="logical" >  T  T  T </v>
   <v type="logical" >  F  F  F </v>
   <v type="logical" >  T  T  T </v>
   <v type="logical" >  F  F  F </v>
   <v type="logical" >  T  T  T </v>
   <v type="logical" >  F  F  F </v>
   <v type="logical" >  T  T  T </v>
   <v type="logical" >  F  F  F </v>
   <v type="logical" >  T  T  T </v>
   <v type="logical" >  F  F  F </v>
   <v type="logical" >  T  T  T </v>
   <v type="logical" >  F  F  F </v>
   <v type="logical" >  T  T  T </v>
   <v type="logical" >  T  T  T </v>
   <v type="logical" >  T  T  T </v>
   <v type="logical" >  T  T  T </v>
  </varray>
  <nose>
   <v>      -3.00000000       0.00000000       0.00010000       0.00010000 </v>
  </nose>
 </structure>
</modeling>
