Generated by VASPKIT code               
   1.00000000000000     
     9.4983997344999995    0.0000000000000000    0.0000000000000000
     0.0000000000000000    9.4983997344999995    0.0000000000000000
     0.0000000000000000    0.0000000000000000   24.5028991699000009
   Mo   Nb   O 
    61     1     1
Selective dynamics
Direct
  0.0000000000000000  0.0000000000000000  0.0000000000000000   F   F   F
  0.0192637713333380  0.9807395516311908  0.3834260409665639   T   T   T
  0.1666700000000034  0.1666700000000034  0.0646399999999971   F   F   F
  0.3333299999999966  0.0000000000000000  0.0000000000000000   F   F   F
  0.3177600009265681  0.0082336943400759  0.3813122117356986   T   T   T
  0.5000000000000000  0.1666700000000034  0.0646399999999971   F   F   F
  0.6666700000000034  0.0000000000000000  0.0000000000000000   F   F   F
  0.6679440857941968  0.0053256812294001  0.3796303380356931   T   T   T
  0.8333299999999966  0.1666700000000034  0.0646399999999971   F   F   F
  0.0000000000000000  0.3333299999999966  0.0000000000000000   F   F   F
  0.1666700000000034  0.5000000000000000  0.0646399999999971   F   F   F
  0.3333299999999966  0.3333299999999966  0.0000000000000000   F   F   F
  0.3501481896988448  0.3372429271200029  0.3811064053265662   T   T   T
  0.5000000000000000  0.5000000000000000  0.0646399999999971   F   F   F
  0.6666700000000034  0.3333299999999966  0.0000000000000000   F   F   F
  0.8333299999999966  0.5000000000000000  0.0646399999999971   F   F   F
  0.0000000000000000  0.6666700000000034  0.0000000000000000   F   F   F
 -0.0082325764953400  0.6822381952492784  0.3813119608310647   T   T   T
  0.1666700000000034  0.8333299999999966  0.0646399999999971   F   F   F
  0.3333299999999966  0.6666700000000034  0.0000000000000000   F   F   F
  0.5000000000000000  0.8333299999999966  0.0646399999999971   F   F   F
  0.6666700000000034  0.6666700000000034  0.0000000000000000   F   F   F
  0.6627570094149613  0.6498517535595842  0.3811063928669914   T   T   T
  0.8333299999999966  0.8333299999999966  0.0646399999999971   F   F   F
  0.0000000000000000  0.0000000000000000  0.1292800000000014   F   F   F
  0.1666700000000034  0.1666700000000034  0.1939100000000025   F   F   F
  0.3333299999999966  0.0000000000000000  0.1292800000000014   F   F   F
  0.5000000000000000  0.1666700000000034  0.1939100000000025   F   F   F
  0.6666700000000034  0.0000000000000000  0.1292800000000014   F   F   F
  0.8333299999999966  0.1666700000000034  0.1939100000000025   F   F   F
  0.0000000000000000  0.3333299999999966  0.1292800000000014   F   F   F
  0.1666700000000034  0.5000000000000000  0.1939100000000025   F   F   F
  0.3333299999999966  0.3333299999999966  0.1292800000000014   F   F   F
  0.5000000000000000  0.5000000000000000  0.1939100000000025   F   F   F
  0.6666700000000034  0.3333299999999966  0.1292800000000014   F   F   F
  0.8333299999999966  0.5000000000000000  0.1939100000000025   F   F   F
  0.0000000000000000  0.6666700000000034  0.1292800000000014   F   F   F
  0.1666700000000034  0.8333299999999966  0.1939100000000025   F   F   F
  0.3333299999999966  0.6666700000000034  0.1292800000000014   F   F   F
  0.5000000000000000  0.8333299999999966  0.1939100000000025   F   F   F
  0.6666700000000034  0.6666700000000034  0.1292800000000014   F   F   F
  0.8333299999999966  0.8333299999999966  0.1939100000000025   F   F   F
  0.0000000000000000  0.0000000000000000  0.2585499999999996   F   F   F
  0.1645668058093666  0.1690005097317638  0.3241822785021479   T   T   T
  0.3333299999999966  0.0000000000000000  0.2585499999999996   F   F   F
  0.5010102935885929  0.1678423705678005  0.3246349916170619   T   T   T
  0.6666700000000034  0.0000000000000000  0.2585499999999996   F   F   F
  0.8332940518444413  0.1667059457271694  0.3245905585398645   T   T   T
  0.0000000000000000  0.3333299999999966  0.2585499999999996   F   F   F
  0.1661910034954066  0.4990296594479121  0.3248264461091116   T   T   T
  0.3333299999999966  0.3333299999999966  0.2585499999999996   F   F   F
  0.5014832837708809  0.4985168193332821  0.3213661471259091   T   T   T
  0.6666700000000034  0.3333299999999966  0.2585499999999996   F   F   F
  0.8321579187693608  0.4989896927441511  0.3246351148834106   T   T   T
  0.0000000000000000  0.6666700000000034  0.2585499999999996   F   F   F
  0.1670846275407860  0.8329154115710908  0.3214296404925713   T   T   T
  0.3333299999999966  0.6666700000000034  0.2585499999999996   F   F   F
  0.5009707438279973  0.8338090160703278  0.3248264527036312   T   T   T
  0.6666700000000034  0.6666700000000034  0.2585499999999996   F   F   F
  0.8310000494735788  0.8354331066555890  0.3241826806289266   T   T   T
  0.9946745011324590  0.3320549668968916  0.3796303450194105   T   T   T
  0.3287729570056652  0.6712276257233879  0.3890222933832563   T   T   T
  0.4773716139063793  0.5226281787649506  0.4091525085502333   T   T   T
 
  0.00000000E+00  0.00000000E+00  0.00000000E+00
  0.00000000E+00  0.00000000E+00  0.00000000E+00
  0.00000000E+00  0.00000000E+00  0.00000000E+00
  0.00000000E+00  0.00000000E+00  0.00000000E+00
  0.00000000E+00  0.00000000E+00  0.00000000E+00
  0.00000000E+00  0.00000000E+00  0.00000000E+00
  0.00000000E+00  0.00000000E+00  0.00000000E+00
  0.00000000E+00  0.00000000E+00  0.00000000E+00
  0.00000000E+00  0.00000000E+00  0.00000000E+00
  0.00000000E+00  0.00000000E+00  0.00000000E+00
  0.00000000E+00  0.00000000E+00  0.00000000E+00
  0.00000000E+00  0.00000000E+00  0.00000000E+00
  0.00000000E+00  0.00000000E+00  0.00000000E+00
  0.00000000E+00  0.00000000E+00  0.00000000E+00
  0.00000000E+00  0.00000000E+00  0.00000000E+00
  0.00000000E+00  0.00000000E+00  0.00000000E+00
  0.00000000E+00  0.00000000E+00  0.00000000E+00
  0.00000000E+00  0.00000000E+00  0.00000000E+00
  0.00000000E+00  0.00000000E+00  0.00000000E+00
  0.00000000E+00  0.00000000E+00  0.00000000E+00
  0.00000000E+00  0.00000000E+00  0.00000000E+00
  0.00000000E+00  0.00000000E+00  0.00000000E+00
  0.00000000E+00  0.00000000E+00  0.00000000E+00
  0.00000000E+00  0.00000000E+00  0.00000000E+00
  0.00000000E+00  0.00000000E+00  0.00000000E+00
  0.00000000E+00  0.00000000E+00  0.00000000E+00
  0.00000000E+00  0.00000000E+00  0.00000000E+00
  0.00000000E+00  0.00000000E+00  0.00000000E+00
  0.00000000E+00  0.00000000E+00  0.00000000E+00
  0.00000000E+00  0.00000000E+00  0.00000000E+00
  0.00000000E+00  0.00000000E+00  0.00000000E+00
  0.00000000E+00  0.00000000E+00  0.00000000E+00
  0.00000000E+00  0.00000000E+00  0.00000000E+00
  0.00000000E+00  0.00000000E+00  0.00000000E+00
  0.00000000E+00  0.00000000E+00  0.00000000E+00
  0.00000000E+00  0.00000000E+00  0.00000000E+00
  0.00000000E+00  0.00000000E+00  0.00000000E+00
  0.00000000E+00  0.00000000E+00  0.00000000E+00
  0.00000000E+00  0.00000000E+00  0.00000000E+00
  0.00000000E+00  0.00000000E+00  0.00000000E+00
  0.00000000E+00  0.00000000E+00  0.00000000E+00
  0.00000000E+00  0.00000000E+00  0.00000000E+00
  0.00000000E+00  0.00000000E+00  0.00000000E+00
  0.00000000E+00  0.00000000E+00  0.00000000E+00
  0.00000000E+00  0.00000000E+00  0.00000000E+00
  0.00000000E+00  0.00000000E+00  0.00000000E+00
  0.00000000E+00  0.00000000E+00  0.00000000E+00
  0.00000000E+00  0.00000000E+00  0.00000000E+00
  0.00000000E+00  0.00000000E+00  0.00000000E+00
  0.00000000E+00  0.00000000E+00  0.00000000E+00
  0.00000000E+00  0.00000000E+00  0.00000000E+00
  0.00000000E+00  0.00000000E+00  0.00000000E+00
  0.00000000E+00  0.00000000E+00  0.00000000E+00
  0.00000000E+00  0.00000000E+00  0.00000000E+00
  0.00000000E+00  0.00000000E+00  0.00000000E+00
  0.00000000E+00  0.00000000E+00  0.00000000E+00
  0.00000000E+00  0.00000000E+00  0.00000000E+00
  0.00000000E+00  0.00000000E+00  0.00000000E+00
  0.00000000E+00  0.00000000E+00  0.00000000E+00
  0.00000000E+00  0.00000000E+00  0.00000000E+00
  0.00000000E+00  0.00000000E+00  0.00000000E+00
  0.00000000E+00  0.00000000E+00  0.00000000E+00
  0.00000000E+00  0.00000000E+00  0.00000000E+00
