  63  63   0   0
  0.3508955E+02  0.9498400E-09  0.9498400E-09  0.2450290E-08  0.5000000E-15
  1.000000000000000E-004
  CAR 
 ni3al                                   
      8.71593860    -60.94306073  301      3.44599580      1.00000000
    -60.943  0.0000E+00  0.0000E+00
    -60.711  0.0000E+00  0.0000E+00
    -60.479  0.0000E+00  0.0000E+00
    -60.246  0.0000E+00  0.0000E+00
    -60.014  0.0000E+00  0.0000E+00
    -59.782  0.0000E+00  0.0000E+00
    -59.550  0.0000E+00  0.0000E+00
    -59.318  0.0000E+00  0.0000E+00
    -59.085  0.0000E+00  0.0000E+00
    -58.853  0.0000E+00  0.0000E+00
    -58.621 -0.1302E-32 -0.3023E-33
    -58.389 -0.6451E-18 -0.1498E-18
    -58.157 -0.6324E-08 -0.1468E-08
    -57.925 -0.1202E-02 -0.2791E-03
    -57.692  0.1084E+00  0.2489E-01
    -57.460  0.9492E+00  0.2453E+00
    -57.228  0.6193E+00  0.3891E+00
    -56.996  0.7595E-01  0.4067E+00
    -56.764 -0.2777E-03  0.4067E+00
    -56.531 -0.6956E-10  0.4067E+00
    -56.299  0.0000E+00  0.4067E+00
    -56.067  0.0000E+00  0.4067E+00
    -55.835  0.0000E+00  0.4067E+00
    -55.603  0.0000E+00  0.4067E+00
    -55.370  0.0000E+00  0.4067E+00
    -55.138  0.0000E+00  0.4067E+00
    -54.906  0.0000E+00  0.4067E+00
    -54.674  0.0000E+00  0.4067E+00
    -54.442  0.0000E+00  0.4067E+00
    -54.209  0.0000E+00  0.4067E+00
    -53.977  0.0000E+00  0.4067E+00
    -53.745  0.0000E+00  0.4067E+00
    -53.513  0.0000E+00  0.4067E+00
    -53.281  0.0000E+00  0.4067E+00
    -53.048  0.0000E+00  0.4067E+00
    -52.816 -0.5880E-38  0.4067E+00
    -52.584 -0.8795E-22  0.4067E+00
    -52.352 -0.2311E-10  0.4067E+00
    -52.120 -0.8480E-04  0.4066E+00
    -51.887  0.1552E-01  0.4103E+00
    -51.655  0.1333E-01  0.4133E+00
    -51.423 -0.5909E-04  0.4133E+00
    -51.191 -0.1030E-10  0.4133E+00
    -50.959  0.0000E+00  0.4133E+00
    -50.726  0.0000E+00  0.4133E+00
    -50.494  0.0000E+00  0.4133E+00
    -50.262  0.0000E+00  0.4133E+00
    -50.030  0.0000E+00  0.4133E+00
    -49.798  0.0000E+00  0.4133E+00
    -49.565  0.0000E+00  0.4133E+00
    -49.333  0.0000E+00  0.4133E+00
    -49.101  0.0000E+00  0.4133E+00
    -48.869  0.0000E+00  0.4133E+00
    -48.637  0.0000E+00  0.4133E+00
    -48.404  0.0000E+00  0.4133E+00
    -48.172  0.0000E+00  0.4133E+00
    -47.940  0.0000E+00  0.4133E+00
    -47.708  0.0000E+00  0.4133E+00
    -47.476  0.0000E+00  0.4133E+00
    -47.243  0.0000E+00  0.4133E+00
    -47.011  0.0000E+00  0.4133E+00
    -46.779  0.0000E+00  0.4133E+00
    -46.547  0.0000E+00  0.4133E+00
    -46.315  0.0000E+00  0.4133E+00
    -46.082  0.0000E+00  0.4133E+00
    -45.850  0.0000E+00  0.4133E+00
    -45.618  0.0000E+00  0.4133E+00
    -45.386  0.0000E+00  0.4133E+00
    -45.154  0.0000E+00  0.4133E+00
    -44.921  0.0000E+00  0.4133E+00
    -44.689  0.0000E+00  0.4133E+00
    -44.457  0.0000E+00  0.4133E+00
    -44.225  0.0000E+00  0.4133E+00
    -43.993  0.0000E+00  0.4133E+00
    -43.761  0.0000E+00  0.4133E+00
    -43.528  0.0000E+00  0.4133E+00
    -43.296  0.0000E+00  0.4133E+00
    -43.064  0.0000E+00  0.4133E+00
    -42.832  0.0000E+00  0.4133E+00
    -42.600  0.0000E+00  0.4133E+00
    -42.367  0.0000E+00  0.4133E+00
    -42.135  0.0000E+00  0.4133E+00
    -41.903  0.0000E+00  0.4133E+00
    -41.671  0.0000E+00  0.4133E+00
    -41.439  0.0000E+00  0.4133E+00
    -41.206  0.0000E+00  0.4133E+00
    -40.974  0.0000E+00  0.4133E+00
    -40.742  0.0000E+00  0.4133E+00
    -40.510  0.0000E+00  0.4133E+00
    -40.278  0.0000E+00  0.4133E+00
    -40.045  0.0000E+00  0.4133E+00
    -39.813  0.0000E+00  0.4133E+00
    -39.581  0.0000E+00  0.4133E+00
    -39.349  0.0000E+00  0.4133E+00
    -39.117  0.0000E+00  0.4133E+00
    -38.884  0.0000E+00  0.4133E+00
    -38.652  0.0000E+00  0.4133E+00
    -38.420  0.0000E+00  0.4133E+00
    -38.188  0.0000E+00  0.4133E+00
    -37.956  0.0000E+00  0.4133E+00
    -37.723  0.0000E+00  0.4133E+00
    -37.491  0.0000E+00  0.4133E+00
    -37.259  0.0000E+00  0.4133E+00
    -37.027  0.0000E+00  0.4133E+00
    -36.795  0.0000E+00  0.4133E+00
    -36.562  0.0000E+00  0.4133E+00
    -36.330  0.0000E+00  0.4133E+00
    -36.098  0.0000E+00  0.4133E+00
    -35.866  0.0000E+00  0.4133E+00
    -35.634  0.0000E+00  0.4133E+00
    -35.401  0.0000E+00  0.4133E+00
    -35.169  0.0000E+00  0.4133E+00
    -34.937  0.0000E+00  0.4133E+00
    -34.705  0.0000E+00  0.4133E+00
    -34.473  0.0000E+00  0.4133E+00
    -34.240  0.0000E+00  0.4133E+00
    -34.008  0.0000E+00  0.4133E+00
    -33.776  0.0000E+00  0.4133E+00
    -33.544  0.0000E+00  0.4133E+00
    -33.312 -0.2259E-36  0.4133E+00
    -33.079 -0.1279E-20  0.4133E+00
    -32.847 -0.1332E-09  0.4133E+00
    -32.615 -0.2440E-03  0.4133E+00
    -32.383  0.3608E-01  0.4217E+00
    -32.151  0.5639E+00  0.5526E+00
    -31.918  0.7128E+00  0.7181E+00
    -31.686  0.7274E+00  0.8870E+00
    -31.454  0.9465E+00  0.1107E+01
    -31.222  0.1041E+01  0.1349E+01
    -30.990  0.1123E+01  0.1609E+01
    -30.757  0.1040E+00  0.1634E+01
    -30.525 -0.1074E-02  0.1633E+01
    -30.293 -0.2111E-08  0.1633E+01
    -30.061  0.0000E+00  0.1633E+01
    -29.829  0.0000E+00  0.1633E+01
    -29.597  0.0000E+00  0.1633E+01
    -29.364  0.0000E+00  0.1633E+01
    -29.132 -0.1399E-44  0.1633E+01
    -28.900 -0.8632E-27  0.1633E+01
    -28.668 -0.9707E-14  0.1633E+01
    -28.436 -0.1777E-05  0.1633E+01
    -28.203  0.6154E-03  0.1633E+01
    -27.971  0.4210E-01  0.1643E+01
    -27.739  0.4269E-01  0.1653E+01
    -27.507  0.7383E-03  0.1653E+01
    -27.275 -0.1935E-05  0.1653E+01
    -27.042 -0.1136E-13  0.1653E+01
    -26.810  0.0000E+00  0.1653E+01
    -26.578  0.0000E+00  0.1653E+01
    -26.346  0.0000E+00  0.1653E+01
    -26.114  0.0000E+00  0.1653E+01
    -25.881  0.0000E+00  0.1653E+01
    -25.649  0.0000E+00  0.1653E+01
    -25.417  0.0000E+00  0.1653E+01
    -25.185  0.0000E+00  0.1653E+01
    -24.953  0.0000E+00  0.1653E+01
    -24.720  0.0000E+00  0.1653E+01
    -24.488  0.0000E+00  0.1653E+01
    -24.256  0.0000E+00  0.1653E+01
    -24.024  0.0000E+00  0.1653E+01
    -23.792  0.0000E+00  0.1653E+01
    -23.559  0.0000E+00  0.1653E+01
    -23.327  0.0000E+00  0.1653E+01
    -23.095  0.0000E+00  0.1653E+01
    -22.863  0.0000E+00  0.1653E+01
    -22.631  0.0000E+00  0.1653E+01
    -22.398  0.0000E+00  0.1653E+01
    -22.166  0.0000E+00  0.1653E+01
    -21.934  0.0000E+00  0.1653E+01
    -21.702  0.0000E+00  0.1653E+01
    -21.470  0.0000E+00  0.1653E+01
    -21.237  0.0000E+00  0.1653E+01
    -21.005  0.0000E+00  0.1653E+01
    -20.773  0.0000E+00  0.1653E+01
    -20.541  0.0000E+00  0.1653E+01
    -20.309  0.0000E+00  0.1653E+01
    -20.076  0.0000E+00  0.1653E+01
    -19.844  0.0000E+00  0.1653E+01
    -19.612  0.0000E+00  0.1653E+01
    -19.380  0.0000E+00  0.1653E+01
    -19.148  0.0000E+00  0.1653E+01
    -18.915  0.0000E+00  0.1653E+01
    -18.683  0.0000E+00  0.1653E+01
    -18.451  0.0000E+00  0.1653E+01
    -18.219  0.0000E+00  0.1653E+01
    -17.987  0.0000E+00  0.1653E+01
    -17.754  0.0000E+00  0.1653E+01
    -17.522  0.0000E+00  0.1653E+01
    -17.290  0.0000E+00  0.1653E+01
    -17.058 -0.2531E-44  0.1653E+01
    -16.826 -0.1359E-26  0.1653E+01
    -16.593 -0.1328E-13  0.1653E+01
    -16.361 -0.2106E-05  0.1653E+01
    -16.129  0.9508E-03  0.1654E+01
    -15.897  0.2842E-01  0.1660E+01
    -15.665 -0.6608E-03  0.1660E+01
    -15.433 -0.6164E-08  0.1660E+01
    -15.200  0.0000E+00  0.1660E+01
    -14.968  0.0000E+00  0.1660E+01
    -14.736  0.0000E+00  0.1660E+01
    -14.504  0.0000E+00  0.1660E+01
    -14.272  0.0000E+00  0.1660E+01
    -14.039  0.0000E+00  0.1660E+01
    -13.807  0.0000E+00  0.1660E+01
    -13.575  0.0000E+00  0.1660E+01
    -13.343  0.0000E+00  0.1660E+01
    -13.111  0.0000E+00  0.1660E+01
    -12.878  0.0000E+00  0.1660E+01
    -12.646  0.0000E+00  0.1660E+01
    -12.414  0.0000E+00  0.1660E+01
    -12.182  0.0000E+00  0.1660E+01
    -11.950  0.0000E+00  0.1660E+01
    -11.717  0.0000E+00  0.1660E+01
    -11.485  0.0000E+00  0.1660E+01
    -11.253  0.0000E+00  0.1660E+01
    -11.021  0.0000E+00  0.1660E+01
    -10.789  0.0000E+00  0.1660E+01
    -10.556  0.0000E+00  0.1660E+01
    -10.324  0.0000E+00  0.1660E+01
    -10.092  0.0000E+00  0.1660E+01
     -9.860  0.0000E+00  0.1660E+01
     -9.628  0.0000E+00  0.1660E+01
     -9.395  0.0000E+00  0.1660E+01
     -9.163  0.0000E+00  0.1660E+01
     -8.931  0.0000E+00  0.1660E+01
     -8.699  0.0000E+00  0.1660E+01
     -8.467  0.0000E+00  0.1660E+01
     -8.234  0.0000E+00  0.1660E+01
     -8.002  0.0000E+00  0.1660E+01
     -7.770  0.0000E+00  0.1660E+01
     -7.538  0.0000E+00  0.1660E+01
     -7.306  0.0000E+00  0.1660E+01
     -7.073  0.0000E+00  0.1660E+01
     -6.841  0.0000E+00  0.1660E+01
     -6.609  0.0000E+00  0.1660E+01
     -6.377  0.0000E+00  0.1660E+01
     -6.145  0.0000E+00  0.1660E+01
     -5.912  0.0000E+00  0.1660E+01
     -5.680  0.0000E+00  0.1660E+01
     -5.448  0.0000E+00  0.1660E+01
     -5.216  0.0000E+00  0.1660E+01
     -4.984  0.0000E+00  0.1660E+01
     -4.751  0.0000E+00  0.1660E+01
     -4.519  0.0000E+00  0.1660E+01
     -4.287 -0.4938E-45  0.1660E+01
     -4.055 -0.2028E-27  0.1660E+01
     -3.823 -0.1513E-14  0.1660E+01
     -3.590 -0.1817E-06  0.1660E+01
     -3.358  0.4707E-04  0.1660E+01
     -3.126  0.6447E-02  0.1662E+01
     -2.894  0.3357E-01  0.1669E+01
     -2.662  0.1549E-01  0.1673E+01
     -2.430  0.3512E-01  0.1681E+01
     -2.197  0.3999E-01  0.1690E+01
     -1.965  0.3444E-01  0.1698E+01
     -1.733  0.2386E-01  0.1704E+01
     -1.501  0.3470E-01  0.1712E+01
     -1.269  0.1579E+00  0.1749E+01
     -1.036  0.1453E+00  0.1782E+01
     -0.804  0.2630E+00  0.1843E+01
     -0.572  0.1803E+00  0.1885E+01
     -0.340  0.2282E+00  0.1938E+01
     -0.108  0.2507E+00  0.1996E+01
      0.125  0.2407E+00  0.2052E+01
      0.357  0.2672E+00  0.2114E+01
      0.589  0.3946E+00  0.2206E+01
      0.821  0.3359E+00  0.2284E+01
      1.053  0.2774E+00  0.2348E+01
      1.286  0.2403E+00  0.2404E+01
      1.518  0.2881E+00  0.2471E+01
      1.750  0.2580E+00  0.2531E+01
      1.982  0.3040E+00  0.2602E+01
      2.214  0.2577E+00  0.2661E+01
      2.447  0.2125E+00  0.2711E+01
      2.679  0.1621E+00  0.2748E+01
      2.911  0.2222E+00  0.2800E+01
      3.143  0.2202E+00  0.2851E+01
      3.375  0.2091E+00  0.2900E+01
      3.608  0.1813E+00  0.2942E+01
      3.840  0.1809E+00  0.2984E+01
      4.072  0.2406E+00  0.3040E+01
      4.304  0.2106E+00  0.3089E+01
      4.536  0.2677E+00  0.3151E+01
      4.769  0.3466E+00  0.3231E+01
      5.001  0.3621E+00  0.3315E+01
      5.233  0.3704E+00  0.3401E+01
      5.465  0.3161E+00  0.3475E+01
      5.697  0.5227E-01  0.3487E+01
      5.930 -0.4458E-03  0.3487E+01
      6.162 -0.1538E-08  0.3487E+01
      6.394  0.0000E+00  0.3487E+01
      6.626  0.0000E+00  0.3487E+01
      6.858  0.0000E+00  0.3487E+01
      7.091  0.0000E+00  0.3487E+01
      7.323  0.0000E+00  0.3487E+01
      7.555  0.0000E+00  0.3487E+01
      7.787  0.0000E+00  0.3487E+01
      8.019  0.0000E+00  0.3487E+01
      8.252  0.0000E+00  0.3487E+01
      8.484  0.0000E+00  0.3487E+01
      8.716  0.0000E+00  0.3487E+01
