       N       E                     dE             d eps       ncg     rms          rms(c)
DAV:   1     0.107084081183E+05    0.10708E+05   -0.55628E+05 12700   0.160E+03
DAV:   2    -0.181246446373E+03   -0.10890E+05   -0.10572E+05 11608   0.502E+02
DAV:   3    -0.675917436122E+03   -0.49467E+03   -0.46701E+03 14848   0.987E+01
DAV:   4    -0.704729164235E+03   -0.28812E+02   -0.27635E+02 14088   0.188E+01
DAV:   5    -0.707123533470E+03   -0.23944E+01   -0.23469E+01 18680   0.473E+00    0.102E+02
DAV:   6    -0.709264330409E+03   -0.21408E+01   -0.42401E+02 14056   0.294E+01    0.646E+01
DAV:   7    -0.737614230581E+03   -0.28350E+02   -0.87876E+02 13264   0.399E+01    0.522E+01
DAV:   8    -0.662118884615E+03    0.75495E+02   -0.19436E+02 13679   0.221E+01    0.262E+01
DAV:   9    -0.650558585273E+03    0.11560E+02   -0.33117E+01 13704   0.970E+00    0.154E+01
DAV:  10    -0.649734383885E+03    0.82420E+00   -0.68677E+00 14760   0.367E+00    0.122E+01
DAV:  11    -0.649298264997E+03    0.43612E+00   -0.14419E+00 13224   0.206E+00    0.106E+01
DAV:  12    -0.648822602915E+03    0.47566E+00   -0.11373E+00 13856   0.207E+00    0.838E+00
DAV:  13    -0.648369699739E+03    0.45290E+00   -0.34537E+00 13472   0.342E+00    0.565E+00
DAV:  14    -0.647956340964E+03    0.41336E+00   -0.19949E+00 13888   0.290E+00    0.306E+00
DAV:  15    -0.647882598205E+03    0.73743E-01   -0.70121E-01 13520   0.176E+00    0.239E+00
DAV:  16    -0.647796149967E+03    0.86448E-01   -0.21777E-01 13600   0.108E+00    0.151E+00
DAV:  17    -0.647750842942E+03    0.45307E-01   -0.11105E-01 14120   0.703E-01    0.975E-01
DAV:  18    -0.647703871277E+03    0.46972E-01   -0.10850E-01 13856   0.665E-01    0.714E-01
DAV:  19    -0.647685628962E+03    0.18242E-01   -0.28418E-02 13640   0.356E-01    0.655E-01
DAV:  20    -0.647658362010E+03    0.27267E-01   -0.31049E-02 13816   0.369E-01    0.640E-01
DAV:  21    -0.647570495055E+03    0.87867E-01   -0.55032E-02 12704   0.413E-01    0.678E-01
DAV:  22    -0.647528776208E+03    0.41719E-01   -0.44181E-02 14000   0.433E-01    0.795E-01
DAV:  23    -0.647484112517E+03    0.44664E-01   -0.30294E-02 12560   0.344E-01    0.501E-01
DAV:  24    -0.647451210393E+03    0.32902E-01   -0.13927E-02 12976   0.250E-01    0.422E-01
DAV:  25    -0.647437352372E+03    0.13858E-01   -0.18298E-02 13408   0.247E-01    0.377E-01
DAV:  26    -0.647434856058E+03    0.24963E-02   -0.15220E-02 13056   0.223E-01    0.257E-01
DAV:  27    -0.647447061582E+03   -0.12206E-01   -0.68899E-03 13584   0.165E-01    0.281E-01
DAV:  28    -0.647465706121E+03   -0.18645E-01   -0.63933E-03 12960   0.142E-01    0.220E-01
DAV:  29    -0.647479348988E+03   -0.13643E-01   -0.49752E-03 13136   0.133E-01    0.153E-01
DAV:  30    -0.647490826925E+03   -0.11478E-01   -0.39128E-03 13112   0.110E-01    0.128E-01
DAV:  31    -0.647496576167E+03   -0.57492E-02   -0.14866E-03 13464   0.772E-02    0.935E-02
DAV:  32    -0.647502224570E+03   -0.56484E-02   -0.11193E-03 13016   0.523E-02    0.577E-02
DAV:  33    -0.647504509392E+03   -0.22848E-02   -0.43318E-04 13296   0.364E-02    0.317E-02
DAV:  34    -0.647505733051E+03   -0.12237E-02   -0.19528E-04 13072   0.229E-02    0.231E-02
DAV:  35    -0.647506717292E+03   -0.98424E-03   -0.14066E-04 11544   0.161E-02    0.139E-02
DAV:  36    -0.647507325789E+03   -0.60850E-03   -0.89367E-05 11176   0.125E-02    0.181E-02
DAV:  37    -0.647507673808E+03   -0.34802E-03   -0.55958E-05 10968   0.102E-02    0.971E-03
DAV:  38    -0.647507836641E+03   -0.16283E-03   -0.21007E-05 10008   0.631E-03    0.669E-03
DAV:  39    -0.647508003971E+03   -0.16733E-03   -0.30603E-05  9464   0.485E-03    0.764E-03
DAV:  40    -0.647508081012E+03   -0.77041E-04   -0.12635E-05  9336   0.418E-03    0.766E-03
DAV:  41    -0.647508148624E+03   -0.67612E-04   -0.12936E-05  8888   0.395E-03    0.473E-03
DAV:  42    -0.647508184828E+03   -0.36204E-04   -0.51499E-06  8872   0.308E-03    0.318E-03
DAV:  43    -0.647508212643E+03   -0.27815E-04   -0.45541E-06  8696   0.248E-03    0.261E-03
DAV:  44    -0.647508220049E+03   -0.74061E-05   -0.10798E-06  8208   0.185E-03    0.189E-03
DAV:  45    -0.647508225119E+03   -0.50695E-05   -0.91635E-07  7720   0.135E-03    0.126E-03
DAV:  46    -0.647508226720E+03   -0.16014E-05   -0.23968E-07  7216   0.101E-03    0.702E-04
DAV:  47    -0.647508228190E+03   -0.14699E-05   -0.20243E-07  6728   0.686E-04    0.401E-04
DAV:  48    -0.647508229439E+03   -0.12486E-05   -0.15300E-07  6792   0.565E-04    0.362E-04
DAV:  49    -0.647508229951E+03   -0.51223E-06   -0.70019E-08  5976   0.381E-04
   1 F= -.64750823E+03 E0= -.64751128E+03  d E =-.647508E+03
       N       E                     dE             d eps       ncg     rms          rms(c)
DAV:   1    -0.647173106092E+03    0.33512E+00   -0.33678E+02 10572   0.301E+01    0.416E+00
DAV:   2    -0.648933882006E+03   -0.17608E+01   -0.17367E+01 13456   0.613E+00    0.485E+00
DAV:   3    -0.648661028653E+03    0.27285E+00   -0.20773E+00 14034   0.291E+00    0.309E+00
DAV:   4    -0.648557045602E+03    0.10398E+00   -0.53821E-01 13000   0.134E+00    0.153E+00
DAV:   5    -0.648572547373E+03   -0.15502E-01   -0.19123E-01 15112   0.882E-01    0.158E+00
DAV:   6    -0.648541553260E+03    0.30994E-01   -0.10325E-01 14376   0.736E-01    0.937E-01
DAV:   7    -0.648544264237E+03   -0.27110E-02   -0.84797E-02 14552   0.559E-01    0.859E-01
DAV:   8    -0.648531491761E+03    0.12772E-01   -0.41273E-02 13656   0.415E-01    0.304E-01
DAV:   9    -0.648530892304E+03    0.59946E-03   -0.14136E-02 14344   0.214E-01    0.192E-01
DAV:  10    -0.648530311129E+03    0.58117E-03   -0.31948E-03 13832   0.116E-01    0.103E-01
DAV:  11    -0.648530295721E+03    0.15408E-04   -0.12280E-03 13672   0.809E-02    0.102E-01
DAV:  12    -0.648530177016E+03    0.11870E-03   -0.78159E-04 14528   0.640E-02    0.739E-02
DAV:  13    -0.648530103075E+03    0.73941E-04   -0.36447E-04 14136   0.441E-02    0.362E-02
DAV:  14    -0.648530131718E+03   -0.28643E-04   -0.11812E-04 13984   0.232E-02    0.350E-02
DAV:  15    -0.648530151181E+03   -0.19463E-04   -0.81125E-05 13008   0.197E-02    0.243E-02
DAV:  16    -0.648530219480E+03   -0.68299E-04   -0.75612E-05 12184   0.173E-02    0.231E-02
DAV:  17    -0.648530272001E+03   -0.52521E-04   -0.57090E-05 12456   0.171E-02    0.180E-02
DAV:  18    -0.648530338066E+03   -0.66065E-04   -0.32929E-05 11376   0.122E-02    0.170E-02
DAV:  19    -0.648530443409E+03   -0.10534E-03   -0.35147E-05 10992   0.121E-02    0.160E-02
DAV:  20    -0.648530516643E+03   -0.73235E-04   -0.24768E-05 10920   0.107E-02    0.116E-02
DAV:  21    -0.648530604545E+03   -0.87901E-04   -0.41680E-05  9584   0.849E-03    0.769E-03
DAV:  22    -0.648530651822E+03   -0.47277E-04   -0.15577E-05 10936   0.637E-03    0.807E-03
DAV:  23    -0.648530761005E+03   -0.10918E-03   -0.10406E-05 10088   0.549E-03    0.827E-03
DAV:  24    -0.648530856017E+03   -0.95012E-04   -0.10967E-05 10136   0.542E-03    0.510E-03
DAV:  25    -0.648530928474E+03   -0.72457E-04   -0.63154E-06  9488   0.387E-03    0.558E-03
DAV:  26    -0.648530977273E+03   -0.48798E-04   -0.35445E-06  9088   0.325E-03    0.469E-03
DAV:  27    -0.648531014040E+03   -0.36767E-04   -0.30054E-06  8912   0.283E-03    0.346E-03
DAV:  28    -0.648531061211E+03   -0.47171E-04   -0.47639E-06  9288   0.274E-03    0.385E-03
DAV:  29    -0.648531093763E+03   -0.32552E-04   -0.29676E-06  8584   0.235E-03    0.276E-03
DAV:  30    -0.648531128689E+03   -0.34926E-04   -0.49813E-06  8984   0.181E-03    0.166E-03
DAV:  31    -0.648531142594E+03   -0.13905E-04   -0.22174E-06  8416   0.155E-03    0.154E-03
DAV:  32    -0.648531150204E+03   -0.76094E-05   -0.78262E-07  7776   0.119E-03    0.148E-03
DAV:  33    -0.648531155086E+03   -0.48828E-05   -0.48222E-07  7600   0.998E-04    0.937E-04
DAV:  34    -0.648531160595E+03   -0.55089E-05   -0.10599E-06  7672   0.838E-04    0.657E-04
DAV:  35    -0.648531162238E+03   -0.16424E-05   -0.19852E-07  7112   0.737E-04    0.580E-04
DAV:  36    -0.648531164110E+03   -0.18721E-05   -0.21402E-07  7016   0.532E-04    0.463E-04
DAV:  37    -0.648531166095E+03   -0.19849E-05   -0.17517E-07  7056   0.484E-04    0.366E-04
DAV:  38    -0.648531167295E+03   -0.12003E-05   -0.10197E-07  6408   0.379E-04    0.220E-04
DAV:  39    -0.648531168454E+03   -0.11592E-05   -0.11965E-07  6688   0.315E-04    0.109E-04
DAV:  40    -0.648531169107E+03   -0.65315E-06   -0.60582E-08  5760   0.260E-04
   2 F= -.64853117E+03 E0= -.64853455E+03  d E =-.102294E+01
       N       E                     dE             d eps       ncg     rms          rms(c)
DAV:   1    -0.646911211993E+03    0.16200E+01   -0.43168E+02 10564   0.335E+01    0.608E+00
DAV:   2    -0.649456702658E+03   -0.25455E+01   -0.25950E+01 13200   0.673E+00    0.543E+00
DAV:   3    -0.649251425008E+03    0.20528E+00   -0.33214E+00 14280   0.347E+00    0.403E+00
DAV:   4    -0.648985355320E+03    0.26607E+00   -0.10038E+00 13464   0.191E+00    0.173E+00
DAV:   5    -0.649022486025E+03   -0.37131E-01   -0.42992E-01 15184   0.124E+00    0.200E+00
DAV:   6    -0.648953397754E+03    0.69088E-01   -0.21659E-01 14549   0.102E+00    0.893E-01
DAV:   7    -0.648959009704E+03   -0.56120E-02   -0.12340E-01 14984   0.658E-01    0.932E-01
DAV:   8    -0.648944040215E+03    0.14969E-01   -0.48363E-02 13624   0.453E-01    0.374E-01
DAV:   9    -0.648942530997E+03    0.15092E-02   -0.17209E-02 14176   0.249E-01    0.216E-01
DAV:  10    -0.648941918564E+03    0.61243E-03   -0.37289E-03 13536   0.121E-01    0.105E-01
DAV:  11    -0.648941976155E+03   -0.57591E-04   -0.10410E-03 13888   0.804E-02    0.897E-02
DAV:  12    -0.648941990423E+03   -0.14269E-04   -0.75013E-04 13712   0.603E-02    0.729E-02
DAV:  13    -0.648941958489E+03    0.31934E-04   -0.39083E-04 14184   0.445E-02    0.413E-02
DAV:  14    -0.648942002665E+03   -0.44176E-04   -0.12645E-04 13480   0.256E-02    0.332E-02
DAV:  15    -0.648942040600E+03   -0.37935E-04   -0.69550E-05 13040   0.194E-02    0.246E-02
DAV:  16    -0.648942156506E+03   -0.11591E-03   -0.70648E-05 12432   0.172E-02    0.231E-02
DAV:  17    -0.648942238402E+03   -0.81897E-04   -0.49912E-05 12608   0.159E-02    0.150E-02
DAV:  18    -0.648942312262E+03   -0.73860E-04   -0.23468E-05 11208   0.965E-03    0.142E-02
DAV:  19    -0.648942422048E+03   -0.10979E-03   -0.30007E-05 10512   0.100E-02    0.107E-02
DAV:  20    -0.648942501968E+03   -0.79920E-04   -0.19559E-05 10592   0.849E-03    0.119E-02
DAV:  21    -0.648942544937E+03   -0.42969E-04   -0.19486E-05 10160   0.742E-03    0.805E-03
DAV:  22    -0.648942584131E+03   -0.39194E-04   -0.12572E-05 10440   0.608E-03    0.698E-03
DAV:  23    -0.648942656067E+03   -0.71936E-04   -0.11078E-05  9784   0.497E-03    0.672E-03
DAV:  24    -0.648942696268E+03   -0.40202E-04   -0.42376E-06  9040   0.390E-03    0.478E-03
DAV:  25    -0.648942778565E+03   -0.82297E-04   -0.80302E-06  9144   0.364E-03    0.462E-03
DAV:  26    -0.648942827223E+03   -0.48657E-04   -0.49639E-06  8856   0.324E-03    0.403E-03
DAV:  27    -0.648942857633E+03   -0.30410E-04   -0.21334E-06  8104   0.239E-03    0.306E-03
DAV:  28    -0.648942903848E+03   -0.46215E-04   -0.48205E-06  8728   0.220E-03    0.237E-03
DAV:  29    -0.648942928803E+03   -0.24955E-04   -0.22300E-06  8256   0.185E-03    0.281E-03
DAV:  30    -0.648942945719E+03   -0.16916E-04   -0.16807E-06  8064   0.167E-03    0.186E-03
DAV:  31    -0.648942960178E+03   -0.14458E-04   -0.22103E-06  8040   0.134E-03    0.123E-03
DAV:  32    -0.648942966935E+03   -0.67577E-05   -0.13979E-06  7840   0.984E-04    0.963E-04
DAV:  33    -0.648942970366E+03   -0.34303E-05   -0.32039E-07  7608   0.856E-04    0.883E-04
DAV:  34    -0.648942974874E+03   -0.45085E-05   -0.78669E-07  7552   0.788E-04    0.503E-04
DAV:  35    -0.648942976965E+03   -0.20906E-05   -0.30135E-07  7424   0.648E-04    0.344E-04
DAV:  36    -0.648942978745E+03   -0.17801E-05   -0.14418E-07  6784   0.453E-04    0.393E-04
DAV:  37    -0.648942980111E+03   -0.13666E-05   -0.13824E-07  6784   0.425E-04    0.230E-04
DAV:  38    -0.648942981598E+03   -0.14868E-05   -0.16187E-07  7016   0.325E-04    0.136E-04
DAV:  39    -0.648942982416E+03   -0.81740E-06   -0.76299E-08  6160   0.279E-04
   3 F= -.64894298E+03 E0= -.64894617E+03  d E =-.143475E+01
       N       E                     dE             d eps       ncg     rms          rms(c)
DAV:   1    -0.648911749524E+03    0.31232E-01   -0.15478E+01 10532   0.569E+00    0.653E-01
DAV:   2    -0.648955639664E+03   -0.43890E-01   -0.46458E-01 12114   0.100E+00    0.512E-01
DAV:   3    -0.648958018024E+03   -0.23784E-02   -0.34643E-02 15600   0.350E-01    0.496E-01
DAV:   4    -0.648955783745E+03    0.22343E-02   -0.69145E-03 14000   0.183E-01    0.349E-01
DAV:   5    -0.648956630344E+03   -0.84660E-03   -0.72200E-03 14373   0.183E-01    0.295E-01
DAV:   6    -0.648955313483E+03    0.13169E-02   -0.82802E-03 14256   0.207E-01    0.133E-01
DAV:   7    -0.648955059881E+03    0.25360E-03   -0.21045E-03 13282   0.973E-02    0.760E-02
DAV:   8    -0.648955001814E+03    0.58066E-04   -0.34247E-04 13328   0.441E-02    0.366E-02
DAV:   9    -0.648955024325E+03   -0.22511E-04   -0.11403E-04 13957   0.241E-02    0.322E-02
DAV:  10    -0.648955035121E+03   -0.10796E-04   -0.78833E-05 13864   0.211E-02    0.168E-02
DAV:  11    -0.648955065002E+03   -0.29881E-04   -0.37569E-05 12893   0.135E-02    0.129E-02
DAV:  12    -0.648955081826E+03   -0.16824E-04   -0.14515E-05 11048   0.893E-03    0.788E-03
DAV:  13    -0.648955092456E+03   -0.10630E-04   -0.50294E-06 10114   0.479E-03    0.562E-03
DAV:  14    -0.648955116983E+03   -0.24527E-04   -0.32574E-06  8760   0.357E-03    0.436E-03
DAV:  15    -0.648955135725E+03   -0.18743E-04   -0.24649E-06  8608   0.332E-03    0.339E-03
DAV:  16    -0.648955156915E+03   -0.21189E-04   -0.28804E-06  8856   0.253E-03    0.249E-03
DAV:  17    -0.648955177712E+03   -0.20797E-04   -0.36040E-06  9048   0.234E-03    0.210E-03
DAV:  18    -0.648955187324E+03   -0.96116E-05   -0.12688E-06  8256   0.155E-03    0.189E-03
DAV:  19    -0.648955197611E+03   -0.10287E-04   -0.19370E-06  8424   0.159E-03    0.148E-03
DAV:  20    -0.648955203816E+03   -0.62051E-05   -0.10788E-06  8128   0.129E-03    0.116E-03
DAV:  21    -0.648955207581E+03   -0.37650E-05   -0.65066E-07  7856   0.997E-04    0.106E-03
DAV:  22    -0.648955211818E+03   -0.42373E-05   -0.94980E-07  8008   0.110E-03    0.116E-03
DAV:  23    -0.648955214014E+03   -0.21950E-05   -0.34673E-07  7728   0.101E-03    0.825E-04
DAV:  24    -0.648955216367E+03   -0.23538E-05   -0.52601E-07  7704   0.750E-04    0.573E-04
DAV:  25    -0.648955219531E+03   -0.31635E-05   -0.41063E-07  7632   0.686E-04    0.555E-04
DAV:  26    -0.648955221996E+03   -0.24649E-05   -0.24847E-07  7328   0.590E-04    0.479E-04
DAV:  27    -0.648955223875E+03   -0.18796E-05   -0.17961E-07  6704   0.533E-04    0.486E-04
DAV:  28    -0.648955226876E+03   -0.30009E-05   -0.42941E-07  7520   0.518E-04    0.410E-04
DAV:  29    -0.648955228070E+03   -0.11937E-05   -0.83447E-08  6400   0.416E-04    0.322E-04
DAV:  30    -0.648955229778E+03   -0.17076E-05   -0.21589E-07  7248   0.336E-04    0.270E-04
DAV:  31    -0.648955231214E+03   -0.14367E-05   -0.30896E-07  7272   0.359E-04    0.221E-04
DAV:  32    -0.648955231358E+03   -0.14408E-06   -0.81427E-08  6488   0.263E-04
   4 F= -.64895523E+03 E0= -.64895852E+03  d E =-.144700E+01
       N       E                     dE             d eps       ncg     rms          rms(c)
DAV:   1    -0.648954300065E+03    0.93115E-03   -0.95769E-01 10540   0.144E+00    0.159E-01
DAV:   2    -0.648956994374E+03   -0.26943E-02   -0.28007E-02 11976   0.249E-01    0.124E-01
DAV:   3    -0.648957113727E+03   -0.11935E-03   -0.22752E-03 15494   0.964E-02    0.117E-01
DAV:   4    -0.648956943729E+03    0.17000E-03   -0.57357E-04 13616   0.517E-02    0.677E-02
DAV:   5    -0.648957005212E+03   -0.61484E-04   -0.50900E-04 15030   0.473E-02    0.708E-02
DAV:   6    -0.648956915120E+03    0.90093E-04   -0.44827E-04 14568   0.476E-02    0.344E-02
DAV:   7    -0.648956899221E+03    0.15899E-04   -0.14093E-04 13912   0.242E-02    0.170E-02
DAV:   8    -0.648956894698E+03    0.45233E-05   -0.20533E-05 11608   0.980E-03    0.856E-03
DAV:   9    -0.648956894763E+03   -0.65324E-07   -0.72124E-06 11104   0.596E-03
   5 F= -.64895689E+03 E0= -.64896016E+03  d E =-.144866E+01
       N       E                     dE             d eps       ncg     rms          rms(c)
DAV:   1    -0.648839922137E+03    0.11697E+00   -0.10933E+02 10468   0.178E+01    0.222E+00
DAV:   2    -0.649144985773E+03   -0.30506E+00   -0.30970E+00 11804   0.308E+00    0.125E+00
DAV:   3    -0.649175112887E+03   -0.30127E-01   -0.31975E-01 15212   0.124E+00    0.147E+00
DAV:   4    -0.649139209447E+03    0.35903E-01   -0.13065E-01 13736   0.818E-01    0.589E-01
DAV:   5    -0.649142391225E+03   -0.31818E-02   -0.53921E-02 14071   0.471E-01    0.653E-01
DAV:   6    -0.649135922475E+03    0.64688E-02   -0.30412E-02 13616   0.385E-01    0.215E-01
DAV:   7    -0.649136084927E+03   -0.16245E-03   -0.72452E-03 13885   0.196E-01    0.167E-01
DAV:   8    -0.649135633566E+03    0.45136E-03   -0.23761E-03 13344   0.129E-01    0.795E-02
DAV:   9    -0.649135658438E+03   -0.24872E-04   -0.89076E-04 14781   0.698E-02    0.737E-02
DAV:  10    -0.649135569824E+03    0.88615E-04   -0.35881E-04 13696   0.481E-02    0.305E-02
DAV:  11    -0.649135570280E+03   -0.45638E-06   -0.10383E-04 15053   0.234E-02    0.241E-02
DAV:  12    -0.649135570455E+03   -0.17544E-06   -0.41446E-05 13168   0.154E-02    0.154E-02
DAV:  13    -0.649135573862E+03   -0.34066E-05   -0.18425E-05 11824   0.109E-02    0.102E-02
DAV:  14    -0.649135584404E+03   -0.10542E-04   -0.96693E-06 10912   0.700E-03    0.920E-03
DAV:  15    -0.649135597293E+03   -0.12889E-04   -0.64714E-06 10168   0.624E-03    0.595E-03
DAV:  16    -0.649135616741E+03   -0.19448E-04   -0.40861E-06  9192   0.432E-03    0.623E-03
DAV:  17    -0.649135632603E+03   -0.15862E-04   -0.27365E-06  8336   0.374E-03    0.500E-03
DAV:  18    -0.649135653720E+03   -0.21117E-04   -0.33334E-06  8712   0.358E-03    0.409E-03
DAV:  19    -0.649135675878E+03   -0.22159E-04   -0.32146E-06  8448   0.316E-03    0.347E-03
DAV:  20    -0.649135686528E+03   -0.10650E-04   -0.12935E-06  8104   0.241E-03    0.255E-03
DAV:  21    -0.649135704063E+03   -0.17535E-04   -0.17219E-06  8000   0.210E-03    0.234E-03
DAV:  22    -0.649135719740E+03   -0.15677E-04   -0.11952E-06  8040   0.208E-03    0.179E-03
DAV:  23    -0.649135732865E+03   -0.13125E-04   -0.13510E-06  8016   0.155E-03    0.133E-03
DAV:  24    -0.649135750360E+03   -0.17495E-04   -0.13612E-06  8048   0.138E-03    0.135E-03
DAV:  25    -0.649135761927E+03   -0.11567E-04   -0.67736E-07  7744   0.126E-03    0.139E-03
DAV:  26    -0.649135771897E+03   -0.99706E-05   -0.71995E-07  7704   0.108E-03    0.956E-04
DAV:  27    -0.649135778801E+03   -0.69040E-05   -0.33773E-07  7344   0.852E-04    0.933E-04
DAV:  28    -0.649135784594E+03   -0.57924E-05   -0.40803E-07  7488   0.786E-04    0.910E-04
DAV:  29    -0.649135791429E+03   -0.68356E-05   -0.92284E-07  7504   0.755E-04    0.537E-04
DAV:  30    -0.649135793417E+03   -0.19877E-05   -0.24634E-07  7632   0.570E-04    0.391E-04
DAV:  31    -0.649135794865E+03   -0.14478E-05   -0.28650E-07  7240   0.469E-04    0.360E-04
DAV:  32    -0.649135795442E+03   -0.57703E-06   -0.14024E-07  6976   0.459E-04
   6 F= -.64913580E+03 E0= -.64913902E+03  d E =-.178901E+00
       N       E                     dE             d eps       ncg     rms          rms(c)
DAV:   1    -0.649076490544E+03    0.59304E-01   -0.34287E+01 10460   0.987E+00    0.123E+00
DAV:   2    -0.649165747575E+03   -0.89257E-01   -0.89610E-01 12092   0.170E+00    0.709E-01
DAV:   3    -0.649176057285E+03   -0.10310E-01   -0.10459E-01 15300   0.721E-01    0.854E-01
DAV:   4    -0.649163875119E+03    0.12182E-01   -0.41023E-02 13712   0.464E-01    0.339E-01
DAV:   5    -0.649165161621E+03   -0.12865E-02   -0.19693E-02 14029   0.295E-01    0.376E-01
DAV:   6    -0.649162907429E+03    0.22542E-02   -0.92321E-03 13712   0.221E-01    0.119E-01
DAV:   7    -0.649162845059E+03    0.62370E-04   -0.21076E-03 14021   0.102E-01    0.821E-02
DAV:   8    -0.649162787902E+03    0.57157E-04   -0.58480E-04 13512   0.581E-02    0.510E-02
DAV:   9    -0.649162769189E+03    0.18714E-04   -0.27377E-04 13885   0.410E-02    0.358E-02
DAV:  10    -0.649162749882E+03    0.19307E-04   -0.10243E-04 13720   0.247E-02    0.170E-02
DAV:  11    -0.649162749728E+03    0.15322E-06   -0.35534E-05 13736   0.138E-02    0.142E-02
DAV:  12    -0.649162748542E+03    0.11862E-05   -0.12225E-05 11536   0.857E-03    0.752E-03
DAV:  13    -0.649162749751E+03   -0.12084E-05   -0.47656E-06  9965   0.554E-03    0.497E-03
DAV:  14    -0.649162753561E+03   -0.38101E-05   -0.26730E-06  8640   0.391E-03    0.492E-03
DAV:  15    -0.649162757862E+03   -0.43015E-05   -0.15387E-06  7858   0.356E-03    0.322E-03
DAV:  16    -0.649162761795E+03   -0.39332E-05   -0.81624E-07  7568   0.230E-03    0.292E-03
DAV:  17    -0.649162768486E+03   -0.66910E-05   -0.81203E-07  7645   0.189E-03    0.238E-03
DAV:  18    -0.649162776249E+03   -0.77624E-05   -0.11378E-06  7792   0.197E-03    0.251E-03
DAV:  19    -0.649162781732E+03   -0.54835E-05   -0.72160E-07  7621   0.180E-03    0.185E-03
DAV:  20    -0.649162787728E+03   -0.59960E-05   -0.62933E-07  7624   0.144E-03    0.105E-03
DAV:  21    -0.649162795360E+03   -0.76318E-05   -0.59791E-07  7546   0.113E-03    0.102E-03
DAV:  22    -0.649162802496E+03   -0.71356E-05   -0.44273E-07  7464   0.111E-03    0.909E-04
DAV:  23    -0.649162807897E+03   -0.54010E-05   -0.43557E-07  7544   0.920E-04    0.743E-04
DAV:  24    -0.649162812838E+03   -0.49408E-05   -0.44814E-07  7496   0.821E-04    0.716E-04
DAV:  25    -0.649162816820E+03   -0.39824E-05   -0.23458E-07  7400   0.753E-04    0.567E-04
DAV:  26    -0.649162821339E+03   -0.45193E-05   -0.49493E-07  7488   0.619E-04    0.487E-04
DAV:  27    -0.649162823149E+03   -0.18100E-05   -0.94499E-08  6688   0.520E-04    0.472E-04
DAV:  28    -0.649162825038E+03   -0.18887E-05   -0.12439E-07  7040   0.415E-04    0.406E-04
DAV:  29    -0.649162827037E+03   -0.19992E-05   -0.21880E-07  7200   0.430E-04    0.254E-04
DAV:  30    -0.649162827915E+03   -0.87752E-06   -0.96927E-08  6824   0.325E-04
   7 F= -.64916283E+03 E0= -.64916605E+03  d E =-.205933E+00
       N       E                     dE             d eps       ncg     rms          rms(c)
DAV:   1    -0.648890226454E+03    0.27260E+00   -0.88501E+01 10460   0.147E+01    0.168E+00
DAV:   2    -0.649243024727E+03   -0.35280E+00   -0.36106E+00 11844   0.301E+00    0.120E+00
DAV:   3    -0.649257176070E+03   -0.14151E-01   -0.26302E-01 14752   0.103E+00    0.112E+00
DAV:   4    -0.649246370625E+03    0.10805E-01   -0.47553E-02 13464   0.503E-01    0.789E-01
DAV:   5    -0.649249661902E+03   -0.32913E-02   -0.25865E-02 14840   0.322E-01    0.683E-01
DAV:   6    -0.649246850030E+03    0.28119E-02   -0.32866E-02 13752   0.414E-01    0.370E-01
DAV:   7    -0.649245380931E+03    0.14691E-02   -0.13915E-02 14312   0.258E-01    0.216E-01
DAV:   8    -0.649244622602E+03    0.75833E-03   -0.35993E-03 13584   0.138E-01    0.110E-01
DAV:   9    -0.649244528525E+03    0.94077E-04   -0.99058E-04 14272   0.709E-02    0.704E-02
DAV:  10    -0.649244495480E+03    0.33045E-04   -0.36084E-04 14104   0.433E-02    0.481E-02
DAV:  11    -0.649244490725E+03    0.47546E-05   -0.22868E-04 13840   0.364E-02    0.408E-02
DAV:  12    -0.649244467863E+03    0.22862E-04   -0.12384E-04 13392   0.247E-02    0.174E-02
DAV:  13    -0.649244465768E+03    0.20955E-05   -0.33067E-05 12696   0.129E-02    0.101E-02
DAV:  14    -0.649244465338E+03    0.42995E-06   -0.10842E-05 11200   0.775E-03    0.690E-03
DAV:  15    -0.649244465052E+03    0.28552E-06   -0.35410E-06  9376   0.472E-03
   8 F= -.64924447E+03 E0= -.64924770E+03  d E =-.816371E-01
       N       E                     dE             d eps       ncg     rms          rms(c)
DAV:   1    -0.649244386346E+03    0.78992E-04   -0.29171E-02 10557   0.268E-01    0.266E-02
DAV:   2    -0.649244490773E+03   -0.10443E-03   -0.10776E-03 11912   0.520E-02    0.203E-02
DAV:   3    -0.649244494387E+03   -0.36139E-05   -0.83668E-05 14877   0.202E-02    0.179E-02
DAV:   4    -0.649244490891E+03    0.34958E-05   -0.19224E-05 12080   0.991E-03    0.101E-02
DAV:   5    -0.649244492691E+03   -0.17995E-05   -0.11049E-05 11325   0.715E-03    0.106E-02
DAV:   6    -0.649244491405E+03    0.12857E-05   -0.89105E-06 10728   0.706E-03    0.533E-03
DAV:   7    -0.649244491185E+03    0.22001E-06   -0.31137E-06  9440   0.405E-03
   9 F= -.64924449E+03 E0= -.64924773E+03  d E =-.816633E-01
       N       E                     dE             d eps       ncg     rms          rms(c)
DAV:   1    -0.649188845094E+03    0.55646E-01   -0.33867E+01 10460   0.106E+01    0.105E+00
DAV:   2    -0.649290540585E+03   -0.10170E+00   -0.97603E-01 11896   0.192E+00    0.887E-01
DAV:   3    -0.649287101839E+03    0.34387E-02   -0.10974E-01 15018   0.804E-01    0.651E-01
DAV:   4    -0.649282340052E+03    0.47618E-02   -0.28735E-02 13592   0.357E-01    0.359E-01
DAV:   5    -0.649282262290E+03    0.77762E-04   -0.15673E-02 14336   0.295E-01    0.325E-01
DAV:   6    -0.649281279026E+03    0.98326E-03   -0.81431E-03 13352   0.217E-01    0.175E-01
DAV:   7    -0.649280812558E+03    0.46647E-03   -0.26684E-03 13896   0.125E-01    0.671E-02
DAV:   8    -0.649280830998E+03   -0.18441E-04   -0.70639E-04 14240   0.574E-02    0.600E-02
DAV:   9    -0.649280787736E+03    0.43262E-04   -0.28845E-04 13752   0.414E-02    0.308E-02
DAV:  10    -0.649280786993E+03    0.74363E-06   -0.98879E-05 13960   0.227E-02    0.261E-02
DAV:  11    -0.649280779137E+03    0.78561E-05   -0.45372E-05 12936   0.159E-02    0.125E-02
DAV:  12    -0.649280780468E+03   -0.13316E-05   -0.13251E-05 11696   0.872E-03    0.759E-03
DAV:  13    -0.649280781838E+03   -0.13693E-05   -0.52274E-06  9976   0.574E-03    0.431E-03
DAV:  14    -0.649280783712E+03   -0.18747E-05   -0.18639E-06  7848   0.343E-03    0.304E-03
DAV:  15    -0.649280787029E+03   -0.33168E-05   -0.65306E-07  7160   0.235E-03    0.195E-03
DAV:  16    -0.649280789163E+03   -0.21335E-05   -0.30308E-07  6560   0.155E-03    0.169E-03
DAV:  17    -0.649280792568E+03   -0.34051E-05   -0.35404E-07  7320   0.136E-03    0.152E-03
DAV:  18    -0.649280796289E+03   -0.37210E-05   -0.37196E-07  7288   0.124E-03    0.137E-03
DAV:  19    -0.649280799098E+03   -0.28095E-05   -0.26723E-07  7040   0.107E-03    0.952E-04
DAV:  20    -0.649280802292E+03   -0.31941E-05   -0.36334E-07  7368   0.761E-04    0.624E-04
DAV:  21    -0.649280805046E+03   -0.27534E-05   -0.21674E-07  7152   0.651E-04    0.567E-04
DAV:  22    -0.649280807235E+03   -0.21890E-05   -0.22772E-07  7056   0.627E-04    0.571E-04
DAV:  23    -0.649280808513E+03   -0.12780E-05   -0.13298E-07  6752   0.548E-04    0.355E-04
DAV:  24    -0.649280809733E+03   -0.12207E-05   -0.15790E-07  6920   0.427E-04    0.288E-04
DAV:  25    -0.649280810905E+03   -0.11719E-05   -0.14395E-07  6944   0.411E-04    0.220E-04
DAV:  26    -0.649280811502E+03   -0.59657E-06   -0.10107E-07  6464   0.373E-04
  10 F= -.64928081E+03 E0= -.64928379E+03  d E =-.363203E-01
       N       E                     dE             d eps       ncg     rms          rms(c)
DAV:   1    -0.649273995427E+03    0.68155E-02   -0.34198E+00 10460   0.338E+00    0.331E-01
DAV:   2    -0.649283973406E+03   -0.99780E-02   -0.96598E-02 11900   0.606E-01    0.281E-01
DAV:   3    -0.649283694770E+03    0.27864E-03   -0.10870E-02 15044   0.253E-01    0.206E-01
DAV:   4    -0.649283203585E+03    0.49118E-03   -0.28370E-03 13608   0.114E-01    0.114E-01
DAV:   5    -0.649283214653E+03   -0.11068E-04   -0.16963E-03 14490   0.958E-02    0.107E-01
DAV:   6    -0.649283093512E+03    0.12114E-03   -0.81292E-04 13448   0.690E-02    0.500E-02
DAV:   7    -0.649283055960E+03    0.37552E-04   -0.25391E-04 14080   0.374E-02    0.214E-02
DAV:   8    -0.649283059470E+03   -0.35109E-05   -0.80767E-05 14240   0.194E-02    0.215E-02
DAV:   9    -0.649283052009E+03    0.74617E-05   -0.30490E-05 13365   0.136E-02    0.863E-03
DAV:  10    -0.649283052403E+03   -0.39443E-06   -0.91585E-06 10824   0.684E-03
  11 F= -.64928305E+03 E0= -.64928595E+03  d E =-.385612E-01
       N       E                     dE             d eps       ncg     rms          rms(c)
DAV:   1    -0.649262253206E+03    0.20799E-01   -0.96132E+00 10540   0.603E+00    0.631E-01
DAV:   2    -0.649293440643E+03   -0.31187E-01   -0.31963E-01 10598   0.107E+00    0.354E-01
DAV:   3    -0.649296621899E+03   -0.31813E-02   -0.28948E-02 15114   0.367E-01    0.437E-01
DAV:   4    -0.649293528538E+03    0.30934E-02   -0.10238E-02 13488   0.232E-01    0.172E-01
DAV:   5    -0.649294217396E+03   -0.68886E-03   -0.54955E-03 14992   0.151E-01    0.214E-01
DAV:   6    -0.649293477795E+03    0.73960E-03   -0.31962E-03 14384   0.128E-01    0.864E-02
DAV:   7    -0.649293414404E+03    0.63391E-04   -0.82471E-04 14272   0.595E-02    0.449E-02
DAV:   8    -0.649293407634E+03    0.67701E-05   -0.25546E-04 13936   0.334E-02    0.322E-02
DAV:   9    -0.649293396314E+03    0.11320E-04   -0.10945E-04 13512   0.248E-02    0.202E-02
DAV:  10    -0.649293391426E+03    0.48870E-05   -0.41604E-05 12968   0.146E-02    0.117E-02
DAV:  11    -0.649293392339E+03   -0.91232E-06   -0.18333E-05 11384   0.103E-02    0.124E-02
DAV:  12    -0.649293390072E+03    0.22664E-05   -0.84437E-06 10480   0.714E-03    0.419E-03
DAV:  13    -0.649293390031E+03    0.41473E-07   -0.15448E-06  7656   0.341E-03
  12 F= -.64929339E+03 E0= -.64929601E+03  d E =-.103376E-01
       N       E                     dE             d eps       ncg     rms          rms(c)
DAV:   1    -0.649290211321E+03    0.31788E-02   -0.12377E+00 10540   0.216E+00    0.223E-01
DAV:   2    -0.649294206934E+03   -0.39956E-02   -0.40975E-02 10744   0.384E-01    0.130E-01
DAV:   3    -0.649294598400E+03   -0.39147E-03   -0.37212E-03 15201   0.133E-01    0.157E-01
DAV:   4    -0.649294207949E+03    0.39045E-03   -0.13170E-03 13672   0.827E-02    0.623E-02
DAV:   5    -0.649294295515E+03   -0.87566E-04   -0.69986E-04 14841   0.563E-02    0.739E-02
DAV:   6    -0.649294205692E+03    0.89824E-04   -0.39632E-04 14288   0.454E-02    0.304E-02
DAV:   7    -0.649294198549E+03    0.71428E-05   -0.99724E-05 13986   0.208E-02    0.160E-02
DAV:   8    -0.649294197101E+03    0.14478E-05   -0.31349E-05 12816   0.121E-02    0.115E-02
DAV:   9    -0.649294195612E+03    0.14890E-05   -0.13581E-05 11317   0.894E-03    0.736E-03
DAV:  10    -0.649294195012E+03    0.59983E-06   -0.53628E-06  9728   0.538E-03
  13 F= -.64929420E+03 E0= -.64929672E+03  d E =-.111426E-01
       N       E                     dE             d eps       ncg     rms          rms(c)
DAV:   1    -0.649278742475E+03    0.15453E-01   -0.55473E+00 10532   0.471E+00    0.418E-01
DAV:   2    -0.649297050384E+03   -0.18308E-01   -0.18981E-01 10476   0.857E-01    0.258E-01
DAV:   3    -0.649298108276E+03   -0.10579E-02   -0.13127E-02 15080   0.234E-01    0.223E-01
DAV:   4    -0.649297739959E+03    0.36832E-03   -0.38524E-03 13816   0.145E-01    0.157E-01
DAV:   5    -0.649298007734E+03   -0.26777E-03   -0.23750E-03 14248   0.103E-01    0.152E-01
DAV:   6    -0.649297578967E+03    0.42877E-03   -0.15184E-03 14064   0.934E-02    0.431E-02
DAV:   7    -0.649297583504E+03   -0.45367E-05   -0.42072E-04 14808   0.444E-02    0.350E-02
DAV:   8    -0.649297559575E+03    0.23929E-04   -0.12545E-04 14264   0.272E-02    0.147E-02
DAV:   9    -0.649297559165E+03    0.40949E-06   -0.25680E-05 12592   0.111E-02    0.111E-02
DAV:  10    -0.649297558651E+03    0.51403E-06   -0.12744E-05 11096   0.779E-03    0.797E-03
DAV:  11    -0.649297558747E+03   -0.96072E-07   -0.56539E-06 10088   0.594E-03
  14 F= -.64929756E+03 E0= -.64929989E+03  d E =-.336373E-02
       N       E                     dE             d eps       ncg     rms          rms(c)
DAV:   1    -0.649297525341E+03    0.33310E-04   -0.12830E-02 10575   0.227E-01    0.199E-02
DAV:   2    -0.649297569480E+03   -0.44139E-04   -0.43665E-04 10736   0.419E-02    0.143E-02
DAV:   3    -0.649297574125E+03   -0.46451E-05   -0.41951E-05 15152   0.151E-02    0.158E-02
DAV:   4    -0.649297570851E+03    0.32739E-05   -0.12578E-05 10936   0.816E-03    0.661E-03
DAV:   5    -0.649297572596E+03   -0.17442E-05   -0.67359E-06 10769   0.596E-03    0.765E-03
DAV:   6    -0.649297572700E+03   -0.10412E-06   -0.36102E-06  9216   0.501E-03
  15 F= -.64929757E+03 E0= -.64929991E+03  d E =-.337769E-02
       N       E                     dE             d eps       ncg     rms          rms(c)
DAV:   1    -0.649294153458E+03    0.34191E-02   -0.13711E+00 10460   0.236E+00    0.208E-01
DAV:   2    -0.649298917014E+03   -0.47636E-02   -0.47529E-02 11028   0.427E-01    0.159E-01
DAV:   3    -0.649299011573E+03   -0.94559E-04   -0.43495E-03 15045   0.151E-01    0.137E-01
DAV:   4    -0.649298776761E+03    0.23481E-03   -0.11672E-03 13608   0.756E-02    0.695E-02
DAV:   5    -0.649298814578E+03   -0.37817E-04   -0.73515E-04 14152   0.592E-02    0.735E-02
DAV:   6    -0.649298748392E+03    0.66186E-04   -0.35428E-04 13600   0.431E-02    0.290E-02
DAV:   7    -0.649298739842E+03    0.85507E-05   -0.94123E-05 14392   0.223E-02    0.145E-02
DAV:   8    -0.649298740507E+03   -0.66533E-06   -0.31978E-05 13176   0.124E-02    0.128E-02
DAV:   9    -0.649298738259E+03    0.22482E-05   -0.12021E-05 11480   0.833E-03    0.516E-03
DAV:  10    -0.649298738508E+03   -0.24965E-06   -0.27964E-06  8792   0.411E-03
  16 F= -.64929874E+03 E0= -.64930107E+03  d E =-.116581E-02
       N       E                     dE             d eps       ncg     rms          rms(c)
DAV:   1    -0.649298366925E+03    0.37133E-03   -0.13080E-01 10463   0.729E-01    0.642E-02
DAV:   2    -0.649298819555E+03   -0.45263E-03   -0.45216E-03 11138   0.132E-01    0.484E-02
DAV:   3    -0.649298831857E+03   -0.12302E-04   -0.41356E-04 15046   0.469E-02    0.430E-02
DAV:   4    -0.649298808253E+03    0.23604E-04   -0.11497E-04 13504   0.239E-02    0.214E-02
DAV:   5    -0.649298812776E+03   -0.45226E-05   -0.70042E-05 14143   0.183E-02    0.229E-02
DAV:   6    -0.649298806548E+03    0.62280E-05   -0.34982E-05 13232   0.135E-02    0.933E-03
DAV:   7    -0.649298805626E+03    0.92165E-06   -0.94587E-06 12028   0.700E-03
  17 F= -.64929881E+03 E0= -.64930114E+03  d E =-.123293E-02
       N       E                     dE             d eps       ncg     rms          rms(c)
DAV:   1    -0.649296016153E+03    0.27904E-02   -0.11193E+00 10460   0.207E+00    0.181E-01
DAV:   2    -0.649299545521E+03   -0.35294E-02   -0.36257E-02 10514   0.361E-01    0.104E-01
DAV:   3    -0.649299827596E+03   -0.28208E-03   -0.27498E-03 15557   0.115E-01    0.120E-01
DAV:   4    -0.649299609347E+03    0.21825E-03   -0.80990E-04 13640   0.649E-02    0.519E-02
DAV:   5    -0.649299664489E+03   -0.55142E-04   -0.41250E-04 14725   0.443E-02    0.590E-02
DAV:   6    -0.649299604848E+03    0.59641E-04   -0.27118E-04 13912   0.390E-02    0.214E-02
DAV:   7    -0.649299604092E+03    0.75591E-06   -0.73228E-05 14552   0.173E-02    0.134E-02
DAV:   8    -0.649299601482E+03    0.26095E-05   -0.18003E-05 12472   0.995E-03    0.653E-03
DAV:   9    -0.649299601594E+03   -0.11202E-06   -0.58852E-06 10096   0.573E-03
  18 F= -.64929960E+03 E0= -.64930191E+03  d E =-.795968E-03
       N       E                     dE             d eps       ncg     rms          rms(c)
DAV:   1    -0.649298664915E+03    0.93657E-03   -0.34269E-01 10460   0.115E+00    0.101E-01
DAV:   2    -0.649299747885E+03   -0.10830E-02   -0.11092E-02 10586   0.200E-01    0.587E-02
DAV:   3    -0.649299837371E+03   -0.89486E-04   -0.87001E-04 15553   0.653E-02    0.684E-02
DAV:   4    -0.649299765174E+03    0.72197E-04   -0.25865E-04 13792   0.367E-02    0.289E-02
DAV:   5    -0.649299782513E+03   -0.17339E-04   -0.12833E-04 14639   0.251E-02    0.323E-02
DAV:   6    -0.649299764517E+03    0.17997E-04   -0.81725E-05 13920   0.217E-02    0.117E-02
DAV:   7    -0.649299764273E+03    0.24386E-06   -0.21862E-05 12885   0.949E-03    0.743E-03
DAV:   8    -0.649299763550E+03    0.72282E-06   -0.54478E-06 10704   0.562E-03
  19 F= -.64929976E+03 E0= -.64930207E+03  d E =-.957924E-03
       N       E                     dE             d eps       ncg     rms          rms(c)
DAV:   1    -0.649297441177E+03    0.23231E-02   -0.86337E-01 10460   0.182E+00    0.162E-01
DAV:   2    -0.649300137206E+03   -0.26960E-02   -0.27871E-02 10584   0.314E-01    0.938E-02
DAV:   3    -0.649300313032E+03   -0.17583E-03   -0.19510E-03 15077   0.927E-02    0.920E-02
DAV:   4    -0.649300225164E+03    0.87868E-04   -0.86111E-04 13480   0.628E-02    0.573E-02
DAV:   5    -0.649300217298E+03    0.78658E-05   -0.23280E-04 14077   0.379E-02    0.390E-02
DAV:   6    -0.649300197930E+03    0.19368E-04   -0.12624E-04 13736   0.273E-02    0.187E-02
DAV:   7    -0.649300197273E+03    0.65682E-06   -0.40649E-05 13376   0.147E-02    0.149E-02
DAV:   8    -0.649300193745E+03    0.35276E-05   -0.14814E-05 11240   0.973E-03    0.648E-03
DAV:   9    -0.649300193284E+03    0.46137E-06   -0.34765E-06  9592   0.488E-03
  20 F= -.64930019E+03 E0= -.64930247E+03  d E =-.429734E-03
       N       E                     dE             d eps       ncg     rms          rms(c)
DAV:   1    -0.649300165997E+03    0.27748E-04   -0.99723E-03 10612   0.196E-01    0.175E-02
DAV:   2    -0.649300197090E+03   -0.31093E-04   -0.32082E-04 10880   0.338E-02    0.996E-03
DAV:   3    -0.649300199193E+03   -0.21023E-05   -0.22520E-05 14814   0.101E-02    0.100E-02
DAV:   4    -0.649300198371E+03    0.82147E-06   -0.10153E-05 11016   0.710E-03    0.656E-03
DAV:   5    -0.649300198661E+03   -0.29015E-06   -0.38051E-06  9412   0.460E-03
  21 F= -.64930020E+03 E0= -.64930247E+03  d E =-.435111E-03
       N       E                     dE             d eps       ncg     rms          rms(c)
DAV:   1    -0.649298187050E+03    0.20113E-02   -0.71177E-01 10460   0.165E+00    0.132E-01
DAV:   2    -0.649300422680E+03   -0.22356E-02   -0.23153E-02 10492   0.287E-01    0.780E-02
DAV:   3    -0.649300545637E+03   -0.12296E-03   -0.15014E-03 15312   0.822E-02    0.744E-02
DAV:   4    -0.649300492349E+03    0.53289E-04   -0.44849E-04 13528   0.493E-02    0.457E-02
DAV:   5    -0.649300509998E+03   -0.17650E-04   -0.19858E-04 14640   0.307E-02    0.469E-02
DAV:   6    -0.649300479835E+03    0.30163E-04   -0.14219E-04 13688   0.282E-02    0.177E-02
DAV:   7    -0.649300480278E+03   -0.44242E-06   -0.46353E-05 14136   0.152E-02    0.137E-02
DAV:   8    -0.649300477215E+03    0.30625E-05   -0.16162E-05 12080   0.944E-03    0.613E-03
DAV:   9    -0.649300476937E+03    0.27796E-06   -0.40735E-06 10056   0.450E-03
  22 F= -.64930048E+03 E0= -.64930280E+03  d E =-.278276E-03
       N       E                     dE             d eps       ncg     rms          rms(c)
DAV:   1    -0.649300401374E+03    0.75841E-04   -0.27377E-02 10482   0.324E-01    0.261E-02
DAV:   2    -0.649300487402E+03   -0.86028E-04   -0.88906E-04 10664   0.563E-02    0.156E-02
DAV:   3    -0.649300492808E+03   -0.54062E-05   -0.60605E-05 15298   0.167E-02    0.161E-02
DAV:   4    -0.649300490217E+03    0.25914E-05   -0.19199E-05 12384   0.102E-02    0.968E-03
DAV:   5    -0.649300491154E+03   -0.93669E-06   -0.96428E-06 11148   0.702E-03
  23 F= -.64930049E+03 E0= -.64930282E+03  d E =-.292492E-03
       N       E                     dE             d eps       ncg     rms          rms(c)
DAV:   1    -0.649299906306E+03    0.58391E-03   -0.19095E-01 10484   0.872E-01    0.859E-02
DAV:   2    -0.649300575359E+03   -0.66905E-03   -0.67040E-03 11040   0.157E-01    0.583E-02
DAV:   3    -0.649300619661E+03   -0.44301E-04   -0.64348E-04 14890   0.601E-02    0.597E-02
DAV:   4    -0.649300562247E+03    0.57414E-04   -0.23335E-04 13536   0.343E-02    0.254E-02
DAV:   5    -0.649300574643E+03   -0.12396E-04   -0.10342E-04 14218   0.205E-02    0.320E-02
DAV:   6    -0.649300559585E+03    0.15058E-04   -0.59634E-05 13520   0.173E-02    0.101E-02
DAV:   7    -0.649300558551E+03    0.10334E-05   -0.14989E-05 12397   0.830E-03    0.551E-03
DAV:   8    -0.649300558403E+03    0.14818E-06   -0.38196E-06  9624   0.461E-03
  24 F= -.64930056E+03 E0= -.64930292E+03  d E =-.672497E-04
       N       E                     dE             d eps       ncg     rms          rms(c)
DAV:   1    -0.649300531152E+03    0.27399E-04   -0.10137E-02 10475   0.201E-01    0.202E-02
DAV:   2    -0.649300567379E+03   -0.36226E-04   -0.35799E-04 11282   0.366E-02    0.146E-02
DAV:   3    -0.649300568928E+03   -0.15487E-05   -0.37500E-05 14705   0.152E-02    0.140E-02
DAV:   4    -0.649300565836E+03    0.30915E-05   -0.13354E-05 11504   0.838E-03    0.573E-03
DAV:   5    -0.649300566405E+03   -0.56857E-06   -0.47223E-06  9866   0.462E-03
  25 F= -.64930057E+03 E0= -.64930292E+03  d E =-.752510E-04
       N       E                     dE             d eps       ncg     rms          rms(c)
DAV:   1    -0.649300565052E+03    0.78400E-06   -0.19327E-04 10389   0.279E-02    0.318E-03
DAV:   2    -0.649300566265E+03   -0.12133E-05   -0.10186E-05 12818   0.714E-03    0.495E-03
DAV:   3    -0.649300565666E+03    0.59920E-06   -0.17234E-06  7933   0.379E-03
  26 F= -.64930057E+03 E0= -.64930292E+03  d E =-.745126E-04
       N       E                     dE             d eps       ncg     rms          rms(c)
DAV:   1    -0.649300565565E+03    0.70091E-06   -0.69572E-05 10320   0.167E-02    0.162E-03
DAV:   2    -0.649300565928E+03   -0.36313E-06   -0.25479E-06  7832   0.333E-03
  27 F= -.64930057E+03 E0= -.64930292E+03  d E =-.747740E-04
       N       E                     dE             d eps       ncg     rms          rms(c)
DAV:   1    -0.649300434173E+03    0.13139E-03   -0.46158E-02 10460   0.436E-01    0.328E-02
DAV:   2    -0.649300589538E+03   -0.15537E-03   -0.15945E-03 10544   0.765E-02    0.207E-02
DAV:   3    -0.649300598234E+03   -0.86959E-05   -0.10785E-04 15094   0.217E-02    0.210E-02
DAV:   4    -0.649300592420E+03    0.58146E-05   -0.28116E-05 13320   0.119E-02    0.106E-02
DAV:   5    -0.649300594827E+03   -0.24075E-05   -0.16015E-05 11814   0.809E-03    0.131E-02
DAV:   6    -0.649300592107E+03    0.27204E-05   -0.11343E-05 11472   0.758E-03    0.385E-03
DAV:   7    -0.649300592143E+03   -0.36263E-07   -0.26716E-06  9552   0.364E-03
  28 F= -.64930059E+03 E0= -.64930294E+03  d E =-.262153E-04
