Generated by VASPKIT code
 1.000000
    9.4983997344999995    0.0000000000000000    0.0000000000000000
    0.0000000000000000    9.4983997344999995    0.0000000000000000
    0.0000000000000000    0.0000000000000000   24.5028991699000009
   Mo   Nb   O 
    61     1     1
Selective Dynamics
Direct
    0.0000000000000000    0.0000000000000000    0.0000000000000000    F  F  F            Mo1
    0.0164000000000000    0.9836300000000000    0.3832900000000000    T  T  T            Mo2
    0.1666700000000000    0.1666700000000000    0.0646400000000000    F  F  F            Mo3
    0.3333300000000000    0.0000000000000000    0.0000000000000000    F  F  F            Mo4
    0.3185000000000000    0.9991700000000000    0.3818300000000000    T  T  T            Mo5
    0.5000000000000000    0.1666700000000000    0.0646400000000000    F  F  F            Mo6
    0.6666700000000000    0.0000000000000000    0.0000000000000000    F  F  F            Mo7
    0.6683700000000000    0.0067300000000000    0.3797700000000000    T  T  T            Mo8
    0.8333300000000000    0.1666700000000000    0.0646400000000000    F  F  F            Mo9
    0.0000000000000000    0.3333300000000000    0.0000000000000000    F  F  F           Mo10
    0.1666700000000000    0.5000000000000000    0.0646400000000000    F  F  F           Mo11
    0.3333300000000000    0.3333300000000000    0.0000000000000000    F  F  F           Mo12
    0.3415800000000000    0.3308400000000000    0.3793400000000000    T  T  T           Mo13
    0.5000000000000000    0.5000000000000000    0.0646400000000000    F  F  F           Mo14
    0.6666700000000000    0.3333300000000000    0.0000000000000000    F  F  F           Mo15
    0.8333300000000000    0.5000000000000000    0.0646400000000000    F  F  F           Mo16
    0.0000000000000000    0.6666700000000000    0.0000000000000000    F  F  F           Mo17
    0.0008200000000000    0.6814700000000000    0.3818200000000000    T  T  T           Mo18
    0.1666700000000000    0.8333300000000000    0.0646400000000000    F  F  F           Mo19
    0.3333300000000000    0.6666700000000000    0.0000000000000000    F  F  F           Mo20
    0.5000000000000000    0.8333300000000000    0.0646400000000000    F  F  F           Mo21
    0.6666700000000000    0.6666700000000000    0.0000000000000000    F  F  F           Mo22
    0.6691500000000000    0.6584200000000000    0.3793400000000000    T  T  T           Mo23
    0.8333300000000000    0.8333300000000000    0.0646400000000000    F  F  F           Mo24
    0.0000000000000000    0.0000000000000000    0.1292800000000000    F  F  F           Mo25
    0.1666700000000000    0.1666700000000000    0.1939100000000000    F  F  F           Mo26
    0.3333300000000000    0.0000000000000000    0.1292800000000000    F  F  F           Mo27
    0.5000000000000000    0.1666700000000000    0.1939100000000000    F  F  F           Mo28
    0.6666700000000000    0.0000000000000000    0.1292800000000000    F  F  F           Mo29
    0.8333300000000000    0.1666700000000000    0.1939100000000000    F  F  F           Mo30
    0.0000000000000000    0.3333300000000000    0.1292800000000000    F  F  F           Mo31
    0.1666700000000000    0.5000000000000000    0.1939100000000000    F  F  F           Mo32
    0.3333300000000000    0.3333300000000000    0.1292800000000000    F  F  F           Mo33
    0.5000000000000000    0.5000000000000000    0.1939100000000000    F  F  F           Mo34
    0.6666700000000000    0.3333300000000000    0.1292800000000000    F  F  F           Mo35
    0.8333300000000000    0.5000000000000000    0.1939100000000000    F  F  F           Mo36
    0.0000000000000000    0.6666700000000000    0.1292800000000000    F  F  F           Mo37
    0.1666700000000000    0.8333300000000000    0.1939100000000000    F  F  F           Mo38
    0.3333300000000000    0.6666700000000000    0.1292800000000000    F  F  F           Mo39
    0.5000000000000000    0.8333300000000000    0.1939100000000000    F  F  F           Mo40
    0.6666700000000000    0.6666700000000000    0.1292800000000000    F  F  F           Mo41
    0.8333300000000000    0.8333300000000000    0.1939100000000000    F  F  F           Mo42
    0.0000000000000000    0.0000000000000000    0.2585500000000000    F  F  F           Mo43
    0.1653900000000000    0.1678900000000000    0.3242600000000000    T  T  T           Mo44
    0.3333300000000000    0.0000000000000000    0.2585500000000000    F  F  F           Mo45
    0.5007400000000000    0.1669100000000000    0.3247300000000000    T  T  T           Mo46
    0.6666700000000000    0.0000000000000000    0.2585500000000000    F  F  F           Mo47
    0.8330700000000000    0.1669300000000000    0.3243700000000000    T  T  T           Mo48
    0.0000000000000000    0.3333300000000000    0.2585500000000000    F  F  F           Mo49
    0.1658200000000000    0.4987800000000000    0.3243100000000000    T  T  T           Mo50
    0.3333300000000000    0.3333300000000000    0.2585500000000000    F  F  F           Mo51
    0.5003200000000000    0.4996800000000000    0.3246100000000000    T  T  T           Mo52
    0.6666700000000000    0.3333300000000000    0.2585500000000000    F  F  F           Mo53
    0.8331000000000000    0.4992600000000000    0.3247300000000000    T  T  T           Mo54
    0.0000000000000000    0.6666700000000000    0.2585500000000000    F  F  F           Mo55
    0.1673800000000000    0.8326200000000000    0.3213400000000000    T  T  T           Mo56
    0.3333300000000000    0.6666700000000000    0.2585500000000000    F  F  F           Mo57
    0.5012300000000000    0.8341800000000000    0.3243100000000000    T  T  T           Mo58
    0.6666700000000000    0.6666700000000000    0.2585500000000000    F  F  F           Mo59
    0.8321100000000000    0.8346100000000000    0.3242700000000000    T  T  T           Mo60
    0.9932800000000001    0.3316200000000000    0.3797700000000000    T  T  T           Mo61
    0.3252200000000000    0.6748100000000000    0.3863800000000000    T  T  T            Nb1
    0.4887100000000000    0.5113000000000000    0.4347000000000000    T  T  T             O1
