ni3al                                   
           1
     9.498400    0.000000    0.000000
     0.000000    9.498400    0.000000
     0.000000    0.000000   24.502899
   Mo   Nb   O 
    61     1     1
Direct configuration=     1
   0.00000000  0.00000000  0.00000000
   0.01640000  0.98363000  0.38329000
   0.16667000  0.16667000  0.06464000
   0.33333000  0.00000000  0.00000000
   0.31850000  0.99917000  0.38183000
   0.50000000  0.16667000  0.06464000
   0.66667000  0.00000000  0.00000000
   0.66837000  0.00673000  0.37977000
   0.83333000  0.16667000  0.06464000
   0.00000000  0.33333000  0.00000000
   0.16667000  0.50000000  0.06464000
   0.33333000  0.33333000  0.00000000
   0.34158000  0.33084000  0.37934000
   0.50000000  0.50000000  0.06464000
   0.66667000  0.33333000  0.00000000
   0.83333000  0.50000000  0.06464000
   0.00000000  0.66667000  0.00000000
   0.00082000  0.68147000  0.38182000
   0.16667000  0.83333000  0.06464000
   0.33333000  0.66667000  0.00000000
   0.50000000  0.83333000  0.06464000
   0.66667000  0.66667000  0.00000000
   0.66915000  0.65842000  0.37934000
   0.83333000  0.83333000  0.06464000
   0.00000000  0.00000000  0.12928000
   0.16667000  0.16667000  0.19391000
   0.33333000  0.00000000  0.12928000
   0.50000000  0.16667000  0.19391000
   0.66667000  0.00000000  0.12928000
   0.83333000  0.16667000  0.19391000
   0.00000000  0.33333000  0.12928000
   0.16667000  0.50000000  0.19391000
   0.33333000  0.33333000  0.12928000
   0.50000000  0.50000000  0.19391000
   0.66667000  0.33333000  0.12928000
   0.83333000  0.50000000  0.19391000
   0.00000000  0.66667000  0.12928000
   0.16667000  0.83333000  0.19391000
   0.33333000  0.66667000  0.12928000
   0.50000000  0.83333000  0.19391000
   0.66667000  0.66667000  0.12928000
   0.83333000  0.83333000  0.19391000
   0.00000000  0.00000000  0.25855000
   0.16539000  0.16789000  0.32426000
   0.33333000  0.00000000  0.25855000
   0.50074000  0.16691000  0.32473000
   0.66667000  0.00000000  0.25855000
   0.83307000  0.16693000  0.32437000
   0.00000000  0.33333000  0.25855000
   0.16582000  0.49878000  0.32431000
   0.33333000  0.33333000  0.25855000
   0.50032000  0.49968000  0.32461000
   0.66667000  0.33333000  0.25855000
   0.83310000  0.49926000  0.32473000
   0.00000000  0.66667000  0.25855000
   0.16738000  0.83262000  0.32134000
   0.33333000  0.66667000  0.25855000
   0.50123000  0.83418000  0.32431000
   0.66667000  0.66667000  0.25855000
   0.83211000  0.83461000  0.32427000
   0.99328000  0.33162000  0.37977000
   0.32522000  0.67481000  0.38638000
   0.48871000  0.51130000  0.43470000
Direct configuration=     2
   0.00000000  0.00000000  0.00000000
   0.01632318  0.98370835  0.38344995
   0.16667000  0.16667000  0.06464000
   0.33333000  0.00000000  0.00000000
   0.31809628  0.99943745  0.38151231
   0.50000000  0.16667000  0.06464000
   0.66667000  0.00000000  0.00000000
   0.66844929  0.00670379  0.37973772
   0.83333000  0.16667000  0.06464000
   0.00000000  0.33333000  0.00000000
   0.16667000  0.50000000  0.06464000
   0.33333000  0.33333000  0.00000000
   0.34587536  0.33487379  0.38161395
   0.50000000  0.50000000  0.06464000
   0.66667000  0.33333000  0.00000000
   0.83333000  0.50000000  0.06464000
   0.00000000  0.66667000  0.00000000
   0.00055396  0.68187184  0.38150617
   0.16667000  0.83333000  0.06464000
   0.33333000  0.66667000  0.00000000
   0.50000000  0.83333000  0.06464000
   0.66667000  0.66667000  0.00000000
   0.66511657  0.65412117  0.38161455
   0.83333000  0.83333000  0.06464000
   0.00000000  0.00000000  0.12928000
   0.16667000  0.16667000  0.19391000
   0.33333000  0.00000000  0.12928000
   0.50000000  0.16667000  0.19391000
   0.66667000  0.00000000  0.12928000
   0.83333000  0.16667000  0.19391000
   0.00000000  0.33333000  0.12928000
   0.16667000  0.50000000  0.19391000
   0.33333000  0.33333000  0.12928000
   0.50000000  0.50000000  0.19391000
   0.66667000  0.33333000  0.12928000
   0.83333000  0.50000000  0.19391000
   0.00000000  0.66667000  0.12928000
   0.16667000  0.83333000  0.19391000
   0.33333000  0.66667000  0.12928000
   0.50000000  0.83333000  0.19391000
   0.66667000  0.66667000  0.12928000
   0.83333000  0.83333000  0.19391000
   0.00000000  0.00000000  0.25855000
   0.16485809  0.16746565  0.32405364
   0.33333000  0.00000000  0.25855000
   0.50054723  0.16672967  0.32450952
   0.66667000  0.00000000  0.25855000
   0.83321777  0.16678209  0.32443570
   0.00000000  0.33333000  0.25855000
   0.16537723  0.49877620  0.32405130
   0.33333000  0.33333000  0.25855000
   0.50141830  0.49858157  0.32522740
   0.66667000  0.33333000  0.25855000
   0.83327633  0.49945235  0.32451037
   0.00000000  0.66667000  0.25855000
   0.16666715  0.83333305  0.32102141
   0.33333000  0.66667000  0.25855000
   0.50122946  0.83462656  0.32405158
   0.66667000  0.66667000  0.25855000
   0.83253612  0.83514331  0.32405863
   0.99330704  0.33154049  0.37973663
   0.33117118  0.66885550  0.38951164
   0.48309030  0.51692306  0.42798331
Direct configuration=     3
   0.00000000  0.00000000  0.00000000
   0.01623631  0.98379695  0.38363082
   0.16667000  0.16667000  0.06464000
   0.33333000  0.00000000  0.00000000
   0.31763973  0.99973991  0.38115304
   0.50000000  0.16667000  0.06464000
   0.66667000  0.00000000  0.00000000
   0.66853896  0.00667415  0.37970121
   0.83333000  0.16667000  0.06464000
   0.00000000  0.33333000  0.00000000
   0.16667000  0.50000000  0.06464000
   0.33333000  0.33333000  0.00000000
   0.35073280  0.33943543  0.38418547
   0.50000000  0.50000000  0.06464000
   0.66667000  0.33333000  0.00000000
   0.83333000  0.50000000  0.06464000
   0.00000000  0.66667000  0.00000000
   0.00025310  0.68232626  0.38115127
   0.16667000  0.83333000  0.06464000
   0.33333000  0.66667000  0.00000000
   0.50000000  0.83333000  0.06464000
   0.66667000  0.66667000  0.00000000
   0.66055534  0.64925981  0.38418675
   0.83333000  0.83333000  0.06464000
   0.00000000  0.00000000  0.12928000
   0.16667000  0.16667000  0.19391000
   0.33333000  0.00000000  0.12928000
   0.50000000  0.16667000  0.19391000
   0.66667000  0.00000000  0.12928000
   0.83333000  0.16667000  0.19391000
   0.00000000  0.33333000  0.12928000
   0.16667000  0.50000000  0.19391000
   0.33333000  0.33333000  0.12928000
   0.50000000  0.50000000  0.19391000
   0.66667000  0.33333000  0.12928000
   0.83333000  0.50000000  0.19391000
   0.00000000  0.66667000  0.12928000
   0.16667000  0.83333000  0.19391000
   0.33333000  0.66667000  0.12928000
   0.50000000  0.83333000  0.19391000
   0.66667000  0.66667000  0.12928000
   0.83333000  0.83333000  0.19391000
   0.00000000  0.00000000  0.25855000
   0.16425657  0.16698578  0.32382028
   0.33333000  0.00000000  0.25855000
   0.50032923  0.16652574  0.32426020
   0.66667000  0.00000000  0.25855000
   0.83338487  0.16661483  0.32451000
   0.00000000  0.33333000  0.25855000
   0.16487651  0.49877190  0.32375876
   0.33333000  0.33333000  0.25855000
   0.50266033  0.49733941  0.32592559
   0.66667000  0.33333000  0.25855000
   0.83347574  0.49966987  0.32426199
   0.00000000  0.66667000  0.25855000
   0.16586102  0.83413941  0.32066112
   0.33333000  0.66667000  0.25855000
   0.50122885  0.83513155  0.32375934
   0.66667000  0.66667000  0.25855000
   0.83301801  0.83574641  0.32381959
   0.99333762  0.33145058  0.37969890
   0.33790113  0.66212180  0.39305309
   0.47673521  0.52328194  0.42038769
Direct configuration=     4
   0.00000000  0.00000000  0.00000000
   0.01625257  0.98378037  0.38359697
   0.16667000  0.16667000  0.06464000
   0.33333000  0.00000000  0.00000000
   0.31772519  0.99968329  0.38122029
   0.50000000  0.16667000  0.06464000
   0.66667000  0.00000000  0.00000000
   0.66852218  0.00667970  0.37970804
   0.83333000  0.16667000  0.06464000
   0.00000000  0.33333000  0.00000000
   0.16667000  0.50000000  0.06464000
   0.33333000  0.33333000  0.00000000
   0.34982358  0.33858159  0.38370413
   0.50000000  0.50000000  0.06464000
   0.66667000  0.33333000  0.00000000
   0.83333000  0.50000000  0.06464000
   0.00000000  0.66667000  0.00000000
   0.00030941  0.68224120  0.38121770
   0.16667000  0.83333000  0.06464000
   0.33333000  0.66667000  0.00000000
   0.50000000  0.83333000  0.06464000
   0.66667000  0.66667000  0.00000000
   0.66140911  0.65016976  0.38370529
   0.83333000  0.83333000  0.06464000
   0.00000000  0.00000000  0.12928000
   0.16667000  0.16667000  0.19391000
   0.33333000  0.00000000  0.12928000
   0.50000000  0.16667000  0.19391000
   0.66667000  0.00000000  0.12928000
   0.83333000  0.16667000  0.19391000
   0.00000000  0.33333000  0.12928000
   0.16667000  0.50000000  0.19391000
   0.33333000  0.33333000  0.12928000
   0.50000000  0.50000000  0.19391000
   0.66667000  0.33333000  0.12928000
   0.83333000  0.50000000  0.19391000
   0.00000000  0.66667000  0.12928000
   0.16667000  0.83333000  0.19391000
   0.33333000  0.66667000  0.12928000
   0.50000000  0.83333000  0.19391000
   0.66667000  0.66667000  0.12928000
   0.83333000  0.83333000  0.19391000
   0.00000000  0.00000000  0.25855000
   0.16436916  0.16707560  0.32386396
   0.33333000  0.00000000  0.25855000
   0.50037004  0.16656391  0.32430687
   0.66667000  0.00000000  0.25855000
   0.83335359  0.16664614  0.32449609
   0.00000000  0.33333000  0.25855000
   0.16497024  0.49877271  0.32381352
   0.33333000  0.33333000  0.25855000
   0.50242785  0.49757192  0.32579490
   0.66667000  0.33333000  0.25855000
   0.83343842  0.49962916  0.32430848
   0.00000000  0.66667000  0.25855000
   0.16601191  0.83398847  0.32072856
   0.33333000  0.66667000  0.25855000
   0.50122897  0.83503702  0.32381404
   0.66667000  0.66667000  0.25855000
   0.83292781  0.83563352  0.32386433
   0.99333190  0.33146741  0.37970596
   0.33664141  0.66338221  0.39239020
   0.47792476  0.52209168  0.42180944
Direct configuration=     5
   0.00000000  0.00000000  0.00000000
   0.01624852  0.98378449  0.38360538
   0.16667000  0.16667000  0.06464000
   0.33333000  0.00000000  0.00000000
   0.31770394  0.99969737  0.38120357
   0.50000000  0.16667000  0.06464000
   0.66667000  0.00000000  0.00000000
   0.66852635  0.00667832  0.37970635
   0.83333000  0.16667000  0.06464000
   0.00000000  0.33333000  0.00000000
   0.16667000  0.50000000  0.06464000
   0.33333000  0.33333000  0.00000000
   0.35004962  0.33879386  0.38382380
   0.50000000  0.50000000  0.06464000
   0.66667000  0.33333000  0.00000000
   0.83333000  0.50000000  0.06464000
   0.00000000  0.66667000  0.00000000
   0.00029541  0.68226235  0.38120119
   0.16667000  0.83333000  0.06464000
   0.33333000  0.66667000  0.00000000
   0.50000000  0.83333000  0.06464000
   0.66667000  0.66667000  0.00000000
   0.66119686  0.64994353  0.38382499
   0.83333000  0.83333000  0.06464000
   0.00000000  0.00000000  0.12928000
   0.16667000  0.16667000  0.19391000
   0.33333000  0.00000000  0.12928000
   0.50000000  0.16667000  0.19391000
   0.66667000  0.00000000  0.12928000
   0.83333000  0.16667000  0.19391000
   0.00000000  0.33333000  0.12928000
   0.16667000  0.50000000  0.19391000
   0.33333000  0.33333000  0.12928000
   0.50000000  0.50000000  0.19391000
   0.66667000  0.33333000  0.12928000
   0.83333000  0.50000000  0.19391000
   0.00000000  0.66667000  0.12928000
   0.16667000  0.83333000  0.19391000
   0.33333000  0.66667000  0.12928000
   0.50000000  0.83333000  0.19391000
   0.66667000  0.66667000  0.12928000
   0.83333000  0.83333000  0.19391000
   0.00000000  0.00000000  0.25855000
   0.16434117  0.16705327  0.32385310
   0.33333000  0.00000000  0.25855000
   0.50035989  0.16655442  0.32429526
   0.66667000  0.00000000  0.25855000
   0.83336137  0.16663836  0.32449955
   0.00000000  0.33333000  0.25855000
   0.16494694  0.49877251  0.32379990
   0.33333000  0.33333000  0.25855000
   0.50248564  0.49751411  0.32582739
   0.66667000  0.33333000  0.25855000
   0.83344770  0.49963928  0.32429693
   0.00000000  0.66667000  0.25855000
   0.16597439  0.83402600  0.32071180
   0.33333000  0.66667000  0.25855000
   0.50122894  0.83506052  0.32380044
   0.66667000  0.66667000  0.25855000
   0.83295023  0.83566159  0.32385321
   0.99333332  0.33146323  0.37970420
   0.33695460  0.66306886  0.39255500
   0.47762902  0.52238760  0.42145598
Direct configuration=     6
   0.00000000  0.00000000  0.00000000
   0.01667101  0.98336046  0.38316266
   0.16667000  0.16667000  0.06464000
   0.33333000  0.00000000  0.00000000
   0.31774171  0.00027928  0.38101603
   0.50000000  0.16667000  0.06464000
   0.66667000  0.00000000  0.00000000
   0.66822582  0.00610406  0.37929288
   0.83333000  0.16667000  0.06464000
   0.00000000  0.33333000  0.00000000
   0.16667000  0.50000000  0.06464000
   0.33333000  0.33333000  0.00000000
   0.35132138  0.33893239  0.38316443
   0.50000000  0.50000000  0.06464000
   0.66667000  0.33333000  0.00000000
   0.83333000  0.50000000  0.06464000
   0.00000000  0.66667000  0.00000000
  -0.00028727  0.68222872  0.38101232
   0.16667000  0.83333000  0.06464000
   0.33333000  0.66667000  0.00000000
   0.50000000  0.83333000  0.06464000
   0.66667000  0.66667000  0.00000000
   0.66106066  0.64867265  0.38316563
   0.83333000  0.83333000  0.06464000
   0.00000000  0.00000000  0.12928000
   0.16667000  0.16667000  0.19391000
   0.33333000  0.00000000  0.12928000
   0.50000000  0.16667000  0.19391000
   0.66667000  0.00000000  0.12928000
   0.83333000  0.16667000  0.19391000
   0.00000000  0.33333000  0.12928000
   0.16667000  0.50000000  0.19391000
   0.33333000  0.33333000  0.12928000
   0.50000000  0.50000000  0.19391000
   0.66667000  0.33333000  0.12928000
   0.83333000  0.50000000  0.19391000
   0.00000000  0.66667000  0.12928000
   0.16667000  0.83333000  0.19391000
   0.33333000  0.66667000  0.12928000
   0.50000000  0.83333000  0.19391000
   0.66667000  0.66667000  0.12928000
   0.83333000  0.83333000  0.19391000
   0.00000000  0.00000000  0.25855000
   0.16506732  0.16829078  0.32449560
   0.33333000  0.00000000  0.25855000
   0.50000577  0.16784556  0.32504769
   0.66667000  0.00000000  0.25855000
   0.83285345  0.16714550  0.32464298
   0.00000000  0.33333000  0.25855000
   0.16704507  0.49882375  0.32499635
   0.33333000  0.33333000  0.25855000
   0.50318089  0.49681773  0.32529441
   0.66667000  0.33333000  0.25855000
   0.83215614  0.49999509  0.32504912
   0.00000000  0.66667000  0.25855000
   0.16760162  0.83239494  0.32168036
   0.33333000  0.66667000  0.25855000
   0.50117961  0.83296078  0.32499666
   0.66667000  0.66667000  0.25855000
   0.83171453  0.83493331  0.32449720
   0.99390481  0.33176471  0.37929254
   0.33541630  0.66460336  0.39202170
   0.47644345  0.52357872  0.41745517
Direct configuration=     7
   0.00000000  0.00000000  0.00000000
   0.01690710  0.98312352  0.38291527
   0.16667000  0.16667000  0.06464000
   0.33333000  0.00000000  0.00000000
   0.31776281  0.00060445  0.38091124
   0.50000000  0.16667000  0.06464000
   0.66667000  0.00000000  0.00000000
   0.66805789  0.00578317  0.37906184
   0.83333000  0.16667000  0.06464000
   0.00000000  0.33333000  0.00000000
   0.16667000  0.50000000  0.06464000
   0.33333000  0.33333000  0.00000000
   0.35203202  0.33900979  0.38279598
   0.50000000  0.50000000  0.06464000
   0.66667000  0.33333000  0.00000000
   0.83333000  0.50000000  0.06464000
   0.00000000  0.66667000  0.00000000
  -0.00061287  0.68220993  0.38090679
   0.16667000  0.83333000  0.06464000
   0.33333000  0.66667000  0.00000000
   0.50000000  0.83333000  0.06464000
   0.66667000  0.66667000  0.00000000
   0.66098455  0.64796249  0.38279718
   0.83333000  0.83333000  0.06464000
   0.00000000  0.00000000  0.12928000
   0.16667000  0.16667000  0.19391000
   0.33333000  0.00000000  0.12928000
   0.50000000  0.16667000  0.19391000
   0.66667000  0.00000000  0.12928000
   0.83333000  0.16667000  0.19391000
   0.00000000  0.33333000  0.12928000
   0.16667000  0.50000000  0.19391000
   0.33333000  0.33333000  0.12928000
   0.50000000  0.50000000  0.19391000
   0.66667000  0.33333000  0.12928000
   0.83333000  0.50000000  0.19391000
   0.00000000  0.66667000  0.12928000
   0.16667000  0.83333000  0.19391000
   0.33333000  0.66667000  0.12928000
   0.50000000  0.83333000  0.19391000
   0.66667000  0.66667000  0.12928000
   0.83333000  0.83333000  0.19391000
   0.00000000  0.00000000  0.25855000
   0.16547309  0.16898229  0.32485463
   0.33333000  0.00000000  0.25855000
   0.49980788  0.16856703  0.32546814
   0.66667000  0.00000000  0.25855000
   0.83256963  0.16742889  0.32472313
   0.00000000  0.33333000  0.25855000
   0.16821749  0.49885239  0.32566491
   0.33333000  0.33333000  0.25855000
   0.50356939  0.49642859  0.32499659
   0.66667000  0.33333000  0.25855000
   0.83143443  0.50019391  0.32546944
   0.00000000  0.66667000  0.25855000
   0.16851089  0.83148353  0.32222159
   0.33333000  0.66667000  0.25855000
   0.50115204  0.83178747  0.32566510
   0.66667000  0.66667000  0.25855000
   0.83102404  0.83452635  0.32485706
   0.99422414  0.33193317  0.37906250
   0.33455672  0.66546082  0.39172369
   0.47578097  0.52424431  0.41521955
Direct configuration=     8
   0.00000000  0.00000000  0.00000000
   0.01716070  0.98286761  0.38256224
   0.16667000  0.16667000  0.06464000
   0.33333000  0.00000000  0.00000000
   0.31846615  0.00170128  0.38128256
   0.50000000  0.16667000  0.06464000
   0.66667000  0.00000000  0.00000000
   0.66785243  0.00560550  0.37937881
   0.83333000  0.16667000  0.06464000
   0.00000000  0.33333000  0.00000000
   0.16667000  0.50000000  0.06464000
   0.33333000  0.33333000  0.00000000
   0.35173527  0.33751655  0.38231994
   0.50000000  0.50000000  0.06464000
   0.66667000  0.33333000  0.00000000
   0.83333000  0.50000000  0.06464000
   0.00000000  0.66667000  0.00000000
  -0.00171069  0.68151037  0.38127865
   0.16667000  0.83333000  0.06464000
   0.33333000  0.66667000  0.00000000
   0.50000000  0.83333000  0.06464000
   0.66667000  0.66667000  0.00000000
   0.66248119  0.64826261  0.38232069
   0.83333000  0.83333000  0.06464000
   0.00000000  0.00000000  0.12928000
   0.16667000  0.16667000  0.19391000
   0.33333000  0.00000000  0.12928000
   0.50000000  0.16667000  0.19391000
   0.66667000  0.00000000  0.12928000
   0.83333000  0.16667000  0.19391000
   0.00000000  0.33333000  0.12928000
   0.16667000  0.50000000  0.19391000
   0.33333000  0.33333000  0.12928000
   0.50000000  0.50000000  0.19391000
   0.66667000  0.33333000  0.12928000
   0.83333000  0.50000000  0.19391000
   0.00000000  0.66667000  0.12928000
   0.16667000  0.83333000  0.19391000
   0.33333000  0.66667000  0.12928000
   0.50000000  0.83333000  0.19391000
   0.66667000  0.66667000  0.12928000
   0.83333000  0.83333000  0.19391000
   0.00000000  0.00000000  0.25855000
   0.16554651  0.16951717  0.32476990
   0.33333000  0.00000000  0.25855000
   0.50009023  0.16852920  0.32542335
   0.66667000  0.00000000  0.25855000
   0.83254742  0.16745202  0.32449583
   0.00000000  0.33333000  0.25855000
   0.16893932  0.49861184  0.32588318
   0.33333000  0.33333000  0.25855000
   0.50366184  0.49633549  0.32280417
   0.66667000  0.33333000  0.25855000
   0.83147264  0.49991050  0.32542448
   0.00000000  0.66667000  0.25855000
   0.16877845  0.83121692  0.32213227
   0.33333000  0.66667000  0.25855000
   0.50139245  0.83106358  0.32588308
   0.66667000  0.66667000  0.25855000
   0.83048899  0.83445299  0.32477276
   0.99439843  0.33214007  0.37937968
   0.32919800  0.67081671  0.39056005
   0.47814913  0.52187493  0.41281875
Direct configuration=     9
   0.00000000  0.00000000  0.00000000
   0.01716532  0.98286295  0.38255582
   0.16667000  0.16667000  0.06464000
   0.33333000  0.00000000  0.00000000
   0.31847894  0.00172124  0.38128931
   0.50000000  0.16667000  0.06464000
   0.66667000  0.00000000  0.00000000
   0.66784870  0.00560227  0.37938458
   0.83333000  0.16667000  0.06464000
   0.00000000  0.33333000  0.00000000
   0.16667000  0.50000000  0.06464000
   0.33333000  0.33333000  0.00000000
   0.35172987  0.33748938  0.38231128
   0.50000000  0.50000000  0.06464000
   0.66667000  0.33333000  0.00000000
   0.83333000  0.50000000  0.06464000
   0.00000000  0.66667000  0.00000000
  -0.00173067  0.68149764  0.38128542
   0.16667000  0.83333000  0.06464000
   0.33333000  0.66667000  0.00000000
   0.50000000  0.83333000  0.06464000
   0.66667000  0.66667000  0.00000000
   0.66250842  0.64826807  0.38231202
   0.83333000  0.83333000  0.06464000
   0.00000000  0.00000000  0.12928000
   0.16667000  0.16667000  0.19391000
   0.33333000  0.00000000  0.12928000
   0.50000000  0.16667000  0.19391000
   0.66667000  0.00000000  0.12928000
   0.83333000  0.16667000  0.19391000
   0.00000000  0.33333000  0.12928000
   0.16667000  0.50000000  0.19391000
   0.33333000  0.33333000  0.12928000
   0.50000000  0.50000000  0.19391000
   0.66667000  0.33333000  0.12928000
   0.83333000  0.50000000  0.19391000
   0.00000000  0.66667000  0.12928000
   0.16667000  0.83333000  0.19391000
   0.33333000  0.66667000  0.12928000
   0.50000000  0.83333000  0.19391000
   0.66667000  0.66667000  0.12928000
   0.83333000  0.83333000  0.19391000
   0.00000000  0.00000000  0.25855000
   0.16554785  0.16952690  0.32476835
   0.33333000  0.00000000  0.25855000
   0.50009537  0.16852851  0.32542254
   0.66667000  0.00000000  0.25855000
   0.83254701  0.16745244  0.32449169
   0.00000000  0.33333000  0.25855000
   0.16895245  0.49860747  0.32588715
   0.33333000  0.33333000  0.25855000
   0.50366352  0.49633379  0.32276428
   0.66667000  0.33333000  0.25855000
   0.83147333  0.49990534  0.32542366
   0.00000000  0.66667000  0.25855000
   0.16878331  0.83121207  0.32213064
   0.33333000  0.66667000  0.25855000
   0.50139682  0.83105041  0.32588705
   0.66667000  0.66667000  0.25855000
   0.83047926  0.83445165  0.32477123
   0.99440160  0.33214384  0.37938545
   0.32910050  0.67091415  0.39053888
   0.47819222  0.52183182  0.41277507
Direct configuration=    10
   0.00000000  0.00000000  0.00000000
   0.01729060  0.98273570  0.38261122
   0.16667000  0.16667000  0.06464000
   0.33333000  0.00000000  0.00000000
   0.31885097  0.00275048  0.38154609
   0.50000000  0.16667000  0.06464000
   0.66667000  0.00000000  0.00000000
   0.66789710  0.00577285  0.37977224
   0.83333000  0.16667000  0.06464000
   0.00000000  0.33333000  0.00000000
   0.16667000  0.50000000  0.06464000
   0.33333000  0.33333000  0.00000000
   0.35183196  0.33764373  0.38205041
   0.50000000  0.50000000  0.06464000
   0.66667000  0.33333000  0.00000000
   0.83333000  0.50000000  0.06464000
   0.00000000  0.66667000  0.00000000
  -0.00275956  0.68112731  0.38154376
   0.16667000  0.83333000  0.06464000
   0.33333000  0.66667000  0.00000000
   0.50000000  0.83333000  0.06464000
   0.66667000  0.66667000  0.00000000
   0.66235509  0.64816842  0.38205072
   0.83333000  0.83333000  0.06464000
   0.00000000  0.00000000  0.12928000
   0.16667000  0.16667000  0.19391000
   0.33333000  0.00000000  0.12928000
   0.50000000  0.16667000  0.19391000
   0.66667000  0.00000000  0.12928000
   0.83333000  0.16667000  0.19391000
   0.00000000  0.33333000  0.12928000
   0.16667000  0.50000000  0.19391000
   0.33333000  0.33333000  0.12928000
   0.50000000  0.50000000  0.19391000
   0.66667000  0.33333000  0.12928000
   0.83333000  0.50000000  0.19391000
   0.00000000  0.66667000  0.12928000
   0.16667000  0.83333000  0.19391000
   0.33333000  0.66667000  0.12928000
   0.50000000  0.83333000  0.19391000
   0.66667000  0.66667000  0.12928000
   0.83333000  0.83333000  0.19391000
   0.00000000  0.00000000  0.25855000
   0.16520712  0.16891550  0.32439657
   0.33333000  0.00000000  0.25855000
   0.50060074  0.16741934  0.32495063
   0.66667000  0.00000000  0.25855000
   0.83296754  0.16703266  0.32441292
   0.00000000  0.33333000  0.25855000
   0.16788251  0.49836555  0.32531540
   0.33333000  0.33333000  0.25855000
   0.50264892  0.49734983  0.32211023
   0.66667000  0.33333000  0.25855000
   0.83258237  0.49939855  0.32495150
   0.00000000  0.66667000  0.25855000
   0.16761725  0.83238083  0.32147033
   0.33333000  0.66667000  0.25855000
   0.50163739  0.83211947  0.32531509
   0.66667000  0.66667000  0.25855000
   0.83108954  0.83479373  0.32439848
   0.99422933  0.33209593  0.37977251
   0.32865396  0.67135988  0.39026287
   0.47830776  0.52171416  0.41090857
Direct configuration=    11
   0.00000000  0.00000000  0.00000000
   0.01733040  0.98269527  0.38262882
   0.16667000  0.16667000  0.06464000
   0.33333000  0.00000000  0.00000000
   0.31896916  0.00307745  0.38162767
   0.50000000  0.16667000  0.06464000
   0.66667000  0.00000000  0.00000000
   0.66791247  0.00582704  0.37989539
   0.83333000  0.16667000  0.06464000
   0.00000000  0.33333000  0.00000000
   0.16667000  0.50000000  0.06464000
   0.33333000  0.33333000  0.00000000
   0.35186439  0.33769277  0.38196754
   0.50000000  0.50000000  0.06464000
   0.66667000  0.33333000  0.00000000
   0.83333000  0.50000000  0.06464000
   0.00000000  0.66667000  0.00000000
  -0.00308641  0.68100966  0.38162582
   0.16667000  0.83333000  0.06464000
   0.33333000  0.66667000  0.00000000
   0.50000000  0.83333000  0.06464000
   0.66667000  0.66667000  0.00000000
   0.66230638  0.64813676  0.38196771
   0.83333000  0.83333000  0.06464000
   0.00000000  0.00000000  0.12928000
   0.16667000  0.16667000  0.19391000
   0.33333000  0.00000000  0.12928000
   0.50000000  0.16667000  0.19391000
   0.66667000  0.00000000  0.12928000
   0.83333000  0.16667000  0.19391000
   0.00000000  0.33333000  0.12928000
   0.16667000  0.50000000  0.19391000
   0.33333000  0.33333000  0.12928000
   0.50000000  0.50000000  0.19391000
   0.66667000  0.33333000  0.12928000
   0.83333000  0.50000000  0.19391000
   0.00000000  0.66667000  0.12928000
   0.16667000  0.83333000  0.19391000
   0.33333000  0.66667000  0.12928000
   0.50000000  0.83333000  0.19391000
   0.66667000  0.66667000  0.12928000
   0.83333000  0.83333000  0.19391000
   0.00000000  0.00000000  0.25855000
   0.16509888  0.16872128  0.32427846
   0.33333000  0.00000000  0.25855000
   0.50076129  0.16706698  0.32480071
   0.66667000  0.00000000  0.25855000
   0.83310113  0.16689930  0.32438789
   0.00000000  0.33333000  0.25855000
   0.16754262  0.49828869  0.32513377
   0.33333000  0.33333000  0.25855000
   0.50232660  0.49767261  0.32190245
   0.66667000  0.33333000  0.25855000
   0.83293468  0.49923756  0.32480150
   0.00000000  0.66667000  0.25855000
   0.16724682  0.83275212  0.32126056
   0.33333000  0.66667000  0.25855000
   0.50171381  0.83245909  0.32513339
   0.66667000  0.66667000  0.25855000
   0.83128341  0.83490240  0.32428006
   0.99417461  0.33208071  0.37989547
   0.32851210  0.67150148  0.39017519
   0.47834446  0.52167678  0.41031562
Direct configuration=    12
   0.00000000  0.00000000  0.00000000
   0.01759280  0.98243027  0.38285864
   0.16667000  0.16667000  0.06464000
   0.33333000  0.00000000  0.00000000
   0.31879434  0.00386541  0.38136491
   0.50000000  0.16667000  0.06464000
   0.66667000  0.00000000  0.00000000
   0.66804019  0.00575075  0.37970313
   0.83333000  0.16667000  0.06464000
   0.00000000  0.33333000  0.00000000
   0.16667000  0.50000000  0.06464000
   0.33333000  0.33333000  0.00000000
   0.35148368  0.33769773  0.38141936
   0.50000000  0.50000000  0.06464000
   0.66667000  0.33333000  0.00000000
   0.83333000  0.50000000  0.06464000
   0.00000000  0.66667000  0.00000000
  -0.00387331  0.68118684  0.38136313
   0.16667000  0.83333000  0.06464000
   0.33333000  0.66667000  0.00000000
   0.50000000  0.83333000  0.06464000
   0.66667000  0.66667000  0.00000000
   0.66230259  0.64851923  0.38141933
   0.83333000  0.83333000  0.06464000
   0.00000000  0.00000000  0.12928000
   0.16667000  0.16667000  0.19391000
   0.33333000  0.00000000  0.12928000
   0.50000000  0.16667000  0.19391000
   0.66667000  0.00000000  0.12928000
   0.83333000  0.16667000  0.19391000
   0.00000000  0.33333000  0.12928000
   0.16667000  0.50000000  0.19391000
   0.33333000  0.33333000  0.12928000
   0.50000000  0.50000000  0.19391000
   0.66667000  0.33333000  0.12928000
   0.83333000  0.50000000  0.19391000
   0.00000000  0.66667000  0.12928000
   0.16667000  0.83333000  0.19391000
   0.33333000  0.66667000  0.12928000
   0.50000000  0.83333000  0.19391000
   0.66667000  0.66667000  0.12928000
   0.83333000  0.83333000  0.19391000
   0.00000000  0.00000000  0.25855000
   0.16513666  0.16836300  0.32437422
   0.33333000  0.00000000  0.25855000
   0.50100855  0.16701977  0.32477600
   0.66667000  0.00000000  0.25855000
   0.83322718  0.16677274  0.32465475
   0.00000000  0.33333000  0.25855000
   0.16681166  0.49850952  0.32502204
   0.33333000  0.33333000  0.25855000
   0.50185037  0.49814947  0.32173617
   0.66667000  0.33333000  0.25855000
   0.83298200  0.49899132  0.32477659
   0.00000000  0.66667000  0.25855000
   0.16707624  0.83292230  0.32142754
   0.33333000  0.66667000  0.25855000
   0.50149317  0.83319023  0.32502144
   0.66667000  0.66667000  0.25855000
   0.83164166  0.83486448  0.32437551
   0.99425010  0.33195350  0.37970332
   0.32883354  0.67117891  0.38970533
   0.47798534  0.52203063  0.40956119
Direct configuration=    13
   0.00000000  0.00000000  0.00000000
   0.01768690  0.98233523  0.38294105
   0.16667000  0.16667000  0.06464000
   0.33333000  0.00000000  0.00000000
   0.31873164  0.00414799  0.38127068
   0.50000000  0.16667000  0.06464000
   0.66667000  0.00000000  0.00000000
   0.66808600  0.00572339  0.37963418
   0.83333000  0.16667000  0.06464000
   0.00000000  0.33333000  0.00000000
   0.16667000  0.50000000  0.06464000
   0.33333000  0.33333000  0.00000000
   0.35134714  0.33769951  0.38122277
   0.50000000  0.50000000  0.06464000
   0.66667000  0.33333000  0.00000000
   0.83333000  0.50000000  0.06464000
   0.00000000  0.66667000  0.00000000
  -0.00415552  0.68125039  0.38126892
   0.16667000  0.83333000  0.06464000
   0.33333000  0.66667000  0.00000000
   0.50000000  0.83333000  0.06464000
   0.66667000  0.66667000  0.00000000
   0.66230123  0.64865639  0.38122267
   0.83333000  0.83333000  0.06464000
   0.00000000  0.00000000  0.12928000
   0.16667000  0.16667000  0.19391000
   0.33333000  0.00000000  0.12928000
   0.50000000  0.16667000  0.19391000
   0.66667000  0.00000000  0.12928000
   0.83333000  0.16667000  0.19391000
   0.00000000  0.33333000  0.12928000
   0.16667000  0.50000000  0.19391000
   0.33333000  0.33333000  0.12928000
   0.50000000  0.50000000  0.19391000
   0.66667000  0.33333000  0.12928000
   0.83333000  0.50000000  0.19391000
   0.00000000  0.66667000  0.12928000
   0.16667000  0.83333000  0.19391000
   0.33333000  0.66667000  0.12928000
   0.50000000  0.83333000  0.19391000
   0.66667000  0.66667000  0.12928000
   0.83333000  0.83333000  0.19391000
   0.00000000  0.00000000  0.25855000
   0.16515021  0.16823451  0.32440856
   0.33333000  0.00000000  0.25855000
   0.50109723  0.16700284  0.32476715
   0.66667000  0.00000000  0.25855000
   0.83327238  0.16672735  0.32475046
   0.00000000  0.33333000  0.25855000
   0.16654952  0.49858872  0.32498197
   0.33333000  0.33333000  0.25855000
   0.50167958  0.49832049  0.32167653
   0.66667000  0.33333000  0.25855000
   0.83299897  0.49890301  0.32476765
   0.00000000  0.66667000  0.25855000
   0.16701506  0.83298333  0.32148743
   0.33333000  0.66667000  0.25855000
   0.50141404  0.83345244  0.32498130
   0.66667000  0.66667000  0.25855000
   0.83177014  0.83485088  0.32440974
   0.99427718  0.33190787  0.37963441
   0.32894882  0.67106323  0.38953682
   0.47785654  0.52215753  0.40929062
Direct configuration=    14
   0.00000000  0.00000000  0.00000000
   0.01786651  0.98215231  0.38322383
   0.16667000  0.16667000  0.06464000
   0.33333000  0.00000000  0.00000000
   0.31869754  0.00493535  0.38117321
   0.50000000  0.16667000  0.06464000
   0.66667000  0.00000000  0.00000000
   0.66818675  0.00557724  0.37962696
   0.83333000  0.16667000  0.06464000
   0.00000000  0.33333000  0.00000000
   0.16667000  0.50000000  0.06464000
   0.33333000  0.33333000  0.00000000
   0.35061463  0.33735638  0.38098220
   0.50000000  0.50000000  0.06464000
   0.66667000  0.33333000  0.00000000
   0.83333000  0.50000000  0.06464000
   0.00000000  0.66667000  0.00000000
  -0.00494144  0.68128793  0.38117146
   0.16667000  0.83333000  0.06464000
   0.33333000  0.66667000  0.00000000
   0.50000000  0.83333000  0.06464000
   0.66667000  0.66667000  0.00000000
   0.66264498  0.64938940  0.38098185
   0.83333000  0.83333000  0.06464000
   0.00000000  0.00000000  0.12928000
   0.16667000  0.16667000  0.19391000
   0.33333000  0.00000000  0.12928000
   0.50000000  0.16667000  0.19391000
   0.66667000  0.00000000  0.12928000
   0.83333000  0.16667000  0.19391000
   0.00000000  0.33333000  0.12928000
   0.16667000  0.50000000  0.19391000
   0.33333000  0.33333000  0.12928000
   0.50000000  0.50000000  0.19391000
   0.66667000  0.33333000  0.12928000
   0.83333000  0.50000000  0.19391000
   0.00000000  0.66667000  0.12928000
   0.16667000  0.83333000  0.19391000
   0.33333000  0.66667000  0.12928000
   0.50000000  0.83333000  0.19391000
   0.66667000  0.66667000  0.12928000
   0.83333000  0.83333000  0.19391000
   0.00000000  0.00000000  0.25855000
   0.16507234  0.16844769  0.32434037
   0.33333000  0.00000000  0.25855000
   0.50118002  0.16756129  0.32469102
   0.66667000  0.00000000  0.25855000
   0.83330796  0.16669157  0.32473026
   0.00000000  0.33333000  0.25855000
   0.16641521  0.49879308  0.32484728
   0.33333000  0.33333000  0.25855000
   0.50172146  0.49827915  0.32113434
   0.66667000  0.33333000  0.25855000
   0.83244005  0.49882080  0.32469144
   0.00000000  0.66667000  0.25855000
   0.16728424  0.83271390  0.32156528
   0.33333000  0.66667000  0.25855000
   0.50120934  0.83358697  0.32484652
   0.66667000  0.66667000  0.25855000
   0.83155692  0.83492842  0.32434159
   0.99442290  0.33180813  0.37962715
   0.32887986  0.67113010  0.38912887
   0.47780533  0.52220398  0.40921977
Direct configuration=    15
   0.00000000  0.00000000  0.00000000
   0.01785787  0.98216111  0.38321024
   0.16667000  0.16667000  0.06464000
   0.33333000  0.00000000  0.00000000
   0.31869918  0.00489751  0.38117790
   0.50000000  0.16667000  0.06464000
   0.66667000  0.00000000  0.00000000
   0.66818191  0.00558427  0.37962731
   0.83333000  0.16667000  0.06464000
   0.00000000  0.33333000  0.00000000
   0.16667000  0.50000000  0.06464000
   0.33333000  0.33333000  0.00000000
   0.35064984  0.33737287  0.38099376
   0.50000000  0.50000000  0.06464000
   0.66667000  0.33333000  0.00000000
   0.83333000  0.50000000  0.06464000
   0.00000000  0.66667000  0.00000000
  -0.00490367  0.68128612  0.38117615
   0.16667000  0.83333000  0.06464000
   0.33333000  0.66667000  0.00000000
   0.50000000  0.83333000  0.06464000
   0.66667000  0.66667000  0.00000000
   0.66262846  0.64935417  0.38099342
   0.83333000  0.83333000  0.06464000
   0.00000000  0.00000000  0.12928000
   0.16667000  0.16667000  0.19391000
   0.33333000  0.00000000  0.12928000
   0.50000000  0.16667000  0.19391000
   0.66667000  0.00000000  0.12928000
   0.83333000  0.16667000  0.19391000
   0.00000000  0.33333000  0.12928000
   0.16667000  0.50000000  0.19391000
   0.33333000  0.33333000  0.12928000
   0.50000000  0.50000000  0.19391000
   0.66667000  0.33333000  0.12928000
   0.83333000  0.50000000  0.19391000
   0.00000000  0.66667000  0.12928000
   0.16667000  0.83333000  0.19391000
   0.33333000  0.66667000  0.12928000
   0.50000000  0.83333000  0.19391000
   0.66667000  0.66667000  0.12928000
   0.83333000  0.83333000  0.19391000
   0.00000000  0.00000000  0.25855000
   0.16507608  0.16843745  0.32434364
   0.33333000  0.00000000  0.25855000
   0.50117604  0.16753445  0.32469468
   0.66667000  0.00000000  0.25855000
   0.83330625  0.16669329  0.32473123
   0.00000000  0.33333000  0.25855000
   0.16642167  0.49878326  0.32485375
   0.33333000  0.33333000  0.25855000
   0.50171945  0.49828114  0.32116040
   0.66667000  0.33333000  0.25855000
   0.83246691  0.49882475  0.32469511
   0.00000000  0.66667000  0.25855000
   0.16727131  0.83272685  0.32156154
   0.33333000  0.66667000  0.25855000
   0.50121918  0.83358051  0.32485300
   0.66667000  0.66667000  0.25855000
   0.83156717  0.83492469  0.32434487
   0.99441590  0.33181292  0.37962750
   0.32888317  0.67112688  0.38914848
   0.47780779  0.52220175  0.40922318
Direct configuration=    16
   0.00000000  0.00000000  0.00000000
   0.01809007  0.98192683  0.38328328
   0.16667000  0.16667000  0.06464000
   0.33333000  0.00000000  0.00000000
   0.31868637  0.00550670  0.38121501
   0.50000000  0.16667000  0.06464000
   0.66667000  0.00000000  0.00000000
   0.66821352  0.00550956  0.37967974
   0.83333000  0.16667000  0.06464000
   0.00000000  0.33333000  0.00000000
   0.16667000  0.50000000  0.06464000
   0.33333000  0.33333000  0.00000000
   0.35035997  0.33736905  0.38098499
   0.50000000  0.50000000  0.06464000
   0.66667000  0.33333000  0.00000000
   0.83333000  0.50000000  0.06464000
   0.00000000  0.66667000  0.00000000
  -0.00551129  0.68130119  0.38121364
   0.16667000  0.83333000  0.06464000
   0.33333000  0.66667000  0.00000000
   0.50000000  0.83333000  0.06464000
   0.66667000  0.66667000  0.00000000
   0.66263227  0.64964324  0.38098472
   0.83333000  0.83333000  0.06464000
   0.00000000  0.00000000  0.12928000
   0.16667000  0.16667000  0.19391000
   0.33333000  0.00000000  0.12928000
   0.50000000  0.16667000  0.19391000
   0.66667000  0.00000000  0.12928000
   0.83333000  0.16667000  0.19391000
   0.00000000  0.33333000  0.12928000
   0.16667000  0.50000000  0.19391000
   0.33333000  0.33333000  0.12928000
   0.50000000  0.50000000  0.19391000
   0.66667000  0.33333000  0.12928000
   0.83333000  0.50000000  0.19391000
   0.00000000  0.66667000  0.12928000
   0.16667000  0.83333000  0.19391000
   0.33333000  0.66667000  0.12928000
   0.50000000  0.83333000  0.19391000
   0.66667000  0.66667000  0.12928000
   0.83333000  0.83333000  0.19391000
   0.00000000  0.00000000  0.25855000
   0.16490442  0.16862547  0.32425407
   0.33333000  0.00000000  0.25855000
   0.50110491  0.16776497  0.32462325
   0.66667000  0.00000000  0.25855000
   0.83336212  0.16663761  0.32461747
   0.00000000  0.33333000  0.25855000
   0.16643081  0.49881294  0.32474142
   0.33333000  0.33333000  0.25855000
   0.50176106  0.49823963  0.32123542
   0.66667000  0.33333000  0.25855000
   0.83223664  0.49889550  0.32462356
   0.00000000  0.66667000  0.25855000
   0.16715039  0.83284841  0.32150908
   0.33333000  0.66667000  0.25855000
   0.50118870  0.83357124  0.32474079
   0.66667000  0.66667000  0.25855000
   0.83137770  0.83509685  0.32425520
   0.99449070  0.33178198  0.37967986
   0.32905329  0.67095543  0.38904731
   0.47771885  0.52228812  0.40910767
Direct configuration=    17
   0.00000000  0.00000000  0.00000000
   0.01816181  0.98185445  0.38330585
   0.16667000  0.16667000  0.06464000
   0.33333000  0.00000000  0.00000000
   0.31868241  0.00569491  0.38122648
   0.50000000  0.16667000  0.06464000
   0.66667000  0.00000000  0.00000000
   0.66822329  0.00548648  0.37969593
   0.83333000  0.16667000  0.06464000
   0.00000000  0.33333000  0.00000000
   0.16667000  0.50000000  0.06464000
   0.33333000  0.33333000  0.00000000
   0.35027042  0.33736787  0.38098228
   0.50000000  0.50000000  0.06464000
   0.66667000  0.33333000  0.00000000
   0.83333000  0.50000000  0.06464000
   0.00000000  0.66667000  0.00000000
  -0.00569901  0.68130585  0.38122522
   0.16667000  0.83333000  0.06464000
   0.33333000  0.66667000  0.00000000
   0.50000000  0.83333000  0.06464000
   0.66667000  0.66667000  0.00000000
   0.66263345  0.64973255  0.38098203
   0.83333000  0.83333000  0.06464000
   0.00000000  0.00000000  0.12928000
   0.16667000  0.16667000  0.19391000
   0.33333000  0.00000000  0.12928000
   0.50000000  0.16667000  0.19391000
   0.66667000  0.00000000  0.12928000
   0.83333000  0.16667000  0.19391000
   0.00000000  0.33333000  0.12928000
   0.16667000  0.50000000  0.19391000
   0.33333000  0.33333000  0.12928000
   0.50000000  0.50000000  0.19391000
   0.66667000  0.33333000  0.12928000
   0.83333000  0.50000000  0.19391000
   0.00000000  0.66667000  0.12928000
   0.16667000  0.83333000  0.19391000
   0.33333000  0.66667000  0.12928000
   0.50000000  0.83333000  0.19391000
   0.66667000  0.66667000  0.12928000
   0.83333000  0.83333000  0.19391000
   0.00000000  0.00000000  0.25855000
   0.16485139  0.16868356  0.32422640
   0.33333000  0.00000000  0.25855000
   0.50108293  0.16783619  0.32460118
   0.66667000  0.00000000  0.25855000
   0.83337939  0.16662041  0.32458233
   0.00000000  0.33333000  0.25855000
   0.16643363  0.49882211  0.32470672
   0.33333000  0.33333000  0.25855000
   0.50177392  0.49822681  0.32125859
   0.66667000  0.33333000  0.25855000
   0.83216550  0.49891736  0.32460145
   0.00000000  0.66667000  0.25855000
   0.16711303  0.83288597  0.32149287
   0.33333000  0.66667000  0.25855000
   0.50117929  0.83356838  0.32470613
   0.66667000  0.66667000  0.25855000
   0.83131917  0.83515004  0.32422749
   0.99451382  0.33177242  0.37969604
   0.32910584  0.67090246  0.38901606
   0.47769137  0.52231481  0.40907199
Direct configuration=    18
   0.00000000  0.00000000  0.00000000
   0.01849319  0.98152053  0.38330397
   0.16667000  0.16667000  0.06464000
   0.33333000  0.00000000  0.00000000
   0.31853210  0.00640724  0.38120624
   0.50000000  0.16667000  0.06464000
   0.66667000  0.00000000  0.00000000
   0.66822477  0.00543812  0.37962630
   0.83333000  0.16667000  0.06464000
   0.00000000  0.33333000  0.00000000
   0.16667000  0.50000000  0.06464000
   0.33333000  0.33333000  0.00000000
   0.35005085  0.33733033  0.38101957
   0.50000000  0.50000000  0.06464000
   0.66667000  0.33333000  0.00000000
   0.83333000  0.50000000  0.06464000
   0.00000000  0.66667000  0.00000000
  -0.00640973  0.68145862  0.38120521
   0.16667000  0.83333000  0.06464000
   0.33333000  0.66667000  0.00000000
   0.50000000  0.83333000  0.06464000
   0.66667000  0.66667000  0.00000000
   0.66267075  0.64995086  0.38101930
   0.83333000  0.83333000  0.06464000
   0.00000000  0.00000000  0.12928000
   0.16667000  0.16667000  0.19391000
   0.33333000  0.00000000  0.12928000
   0.50000000  0.16667000  0.19391000
   0.66667000  0.00000000  0.12928000
   0.83333000  0.16667000  0.19391000
   0.00000000  0.33333000  0.12928000
   0.16667000  0.50000000  0.19391000
   0.33333000  0.33333000  0.12928000
   0.50000000  0.50000000  0.19391000
   0.66667000  0.33333000  0.12928000
   0.83333000  0.50000000  0.19391000
   0.00000000  0.66667000  0.12928000
   0.16667000  0.83333000  0.19391000
   0.33333000  0.66667000  0.12928000
   0.50000000  0.83333000  0.19391000
   0.66667000  0.66667000  0.12928000
   0.83333000  0.83333000  0.19391000
   0.00000000  0.00000000  0.25855000
   0.16473732  0.16871532  0.32423687
   0.33333000  0.00000000  0.25855000
   0.50100129  0.16776401  0.32460780
   0.66667000  0.00000000  0.25855000
   0.83337729  0.16662280  0.32457027
   0.00000000  0.33333000  0.25855000
   0.16634833  0.49889794  0.32470689
   0.33333000  0.33333000  0.25855000
   0.50173393  0.49826686  0.32133724
   0.66667000  0.33333000  0.25855000
   0.83223782  0.49899887  0.32460806
   0.00000000  0.66667000  0.25855000
   0.16696672  0.83303247  0.32148558
   0.33333000  0.66667000  0.25855000
   0.50110296  0.83365328  0.32470651
   0.66667000  0.66667000  0.25855000
   0.83128690  0.83526351  0.32423790
   0.99456242  0.33177171  0.37962637
   0.32906812  0.67093755  0.38894691
   0.47767435  0.52232973  0.40904829
Direct configuration=    19
   0.00000000  0.00000000  0.00000000
   0.01867659  0.98133573  0.38330293
   0.16667000  0.16667000  0.06464000
   0.33333000  0.00000000  0.00000000
   0.31844891  0.00680146  0.38119504
   0.50000000  0.16667000  0.06464000
   0.66667000  0.00000000  0.00000000
   0.66822558  0.00541135  0.37958776
   0.83333000  0.16667000  0.06464000
   0.00000000  0.33333000  0.00000000
   0.16667000  0.50000000  0.06464000
   0.33333000  0.33333000  0.00000000
   0.34992934  0.33730956  0.38104021
   0.50000000  0.50000000  0.06464000
   0.66667000  0.33333000  0.00000000
   0.83333000  0.50000000  0.06464000
   0.00000000  0.66667000  0.00000000
  -0.00680306  0.68154317  0.38119414
   0.16667000  0.83333000  0.06464000
   0.33333000  0.66667000  0.00000000
   0.50000000  0.83333000  0.06464000
   0.66667000  0.66667000  0.00000000
   0.66269140  0.65007168  0.38103993
   0.83333000  0.83333000  0.06464000
   0.00000000  0.00000000  0.12928000
   0.16667000  0.16667000  0.19391000
   0.33333000  0.00000000  0.12928000
   0.50000000  0.16667000  0.19391000
   0.66667000  0.00000000  0.12928000
   0.83333000  0.16667000  0.19391000
   0.00000000  0.33333000  0.12928000
   0.16667000  0.50000000  0.19391000
   0.33333000  0.33333000  0.12928000
   0.50000000  0.50000000  0.19391000
   0.66667000  0.33333000  0.12928000
   0.83333000  0.50000000  0.19391000
   0.00000000  0.66667000  0.12928000
   0.16667000  0.83333000  0.19391000
   0.33333000  0.66667000  0.12928000
   0.50000000  0.83333000  0.19391000
   0.66667000  0.66667000  0.12928000
   0.83333000  0.83333000  0.19391000
   0.00000000  0.00000000  0.25855000
   0.16467419  0.16873289  0.32424267
   0.33333000  0.00000000  0.25855000
   0.50095612  0.16772407  0.32461147
   0.66667000  0.00000000  0.25855000
   0.83337612  0.16662412  0.32456360
   0.00000000  0.33333000  0.25855000
   0.16630112  0.49893991  0.32470698
   0.33333000  0.33333000  0.25855000
   0.50171179  0.49828903  0.32138076
   0.66667000  0.33333000  0.25855000
   0.83227784  0.49904398  0.32461172
   0.00000000  0.66667000  0.25855000
   0.16688575  0.83311355  0.32148154
   0.33333000  0.66667000  0.25855000
   0.50106072  0.83370028  0.32470673
   0.66667000  0.66667000  0.25855000
   0.83126904  0.83532632  0.32424366
   0.99458933  0.33177131  0.37958782
   0.32904724  0.67095697  0.38890864
   0.47766492  0.52233799  0.40903517
Direct configuration=    20
   0.00000000  0.00000000  0.00000000
   0.01885233  0.98115724  0.38338150
   0.16667000  0.16667000  0.06464000
   0.33333000  0.00000000  0.00000000
   0.31829293  0.00741060  0.38121341
   0.50000000  0.16667000  0.06464000
   0.66667000  0.00000000  0.00000000
   0.66814557  0.00537371  0.37957717
   0.83333000  0.16667000  0.06464000
   0.00000000  0.33333000  0.00000000
   0.16667000  0.50000000  0.06464000
   0.33333000  0.33333000  0.00000000
   0.34989011  0.33725244  0.38107927
   0.50000000  0.50000000  0.06464000
   0.66667000  0.33333000  0.00000000
   0.83333000  0.50000000  0.06464000
   0.00000000  0.66667000  0.00000000
  -0.00741091  0.68170143  0.38121272
   0.16667000  0.83333000  0.06464000
   0.33333000  0.66667000  0.00000000
   0.50000000  0.83333000  0.06464000
   0.66667000  0.66667000  0.00000000
   0.66274825  0.65011028  0.38107909
   0.83333000  0.83333000  0.06464000
   0.00000000  0.00000000  0.12928000
   0.16667000  0.16667000  0.19391000
   0.33333000  0.00000000  0.12928000
   0.50000000  0.16667000  0.19391000
   0.66667000  0.00000000  0.12928000
   0.83333000  0.16667000  0.19391000
   0.00000000  0.33333000  0.12928000
   0.16667000  0.50000000  0.19391000
   0.33333000  0.33333000  0.12928000
   0.50000000  0.50000000  0.19391000
   0.66667000  0.33333000  0.12928000
   0.83333000  0.50000000  0.19391000
   0.00000000  0.66667000  0.12928000
   0.16667000  0.83333000  0.19391000
   0.33333000  0.66667000  0.12928000
   0.50000000  0.83333000  0.19391000
   0.66667000  0.66667000  0.12928000
   0.83333000  0.83333000  0.19391000
   0.00000000  0.00000000  0.25855000
   0.16468047  0.16881149  0.32421213
   0.33333000  0.00000000  0.25855000
   0.50091897  0.16769197  0.32463445
   0.66667000  0.00000000  0.25855000
   0.83329876  0.16670129  0.32455349
   0.00000000  0.33333000  0.25855000
   0.16628587  0.49902764  0.32476229
   0.33333000  0.33333000  0.25855000
   0.50159812  0.49840231  0.32130648
   0.66667000  0.33333000  0.25855000
   0.83230936  0.49908114  0.32463468
   0.00000000  0.66667000  0.25855000
   0.16709532  0.83290398  0.32142218
   0.33333000  0.66667000  0.25855000
   0.50097296  0.83371509  0.32476225
   0.66667000  0.66667000  0.25855000
   0.83119025  0.83531959  0.32421303
   0.99462711  0.33185202  0.37957735
   0.32892390  0.67107869  0.38891592
   0.47758700  0.52241442  0.40910857
Direct configuration=    21
   0.00000000  0.00000000  0.00000000
   0.01887124  0.98113804  0.38338995
   0.16667000  0.16667000  0.06464000
   0.33333000  0.00000000  0.00000000
   0.31827614  0.00747613  0.38121538
   0.50000000  0.16667000  0.06464000
   0.66667000  0.00000000  0.00000000
   0.66813696  0.00536966  0.37957603
   0.83333000  0.16667000  0.06464000
   0.00000000  0.33333000  0.00000000
   0.16667000  0.50000000  0.06464000
   0.33333000  0.33333000  0.00000000
   0.34988589  0.33724629  0.38108347
   0.50000000  0.50000000  0.06464000
   0.66667000  0.33333000  0.00000000
   0.83333000  0.50000000  0.06464000
   0.00000000  0.66667000  0.00000000
  -0.00747630  0.68171846  0.38121472
   0.16667000  0.83333000  0.06464000
   0.33333000  0.66667000  0.00000000
   0.50000000  0.83333000  0.06464000
   0.66667000  0.66667000  0.00000000
   0.66275437  0.65011443  0.38108330
   0.83333000  0.83333000  0.06464000
   0.00000000  0.00000000  0.12928000
   0.16667000  0.16667000  0.19391000
   0.33333000  0.00000000  0.12928000
   0.50000000  0.16667000  0.19391000
   0.66667000  0.00000000  0.12928000
   0.83333000  0.16667000  0.19391000
   0.00000000  0.33333000  0.12928000
   0.16667000  0.50000000  0.19391000
   0.33333000  0.33333000  0.12928000
   0.50000000  0.50000000  0.19391000
   0.66667000  0.33333000  0.12928000
   0.83333000  0.50000000  0.19391000
   0.00000000  0.66667000  0.12928000
   0.16667000  0.83333000  0.19391000
   0.33333000  0.66667000  0.12928000
   0.50000000  0.83333000  0.19391000
   0.66667000  0.66667000  0.12928000
   0.83333000  0.83333000  0.19391000
   0.00000000  0.00000000  0.25855000
   0.16468114  0.16881994  0.32420884
   0.33333000  0.00000000  0.25855000
   0.50091498  0.16768852  0.32463692
   0.66667000  0.00000000  0.25855000
   0.83329044  0.16670959  0.32455241
   0.00000000  0.33333000  0.25855000
   0.16628423  0.49903708  0.32476824
   0.33333000  0.33333000  0.25855000
   0.50158589  0.49841449  0.32129849
   0.66667000  0.33333000  0.25855000
   0.83231275  0.49908513  0.32463715
   0.00000000  0.66667000  0.25855000
   0.16711787  0.83288143  0.32141579
   0.33333000  0.66667000  0.25855000
   0.50096352  0.83371669  0.32476822
   0.66667000  0.66667000  0.25855000
   0.83118177  0.83531886  0.32420973
   0.99463117  0.33186071  0.37957622
   0.32891063  0.67109179  0.38891671
   0.47757861  0.52242264  0.40911647
Direct configuration=    22
   0.00000000  0.00000000  0.00000000
   0.01910533  0.98090104  0.38341370
   0.16667000  0.16667000  0.06464000
   0.33333000  0.00000000  0.00000000
   0.31804443  0.00798506  0.38126765
   0.50000000  0.16667000  0.06464000
   0.66667000  0.00000000  0.00000000
   0.66802186  0.00532421  0.37962283
   0.83333000  0.16667000  0.06464000
   0.00000000  0.33333000  0.00000000
   0.16667000  0.50000000  0.06464000
   0.33333000  0.33333000  0.00000000
   0.35001577  0.33727848  0.38109357
   0.50000000  0.50000000  0.06464000
   0.66667000  0.33333000  0.00000000
   0.83333000  0.50000000  0.06464000
   0.00000000  0.66667000  0.00000000
  -0.00798411  0.68195221  0.38126731
   0.16667000  0.83333000  0.06464000
   0.33333000  0.66667000  0.00000000
   0.50000000  0.83333000  0.06464000
   0.66667000  0.66667000  0.00000000
   0.66272179  0.64998419  0.38109353
   0.83333000  0.83333000  0.06464000
   0.00000000  0.00000000  0.12928000
   0.16667000  0.16667000  0.19391000
   0.33333000  0.00000000  0.12928000
   0.50000000  0.16667000  0.19391000
   0.66667000  0.00000000  0.12928000
   0.83333000  0.16667000  0.19391000
   0.00000000  0.33333000  0.12928000
   0.16667000  0.50000000  0.19391000
   0.33333000  0.33333000  0.12928000
   0.50000000  0.50000000  0.19391000
   0.66667000  0.33333000  0.12928000
   0.83333000  0.50000000  0.19391000
   0.00000000  0.66667000  0.12928000
   0.16667000  0.83333000  0.19391000
   0.33333000  0.66667000  0.12928000
   0.50000000  0.83333000  0.19391000
   0.66667000  0.66667000  0.12928000
   0.83333000  0.83333000  0.19391000
   0.00000000  0.00000000  0.25855000
   0.16465086  0.16889869  0.32416885
   0.33333000  0.00000000  0.25855000
   0.50092220  0.16775979  0.32464671
   0.66667000  0.00000000  0.25855000
   0.83325799  0.16674187  0.32454023
   0.00000000  0.33333000  0.25855000
   0.16628687  0.49903329  0.32481461
   0.33333000  0.33333000  0.25855000
   0.50146523  0.49853479  0.32134664
   0.66667000  0.33333000  0.25855000
   0.83224068  0.49907777  0.32464691
   0.00000000  0.66667000  0.25855000
   0.16715325  0.83284649  0.32142766
   0.33333000  0.66667000  0.25855000
   0.50096695  0.83371367  0.32481477
   0.66667000  0.66667000  0.25855000
   0.83110256  0.83534902  0.32416950
   0.99467655  0.33197647  0.37962298
   0.32888970  0.67111158  0.38898755
   0.47740554  0.52259452  0.40912656
Direct configuration=    23
   0.00000000  0.00000000  0.00000000
   0.01915126  0.98085454  0.38341836
   0.16667000  0.16667000  0.06464000
   0.33333000  0.00000000  0.00000000
   0.31799897  0.00808491  0.38127790
   0.50000000  0.16667000  0.06464000
   0.66667000  0.00000000  0.00000000
   0.66799927  0.00531529  0.37963202
   0.83333000  0.16667000  0.06464000
   0.00000000  0.33333000  0.00000000
   0.16667000  0.50000000  0.06464000
   0.33333000  0.33333000  0.00000000
   0.35004126  0.33728480  0.38109555
   0.50000000  0.50000000  0.06464000
   0.66667000  0.33333000  0.00000000
   0.83333000  0.50000000  0.06464000
   0.00000000  0.66667000  0.00000000
  -0.00808374  0.68199807  0.38127762
   0.16667000  0.83333000  0.06464000
   0.33333000  0.66667000  0.00000000
   0.50000000  0.83333000  0.06464000
   0.66667000  0.66667000  0.00000000
   0.66271540  0.64995864  0.38109554
   0.83333000  0.83333000  0.06464000
   0.00000000  0.00000000  0.12928000
   0.16667000  0.16667000  0.19391000
   0.33333000  0.00000000  0.12928000
   0.50000000  0.16667000  0.19391000
   0.66667000  0.00000000  0.12928000
   0.83333000  0.16667000  0.19391000
   0.00000000  0.33333000  0.12928000
   0.16667000  0.50000000  0.19391000
   0.33333000  0.33333000  0.12928000
   0.50000000  0.50000000  0.19391000
   0.66667000  0.33333000  0.12928000
   0.83333000  0.50000000  0.19391000
   0.00000000  0.66667000  0.12928000
   0.16667000  0.83333000  0.19391000
   0.33333000  0.66667000  0.12928000
   0.50000000  0.83333000  0.19391000
   0.66667000  0.66667000  0.12928000
   0.83333000  0.83333000  0.19391000
   0.00000000  0.00000000  0.25855000
   0.16464492  0.16891414  0.32416101
   0.33333000  0.00000000  0.25855000
   0.50092362  0.16777377  0.32464863
   0.66667000  0.00000000  0.25855000
   0.83325163  0.16674820  0.32453784
   0.00000000  0.33333000  0.25855000
   0.16628739  0.49903255  0.32482371
   0.33333000  0.33333000  0.25855000
   0.50144155  0.49855839  0.32135609
   0.66667000  0.33333000  0.25855000
   0.83222654  0.49907633  0.32464882
   0.00000000  0.66667000  0.25855000
   0.16716019  0.83283964  0.32142999
   0.33333000  0.66667000  0.25855000
   0.50096762  0.83371308  0.32482390
   0.66667000  0.66667000  0.25855000
   0.83108701  0.83535494  0.32416160
   0.99468545  0.33199918  0.37963215
   0.32888559  0.67111547  0.38900145
   0.47737158  0.52262825  0.40912854
Direct configuration=    24
   0.00000000  0.00000000  0.00000000
   0.01927982  0.98072424  0.38339238
   0.16667000  0.16667000  0.06464000
   0.33333000  0.00000000  0.00000000
   0.31782644  0.00822305  0.38130195
   0.50000000  0.16667000  0.06464000
   0.66667000  0.00000000  0.00000000
   0.66796152  0.00531091  0.37962749
   0.83333000  0.16667000  0.06464000
   0.00000000  0.33333000  0.00000000
   0.16667000  0.50000000  0.06464000
   0.33333000  0.33333000  0.00000000
   0.35010614  0.33726366  0.38110479
   0.50000000  0.50000000  0.06464000
   0.66667000  0.33333000  0.00000000
   0.83333000  0.50000000  0.06464000
   0.00000000  0.66667000  0.00000000
  -0.00822175  0.68217145  0.38130170
   0.16667000  0.83333000  0.06464000
   0.33333000  0.66667000  0.00000000
   0.50000000  0.83333000  0.06464000
   0.66667000  0.66667000  0.00000000
   0.66273633  0.64989370  0.38110477
   0.83333000  0.83333000  0.06464000
   0.00000000  0.00000000  0.12928000
   0.16667000  0.16667000  0.19391000
   0.33333000  0.00000000  0.12928000
   0.50000000  0.16667000  0.19391000
   0.66667000  0.00000000  0.12928000
   0.83333000  0.16667000  0.19391000
   0.00000000  0.33333000  0.12928000
   0.16667000  0.50000000  0.19391000
   0.33333000  0.33333000  0.12928000
   0.50000000  0.50000000  0.19391000
   0.66667000  0.33333000  0.12928000
   0.83333000  0.50000000  0.19391000
   0.00000000  0.66667000  0.12928000
   0.16667000  0.83333000  0.19391000
   0.33333000  0.66667000  0.12928000
   0.50000000  0.83333000  0.19391000
   0.66667000  0.66667000  0.12928000
   0.83333000  0.83333000  0.19391000
   0.00000000  0.00000000  0.25855000
   0.16456149  0.16895914  0.32417930
   0.33333000  0.00000000  0.25855000
   0.50100075  0.16782256  0.32464110
   0.66667000  0.00000000  0.25855000
   0.83328490  0.16671511  0.32458031
   0.00000000  0.33333000  0.25855000
   0.16621324  0.49899783  0.32482899
   0.33333000  0.33333000  0.25855000
   0.50147434  0.49852578  0.32135915
   0.66667000  0.33333000  0.25855000
   0.83217770  0.49899918  0.32464129
   0.00000000  0.66667000  0.25855000
   0.16704260  0.83295739  0.32146456
   0.33333000  0.66667000  0.25855000
   0.50100252  0.83378679  0.32482905
   0.66667000  0.66667000  0.25855000
   0.83104159  0.83543832  0.32417977
   0.99468951  0.33203734  0.37962749
   0.32879185  0.67120880  0.38902969
   0.47736837  0.52263129  0.40915129
Direct configuration=    25
   0.00000000  0.00000000  0.00000000
   0.01925021  0.98075425  0.38339837
   0.16667000  0.16667000  0.06464000
   0.33333000  0.00000000  0.00000000
   0.31786617  0.00819124  0.38129641
   0.50000000  0.16667000  0.06464000
   0.66667000  0.00000000  0.00000000
   0.66797021  0.00531192  0.37962853
   0.83333000  0.16667000  0.06464000
   0.00000000  0.33333000  0.00000000
   0.16667000  0.50000000  0.06464000
   0.33333000  0.33333000  0.00000000
   0.35009119  0.33726853  0.38110266
   0.50000000  0.50000000  0.06464000
   0.66667000  0.33333000  0.00000000
   0.83333000  0.50000000  0.06464000
   0.00000000  0.66667000  0.00000000
  -0.00818996  0.68213152  0.38129615
   0.16667000  0.83333000  0.06464000
   0.33333000  0.66667000  0.00000000
   0.50000000  0.83333000  0.06464000
   0.66667000  0.66667000  0.00000000
   0.66273151  0.64990865  0.38110264
   0.83333000  0.83333000  0.06464000
   0.00000000  0.00000000  0.12928000
   0.16667000  0.16667000  0.19391000
   0.33333000  0.00000000  0.12928000
   0.50000000  0.16667000  0.19391000
   0.66667000  0.00000000  0.12928000
   0.83333000  0.16667000  0.19391000
   0.00000000  0.33333000  0.12928000
   0.16667000  0.50000000  0.19391000
   0.33333000  0.33333000  0.12928000
   0.50000000  0.50000000  0.19391000
   0.66667000  0.33333000  0.12928000
   0.83333000  0.50000000  0.19391000
   0.00000000  0.66667000  0.12928000
   0.16667000  0.83333000  0.19391000
   0.33333000  0.66667000  0.12928000
   0.50000000  0.83333000  0.19391000
   0.66667000  0.66667000  0.12928000
   0.83333000  0.83333000  0.19391000
   0.00000000  0.00000000  0.25855000
   0.16458071  0.16894878  0.32417509
   0.33333000  0.00000000  0.25855000
   0.50098299  0.16781132  0.32464283
   0.66667000  0.00000000  0.25855000
   0.83327724  0.16672273  0.32457053
   0.00000000  0.33333000  0.25855000
   0.16623032  0.49900583  0.32482777
   0.33333000  0.33333000  0.25855000
   0.50146679  0.49853329  0.32135844
   0.66667000  0.33333000  0.25855000
   0.83218895  0.49901695  0.32464302
   0.00000000  0.66667000  0.25855000
   0.16706968  0.83293027  0.32145659
   0.33333000  0.66667000  0.25855000
   0.50099448  0.83376981  0.32482787
   0.66667000  0.66667000  0.25855000
   0.83105206  0.83541912  0.32417559
   0.99468858  0.33202855  0.37962856
   0.32881344  0.67118730  0.38902318
   0.47736911  0.52263059  0.40914605
Direct configuration=    26
   0.00000000  0.00000000  0.00000000
   0.01925434  0.98075007  0.38339753
   0.16667000  0.16667000  0.06464000
   0.33333000  0.00000000  0.00000000
   0.31786063  0.00819567  0.38129718
   0.50000000  0.16667000  0.06464000
   0.66667000  0.00000000  0.00000000
   0.66796900  0.00531178  0.37962838
   0.83333000  0.16667000  0.06464000
   0.00000000  0.33333000  0.00000000
   0.16667000  0.50000000  0.06464000
   0.33333000  0.33333000  0.00000000
   0.35009328  0.33726785  0.38110296
   0.50000000  0.50000000  0.06464000
   0.66667000  0.33333000  0.00000000
   0.83333000  0.50000000  0.06464000
   0.00000000  0.66667000  0.00000000
  -0.00819439  0.68213709  0.38129692
   0.16667000  0.83333000  0.06464000
   0.33333000  0.66667000  0.00000000
   0.50000000  0.83333000  0.06464000
   0.66667000  0.66667000  0.00000000
   0.66273218  0.64990657  0.38110294
   0.83333000  0.83333000  0.06464000
   0.00000000  0.00000000  0.12928000
   0.16667000  0.16667000  0.19391000
   0.33333000  0.00000000  0.12928000
   0.50000000  0.16667000  0.19391000
   0.66667000  0.00000000  0.12928000
   0.83333000  0.16667000  0.19391000
   0.00000000  0.33333000  0.12928000
   0.16667000  0.50000000  0.19391000
   0.33333000  0.33333000  0.12928000
   0.50000000  0.50000000  0.19391000
   0.66667000  0.33333000  0.12928000
   0.83333000  0.50000000  0.19391000
   0.00000000  0.66667000  0.12928000
   0.16667000  0.83333000  0.19391000
   0.33333000  0.66667000  0.12928000
   0.50000000  0.83333000  0.19391000
   0.66667000  0.66667000  0.12928000
   0.83333000  0.83333000  0.19391000
   0.00000000  0.00000000  0.25855000
   0.16457803  0.16895022  0.32417568
   0.33333000  0.00000000  0.25855000
   0.50098547  0.16781289  0.32464259
   0.66667000  0.00000000  0.25855000
   0.83327831  0.16672167  0.32457189
   0.00000000  0.33333000  0.25855000
   0.16622794  0.49900471  0.32482794
   0.33333000  0.33333000  0.25855000
   0.50146784  0.49853224  0.32135854
   0.66667000  0.33333000  0.25855000
   0.83218738  0.49901447  0.32464278
   0.00000000  0.66667000  0.25855000
   0.16706590  0.83293405  0.32145770
   0.33333000  0.66667000  0.25855000
   0.50099560  0.83377218  0.32482803
   0.66667000  0.66667000  0.25855000
   0.83105060  0.83542180  0.32417617
   0.99468871  0.33202977  0.37962841
   0.32881043  0.67119030  0.38902409
   0.47736901  0.52263069  0.40914678
Direct configuration=    27
   0.00000000  0.00000000  0.00000000
   0.01925186  0.98075257  0.38339803
   0.16667000  0.16667000  0.06464000
   0.33333000  0.00000000  0.00000000
   0.31786396  0.00819301  0.38129672
   0.50000000  0.16667000  0.06464000
   0.66667000  0.00000000  0.00000000
   0.66796973  0.00531186  0.37962847
   0.83333000  0.16667000  0.06464000
   0.00000000  0.33333000  0.00000000
   0.16667000  0.50000000  0.06464000
   0.33333000  0.33333000  0.00000000
   0.35009203  0.33726826  0.38110278
   0.50000000  0.50000000  0.06464000
   0.66667000  0.33333000  0.00000000
   0.83333000  0.50000000  0.06464000
   0.00000000  0.66667000  0.00000000
  -0.00819174  0.68213375  0.38129646
   0.16667000  0.83333000  0.06464000
   0.33333000  0.66667000  0.00000000
   0.50000000  0.83333000  0.06464000
   0.66667000  0.66667000  0.00000000
   0.66273178  0.64990782  0.38110276
   0.83333000  0.83333000  0.06464000
   0.00000000  0.00000000  0.12928000
   0.16667000  0.16667000  0.19391000
   0.33333000  0.00000000  0.12928000
   0.50000000  0.16667000  0.19391000
   0.66667000  0.00000000  0.12928000
   0.83333000  0.16667000  0.19391000
   0.00000000  0.33333000  0.12928000
   0.16667000  0.50000000  0.19391000
   0.33333000  0.33333000  0.12928000
   0.50000000  0.50000000  0.19391000
   0.66667000  0.33333000  0.12928000
   0.83333000  0.50000000  0.19391000
   0.00000000  0.66667000  0.12928000
   0.16667000  0.83333000  0.19391000
   0.33333000  0.66667000  0.12928000
   0.50000000  0.83333000  0.19391000
   0.66667000  0.66667000  0.12928000
   0.83333000  0.83333000  0.19391000
   0.00000000  0.00000000  0.25855000
   0.16457964  0.16894935  0.32417533
   0.33333000  0.00000000  0.25855000
   0.50098398  0.16781195  0.32464274
   0.66667000  0.00000000  0.25855000
   0.83327767  0.16672231  0.32457107
   0.00000000  0.33333000  0.25855000
   0.16622937  0.49900538  0.32482784
   0.33333000  0.33333000  0.25855000
   0.50146721  0.49853287  0.32135848
   0.66667000  0.33333000  0.25855000
   0.83218832  0.49901596  0.32464292
   0.00000000  0.66667000  0.25855000
   0.16706817  0.83293179  0.32145704
   0.33333000  0.66667000  0.25855000
   0.50099493  0.83377076  0.32482793
   0.66667000  0.66667000  0.25855000
   0.83105147  0.83542019  0.32417582
   0.99468863  0.33202904  0.37962850
   0.32881223  0.67118850  0.38902355
   0.47736907  0.52263063  0.40914634
Direct configuration=    28
   0.00000000  0.00000000  0.00000000
   0.01926377  0.98073955  0.38342604
   0.16667000  0.16667000  0.06464000
   0.33333000  0.00000000  0.00000000
   0.31776000  0.00823369  0.38131221
   0.50000000  0.16667000  0.06464000
   0.66667000  0.00000000  0.00000000
   0.66794409  0.00532568  0.37963034
   0.83333000  0.16667000  0.06464000
   0.00000000  0.33333000  0.00000000
   0.16667000  0.50000000  0.06464000
   0.33333000  0.33333000  0.00000000
   0.35014819  0.33724293  0.38110641
   0.50000000  0.50000000  0.06464000
   0.66667000  0.33333000  0.00000000
   0.83333000  0.50000000  0.06464000
   0.00000000  0.66667000  0.00000000
  -0.00823258  0.68223820  0.38131196
   0.16667000  0.83333000  0.06464000
   0.33333000  0.66667000  0.00000000
   0.50000000  0.83333000  0.06464000
   0.66667000  0.66667000  0.00000000
   0.66275701  0.64985175  0.38110639
   0.83333000  0.83333000  0.06464000
   0.00000000  0.00000000  0.12928000
   0.16667000  0.16667000  0.19391000
   0.33333000  0.00000000  0.12928000
   0.50000000  0.16667000  0.19391000
   0.66667000  0.00000000  0.12928000
   0.83333000  0.16667000  0.19391000
   0.00000000  0.33333000  0.12928000
   0.16667000  0.50000000  0.19391000
   0.33333000  0.33333000  0.12928000
   0.50000000  0.50000000  0.19391000
   0.66667000  0.33333000  0.12928000
   0.83333000  0.50000000  0.19391000
   0.00000000  0.66667000  0.12928000
   0.16667000  0.83333000  0.19391000
   0.33333000  0.66667000  0.12928000
   0.50000000  0.83333000  0.19391000
   0.66667000  0.66667000  0.12928000
   0.83333000  0.83333000  0.19391000
   0.00000000  0.00000000  0.25855000
   0.16456681  0.16900051  0.32418228
   0.33333000  0.00000000  0.25855000
   0.50101029  0.16784237  0.32463499
   0.66667000  0.00000000  0.25855000
   0.83329405  0.16670595  0.32459056
   0.00000000  0.33333000  0.25855000
   0.16619100  0.49902966  0.32482645
   0.33333000  0.33333000  0.25855000
   0.50148328  0.49851682  0.32136615
   0.66667000  0.33333000  0.25855000
   0.83215792  0.49898969  0.32463511
   0.00000000  0.66667000  0.25855000
   0.16708463  0.83291541  0.32142964
   0.33333000  0.66667000  0.25855000
   0.50097074  0.83380902  0.32482645
   0.66667000  0.66667000  0.25855000
   0.83100005  0.83543311  0.32418268
   0.99467450  0.33205497  0.37963035
   0.32877296  0.67122763  0.38902229
   0.47737161  0.52262818  0.40915251
