<?xml version="1.0" encoding="UTF-8"?>
<xrdMeasurements xmlns="http://www.xrdml.com/XRDMeasurement/1.2" xmlns:xsi="http://www.w3.org/2001/XMLSchema-instance" xsi:schemaLocation="http://www.xrdml.com/XRDMeasurement/1.2 http://www.xrdml.com/XRDMeasurement/1.2/XRDMeasurement.xsd" status="Completed">
	<comment>
		<entry>Configuration=Stage Flat Sample, Owner=User-1, Creation date=8/3/2005 8:57:10 AM</entry>
		<entry>Goniometer=PW3050/60 (Theta/Theta); Minimum step size 2Theta:0.001; Minimum step size Omega:0.001</entry>
		<entry>Sample stage=PW3071/xx Bracket</entry>
		<entry>Diffractometer system=XPERT-PRO</entry>
		<entry>Measurement program=Film-10-80, Owner=User-1, Creation date=7/1/2019 12:12:31 PM</entry>
	</comment>
	<sample type="To be analyzed">
		<id></id>
		<name></name>
		<preparedBy></preparedBy>
	</sample>
	<xrdMeasurement measurementType="Scan" status="Completed">
		<comment>
			<entry/>
		</comment>
		<usedWavelength intended="K-Alpha 1">
			<kAlpha1 unit="Angstrom">1.5405980</kAlpha1>
			<kAlpha2 unit="Angstrom">1.5444260</kAlpha2>
			<kBeta unit="Angstrom">1.3922500</kBeta>
			<ratioKAlpha2KAlpha1>0.5000</ratioKAlpha2KAlpha1>
		</usedWavelength>
		<incidentBeamPath>
			<radius unit="mm">240.00</radius>
			<xRayTube id="1010048" name="PW3373/10 Cu LFF DK418250">
				<tension unit="kV">40</tension>
				<current unit="mA">40</current>
				<anodeMaterial>Cu</anodeMaterial>
				<focus type="Line">
					<length unit="mm">12.0</length>
					<width unit="mm">0.4</width>
					<takeOffAngle unit="deg">4.4</takeOffAngle>
				</focus>
			</xRayTube>
			<xRayMirror id="27020001" name="Inc. Beam Cu W/Si (parabolic MPD)" hybrid="false">
				<crystal type="Graded" shape="Parabolic">W/Si</crystal>
				<acceptanceAngle unit="deg">0.8</acceptanceAngle>
				<length unit="mm">55.3</length>
			</xRayMirror>
			<divergenceSlit id="22010004" name="Slit Fixed 1/2°" xsi:type="fixedDivergenceSlitType">
				<height unit="mm">0.76</height>
			</divergenceSlit>
		</incidentBeamPath>
		<diffractedBeamPath>
			<radius unit="mm">240.00</radius>
			<parallelPlateCollimator id="25010001" name="Parallel plate collimator 0.27°">
				<opening unit="deg">0.27</opening>
			</parallelPlateCollimator>
			<detector id="7010011" name="PW3011/20 (Miniprop. large window)" xsi:type="pointDetectorType">
				<phd>
					<lowerLevel unit="%">35.0</lowerLevel>
					<upperLevel unit="%">80.0</upperLevel>
				</phd>
			</detector>
		</diffractedBeamPath>
		<scan appendNumber="0" mode="Continuous" scanAxis="2Theta" status="Completed">
			<header>
				<startTimeStamp>2020-06-12T13:11:51-07:00</startTimeStamp>
				<endTimeStamp>2020-06-12T13:29:13-07:00</endTimeStamp>
				<author>
					<name>Administrator</name>
				</author>
				<source>
					<applicationSoftware version="2.1a">X'Pert Data Collector</applicationSoftware>
					<instrumentControlSoftware version="2.1E">XPERT-PRO</instrumentControlSoftware>
					<instrumentID>0000000026005197</instrumentID>
				</source>
			</header>
			<dataPoints>
				<positions axis="2Theta" unit="deg">
					<startPosition>10.0355</startPosition>
					<endPosition>89.9615</endPosition>
				</positions>
				<positions axis="Omega" unit="deg">
					<commonPosition>0.800</commonPosition>
				</positions>
				<commonCountingTime unit="seconds">1.00</commonCountingTime>
				<intensities unit="counts">19452 19361 18780 19047 19137 18503 18231 18053 17745 17789 17733 17566 17197 17094 16620 16892 16532 16465 16147 16041 15999 15732 15557 15424 15267 15145 14970 14920 14603 14719 14531 14106 13928 14323 13948 13696 13685 13503 13421 13261 13082 12998 12908 12672 12634 12754 12744 12454 12223 12238 12009 11777 11916 11804 11893 11597 11714 11435 11403 11308 10594 10440 10264 10026 9924 10095 9813 9567 9604 9718 9472 9475 9466 9042 8961 9154 9122 8977 8837 8621 8871 8554 8801 8535 8503 8394 8313 8441 8260 8125 8270 8015 8099 7832 7843 7903 7702 7746 7618 7597 7346 7484 7425 7363 7204 7196 7121 7091 7168 6960 6931 7009 6866 6856 6632 6498 6551 6576 6376 6532 6359 6251 6290 6227 6159 6105 6123 6146 5949 5952 6003 5775 5880 5765 5723 5760 5598 5476 5514 5562 5616 5414 5382 5460 5438 5303 5262 5286 5173 5263 5206 5062 5061 4971 4938 4835 4932 4854 4925 4851 4731 4709 4666 4586 4596 4577 4633 4459 4578 4463 4477 4485 4386 4284 4398 4278 4174 4156 4217 4300 4152 4125 4069 3942 3909 3942 3886 3911 3960 3781 3852 3837 3704 3706 3844 3667 3671 3660 3570 3475 3485 3640 3391 3424 3472 3462 3382 3351 3368 3392 3210 3404 3305 3161 3255 3242 3184 3225 2988 3095 3057 3076 3053 3021 2946 3026 2883 2906 2837 2899 2877 2895 2863 2856 2776 2806 2811 2764 2711 2709 2607 2696 2724 2733 2597 2630 2551 2520 2606 2558 2584 2471 2532 2449 2479 2468 2464 2336 2387 2373 2354 2259 2331 2266 2294 2300 2264 2157 2195 2178 2208 2212 2114 2209 2210 2168 2145 2163 2193 2039 2044 2075 2045 1985 2002 1914 2025 2020 2091 1947 1926 1922 1913 1927 1947 1898 1907 1950 1899 1888 1884 1896 1815 1891 1763 1821 1797 1752 1722 1813 1743 1749 1748 1692 1752 1661 1634 1638 1672 1708 1614 1634 1698 1665 1589 1600 1598 1612 1558 1558 1639 1602 1642 1495 1633 1575 1584 1491 1586 1513 1589 1517 1560 1540 1573 1536 1516 1506 1520 1618 1506 1489 1519 1524 1529 1429 1493 1521 1577 1556 1625 1540 1505 1583 1523 1500 1612 1457 1566 1521 1546 1560 1544 1575 1639 1601 1660 1659 1693 1859 1943 2007 2178 2389 2641 3128 3742 4878 6421 9101 12624 18172 25598 34386 42815 46050 43154 34038 22558 13229 7135 4112 2744 2095 1694 1577 1552 1336 1330 1302 1282 1222 1212 1126 1138 1155 1138 1116 1128 1086 1058 1048 1046 1057 1050 1033 1007 1026 1028 982 982 954 968 981 972 972 974 896 947 925 907 986 943 958 951 976 960 963 919 937 888 936 855 907 841 805 829 840 831 830 809 799 806 849 847 801 787 770 770 822 824 807 757 812 768 805 721 767 744 767 737 764 735 771 705 720 764 744 716 713 717 713 665 765 776 690 724 693 725 659 662 685 670 683 654 682 649 638 687 703 681 616 661 655 599 653 643 651 653 647 659 675 586 681 616 606 639 657 610 604 583 610 624 584 624 638 606 629 617 620 562 659 593 563 606 619 559 598 601 596 619 617 612 575 604 629 559 563 613 559 594 579 526 566 578 562 558 527 558 568 561 555 506 527 522 552 529 522 494 536 501 520 535 531 498 531 504 493 533 489 475 545 485 555 534 537 511 487 514 513 527 487 474 531 564 511 537 503 464 546 497 527 522 521 524 538 527 569 545 542 618 566 700 750 821 1011 1289 1718 2183 2767 3151 3137 2724 2284 1650 1195 840 721 650 541 488 534 484 505 459 412 449 481 455 433 450 493 469 499 433 457 481 456 426 454 447 461 450 427 447 499 431 417 446 444 433 461 443 449 451 420 419 435 449 451 453 407 455 452 462 422 441 423 421 407 447 417 420 436 430 472 435 419 428 415 432 461 418 391 437 388 425 414 435 436 364 431 435 412 431 438 376 370 420 414 443 453 437 392 430 376 439 403 404 371 377 387 434 394 397 390 404 403 429 355 403 393 384 400 369 414 432 391 415 403 441 396 400 404 380 394 409 376 373 417 424 393 430 435 415 398 431 420 443 408 433 404 411 420 402 429 439 425 460 449 434 446 422 439 458 471 420 462 440 425 436 421 463 458 441 456 423 434 424 465 446 525 498 532 490 520 522 555 629 649 603 641 690 759 867 915 1121 1203 1424 1756 2442 3299 4611 6214 8065 9007 9510 9216 7564 6033 4337 3043 2049 1400 1008 829 629 601 566 561 513 490 494 505 451 449 408 452 436 426 392 399 399 398 422 393 399 426 374 391 352 382 370 366 401 390 385 388 374 350 338 355 344 391 341 369 374 373 330 364 384 368 350 365 351 351 358 365 361 362 357 371 366 337 349 336 312 346 315 370 341 346 318 371 329 337 375 355 344 358 309 349 323 324 314 349 325 344 351 337 300 322 334 330 300 356 324 321 351 357 330 332 342 360 309 341 353 362 322 313 342 347 287 321 311 350 339 354 331 307 322 314 342 324 324 341 315 342 325 334 315 352 355 359 310 332 366 349 360 335 345 387 363 347 386 381 372 381 366 362 370 349 360 359 407 368 399 418 411 420 447 451 465 492 505 548 625 598 730 803 918 1236 1630 2115 2837 3464 4131 4286 4370 4074 3373 2746 2165 1635 1150 899 711 656 590 489 461 467 394 425 396 374 373 390 361 357 347 339 341 321 323 381 330 347 340</intensities>
			</dataPoints>
		</scan>
	</xrdMeasurement>
</xrdMeasurements>
