<?xml version="1.0" encoding="UTF-8"?>
<xrdMeasurements xmlns="http://www.xrdml.com/XRDMeasurement/1.2" xmlns:xsi="http://www.w3.org/2001/XMLSchema-instance" xsi:schemaLocation="http://www.xrdml.com/XRDMeasurement/1.2 http://www.xrdml.com/XRDMeasurement/1.2/XRDMeasurement.xsd" status="Completed">
	<comment>
		<entry>Configuration=Stage Flat Sample, Owner=User-1, Creation date=8/3/2005 8:57:10 AM</entry>
		<entry>Goniometer=PW3050/60 (Theta/Theta); Minimum step size 2Theta:0.001; Minimum step size Omega:0.001</entry>
		<entry>Sample stage=PW3071/xx Bracket</entry>
		<entry>Diffractometer system=XPERT-PRO</entry>
		<entry>Measurement program=normal-10-80, Owner=User-1, Creation date=4/9/2020 10:46:38 AM</entry>
	</comment>
	<sample type="To be analyzed">
		<id></id>
		<name></name>
		<preparedBy></preparedBy>
	</sample>
	<xrdMeasurement measurementType="Scan" status="Completed">
		<comment>
			<entry/>
		</comment>
		<usedWavelength intended="K-Alpha 1">
			<kAlpha1 unit="Angstrom">1.5405980</kAlpha1>
			<kAlpha2 unit="Angstrom">1.5444260</kAlpha2>
			<kBeta unit="Angstrom">1.3922500</kBeta>
			<ratioKAlpha2KAlpha1>0.5000</ratioKAlpha2KAlpha1>
		</usedWavelength>
		<incidentBeamPath>
			<radius unit="mm">240.00</radius>
			<xRayTube id="1010048" name="PW3373/10 Cu LFF DK418250">
				<tension unit="kV">40</tension>
				<current unit="mA">40</current>
				<anodeMaterial>Cu</anodeMaterial>
				<focus type="Line">
					<length unit="mm">12.0</length>
					<width unit="mm">0.4</width>
					<takeOffAngle unit="deg">6.0</takeOffAngle>
				</focus>
			</xRayTube>
			<filter id="20010004" name="Nickel">
				<material>Ni</material>
				<thickness unit="mm">0.020</thickness>
			</filter>
			<sollerSlit id="21010002" name="Soller 0.04 rad.">
				<opening unit="rad">0.0400</opening>
			</sollerSlit>
			<mask id="22080002" name="Inc. Mask Fixed  10 mm (MPD/MRD)">
				<width unit="mm">6.60</width>
			</mask>
			<antiScatterSlit id="22010002" name="Slit Fixed 2°" xsi:type="fixedAntiScatterSlitType">
				<height unit="mm">3.03</height>
			</antiScatterSlit>
			<divergenceSlit id="22010003" name="Slit Fixed 1°" xsi:type="fixedDivergenceSlitType">
				<height unit="mm">1.52</height>
			</divergenceSlit>
		</incidentBeamPath>
		<diffractedBeamPath>
			<radius unit="mm">240.00</radius>
			<sollerSlit id="21010002" name="Soller 0.04 rad.">
				<opening unit="rad">0.0400</opening>
			</sollerSlit>
			<detector id="7010013" name="X'Celerator" xsi:type="rtmsDetectorType">
				<mode>Scanning</mode>
				<activeLength unit="deg">2.122</activeLength>
			</detector>
		</diffractedBeamPath>
		<scan appendNumber="0" mode="Continuous" scanAxis="Gonio" status="Completed">
			<header>
				<startTimeStamp>2020-06-12T12:37:40-07:00</startTimeStamp>
				<endTimeStamp>2020-06-12T12:46:20-07:00</endTimeStamp>
				<author>
					<name>Administrator</name>
				</author>
				<source>
					<applicationSoftware version="2.1a">X'Pert Data Collector</applicationSoftware>
					<instrumentControlSoftware version="2.1E">XPERT-PRO</instrumentControlSoftware>
					<instrumentID>0000000026005197</instrumentID>
				</source>
			</header>
			<dataPoints>
				<positions axis="2Theta" unit="deg">
					<startPosition>20.02971127</startPosition>
					<endPosition>89.98308172</endPosition>
				</positions>
				<positions axis="Omega" unit="deg">
					<startPosition>10.01485564</startPosition>
					<endPosition>44.99154086</endPosition>
				</positions>
				<commonCountingTime unit="seconds">29.845</commonCountingTime>
				<intensities unit="counts">1775 1723 1771 1755 1739 1806 1759 1715 1761 1692 1711 1778 1784 1841 1736 1750 1653 1646 1646 1683 1652 1640 1727 1709 1730 1718 1571 1682 1736 1616 1675 1682 1640 1692 1744 1698 1688 1615 1576 1596 1692 1638 1644 1658 1671 1643 1651 1639 1600 1640 1660 1583 1584 1621 1619 1569 1591 1613 1623 1560 1608 1658 1633 1656 1537 1607 1678 1604 1628 1736 1665 1600 1640 1593 1686 1590 1614 1600 1612 1593 1555 1526 1550 1567 1602 1584 1587 1576 1558 1564 1561 1532 1591 1450 1484 1541 1436 1523 1514 1588 1550 1587 1510 1561 1482 1487 1560 1554 1587 1550 1474 1460 1500 1464 1486 1501 1449 1518 1498 1523 1541 1471 1544 1497 1454 1485 1498 1463 1450 1383 1477 1464 1508 1452 1541 1470 1461 1436 1412 1378 1400 1427 1469 1357 1412 1410 1339 1424 1304 1467 1398 1382 1400 1380 1368 1390 1430 1360 1413 1422 1342 1325 1417 1359 1366 1443 1363 1363 1323 1379 1387 1431 1388 1448 1411 1364 1272 1309 1288 1388 1357 1328 1329 1379 1331 1300 1286 1312 1372 1359 1262 1242 1372 1325 1301 1297 1237 1265 1247 1318 1282 1214 1283 1257 1211 1228 1320 1238 1262 1250 1249 1237 1260 1257 1197 1298 1229 1263 1235 1223 1210 1167 1248 1159 1190 1129 1212 1228 1208 1188 1177 1245 1188 1214 1189 1168 1111 1156 1182 1171 1239 1100 1170 1125 1147 1126 1097 1215 1191 1133 1201 1103 1165 1188 1167 1117 1158 1203 1201 1180 1233 1253 1369 1353 1324 1455 1436 1422 1446 1418 1337 1277 1245 1210 1147 1144 1106 1192 1034 1099 1106 1085 1108 1071 1051 1061 1050 1069 954 1084 1032 1020 1066 1040 1074 1037 1038 1060 1000 1070 1025 977 1010 1108 1008 1078 1028 1074 1100 1163 1156 1121 1149 1119 1108 1170 1067 1058 1086 1032 1051 963 1061 1013 1108 1106 1082 1097 1020 1126 1178 1183 1141 1284 1222 1177 1105 1078 1096 1093 1047 1093 1021 1063 985 1062 977 944 995 1036 972 968 977 908 1014 937 932 996 929 930 936 913 973 997 955 964 937 936 977 963 866 973 929 903 886 909 964 894 944 896 919 901 952 926 891 938 927 941 903 964 940 950 969 855 962 918 936 869 908 934 903 848 922 846 881 976 920 879 937 890 914 921 914 901 909 855 904 941 870 825 909 914 907 906 886 897 820 904 858 854 870 838 858 839 867 812 900 843 884 789 905 881 825 867 825 856 871 851 850 802 875 850 874 854 866 854 835 875 877 835 869 939 870 887 894 884 890 809 838 874 820 822 847 822 834 842 818 833 856 847 837 854 815 849 844 771 819 871 842 856 839 794 764 775 877 800 825 774 845 800 764 850 819 806 780 785 807 829 790 760 798 815 796 822 789 808 802 790 842 788 768 804 780 796 792 872 863 806 814 791 826 925 902 882 893 836 812 812 850 780 877 900 859 891 930 1146 1367 1857 2450 3434 4833 4767 3759 3318 2780 1964 1447 1050 927 940 883 878 873 945 858 878 882 889 839 865 883 785 847 798 854 860 756 742 763 820 771 764 681 732 762 755 752 703 719 766 790 747 776 809 759 724 787 739 759 764 807 746 830 827 832 806 811 752 739 738 715 739 782 764 763 741 780 823 735 799 773 752 748 760 763 720 728 707 774 693 721 735 770 759 735 681 755 778 697 768 730 688 733 723 695 742 756 768 766 750 783 796 838 846 796 762 804 771 740 736 774 688 736 718 729 675 711 715 728 683 741 737 720 675 696 752 746 763 733 766 799 770 786 783 727 740 794 699 779 732 809 765 794 812 761 748 701 770 721 731 741 728 753 776 774 748 696 782 696 738 718 768 723 742 764 804 801 855 832 837 838 889 875 874 890 987 1019 1102 1428 1396 1550 1821 2365 3133 4697 7263 10746 15350 16060 13026 10735 9661 7678 4693 2863 2035 1590 1447 1198 1081 1022 932 1003 887 907 909 874 886 924 847 843 789 788 786 827 773 731 709 679 691 764 666 693 658 681 672 679 693 626 668 697 654 712 715 664 625 690 720 670 640 721 693 690 648 692 645 647 728 708 681 677 696 697 679 669 729 706 723 703 719 675 714 691 631 705 649 692 646 631 687 655 635 585 660 666 680 599 659 631 609 622 624 665 666 645 672 604 735 667 672 682 679 670 707 659 703 637 652 673 700 666 619 602 666 611 662 613 623 631 617 620 604 619 591 610 601 616 597 574 587 549 624 606 670 606 608 612 562 624 550 573 564 596 611 588 616 559 608 530 612 553 596 607 588 582 552 565 605 617 572 552 607 602 579 570 588 536 561 584 557 551 593 571 570 540 567 529 547 584 555 570 561 607 553 569 586 515 549 552 549 547 508 513 531 541 537 484 550 548 543 540 551 533 542 510 535 488 522 530 524 527 562 519 537 594 534 517 518 462 515 551 542 545 543 489 539 525 504 490 552 542 550 526 475 550 531 527 513 498 567 496 482 505 511 489 549 554 529 531 505 522 493 567 487 515 576 498 483 520 496 529 490 515 475 523 501 480 476 482 529 487 523 513 496 491 517 488 466 522 503 494 513 507 508 514 479 476 465 514 512 476 459 484 520 504 505 513 499 498 480 526 530 463 508 507 466 553 456 483 506 481 479 490 495 490 520 506 525 506 479 483 482 514 514 493 496 502 495 469 503 527 498 557 507 562 559 550 487 530 525 530 564 574 522 508 522 528 474 515 505 479 477 503 502 488 510 469 491 475 458 487 545 503 514 536 547 482 477 523 517 519 528 463 523 481 502 505 495 535 482 515 477 481 498 467 487 523 482 505 491 478 447 526 469 493 492 472 478 500 508 456 464 496 491 512 487 491 421 468 482 496 482 460 491 508 481 481 467 457 464 516 443 452 469 478 501 483 428 446 466 466 504 478 513 508 454 513 467 517 445 501 505 468 480 484 491 516 484 480 498 510 459 419 458 471 469 488 468 469 468 489 505 469 503 494 478 507 506 499 480 516 475 486 483 492 540 435 542 515 526 490 441 501 474 496 475 484 508 419 477 528 443 472 516 465 472 490 441 517 475 504 480 460 464 488 538 498 511 464 481 455 523 455 472 498 477 418 460 524 433 424 519 491 496 437 480 462 498 498 483 454 474 481 498 518 501 491 500 536 515 480 515 502 505 463 515 477 508 495 486 478 513 503 526 491 553 481 484 523 551 528 492 499 511 501 477 502 555 498 499 542 484 490 491 493 522 511 538 512 496 507 554 555 524 542 505 519 553 542 584 517 584 624 593 631 597 642 678 744 764 855 1039 1235 1509 2263 3332 4828 5232 4602 3562 3116 3132 3234 3018 2250 1636 1275 1028 844 755 724 707 666 625 624 628 610 602 554 558 559 525 542 548 558 510 499 496 530 466 495 476 489 495 478 492 478 483 502 513 504 463 456 475 483 508 504 546 457 468 498 538 457 465 475 504 469 490 452 492 475 471 523 453 465 466 477 492 475 448 436 470 484 456 484 458 447 479 469 441 488 491 482 456 446 479 478 444 472 472 447 412 408 465 444 430 437 463 462 479 421 421 481 452 450 433 417 472 453 446 420 479 479 458 454 434 472 457 451 472 443 480 431 439 444 446 421 454 451 472 462 420 399 439 469 472 445 452 445 415 383 437 460 482 439 441 450 441 423 489 379 419 432 425 460 443 457 472 455 441 475 415 478 430 381 416 384 415 421 421 437 398 391 420 401 428 427 429 476 418 399 442 478 433 454 433 391 412 397 420 429 424 433 405 431 429 422 424 424 429 441 429 453 443 408 410 386 423 431 408 456 453 440 458 406 431 440 422 510 428 400 452 404 433 429 405 424 425 400 441 403 418 448 408 405 420 408 400 403 419 434 420 420 404 365 432 420 421 380 458 436 429 418 413 389 393 385 418 399 439 418 418 432 386 442 388 463 433 422 419 412 412 410 388 418 409 451 437 407 384 421 478 431 469 456 477 472 531 488 520 489 499 496 470 504 456 478 448 436 444 479 375 428 424 398 435 423 423 421 389 393 437 385 408 420 368 398 428 431 427 450 392 394 431 423 407 385 382 394 412 384 383 388 379 395 410 409 417 444 405 418 428 395 409 412 418 427 400 417 411 422 399 456 428 411 409 413 392 392 374 430 428 447 422 428 400 428 406 472 442 486 401 455 499 526 471 535 543 552 569 523 635 705 699 826 1058 1343 1733 2362 3040 3130 2849 2243 1910 1722 1807 1986 1862 1595 1272 1036 844 662 638 572 504 479 486 456 456 420 435 388 448 477 405 381 389 417 413 453 385 388 364 394 394 403 415 399 382 418 403 425 396 357 389 404 386 356 401 364 356 376 407 374 423 372 415 361 393 416 359 368 393 339 352 384 363 338 377 371 375 353 370 335 382 400 374 383 337 383 387 376 407 375 397 376 392 388 395 361 418 397 393 396 404 380 362 376 382 353 398 383 375 392 377 379 388 413 404 407 403 356 393 400 399 395 364 432 413 436 455 437 533 565 723 680 623 589 535 558 538 602 600 616 584 520 490 517 455 496 455 418 452 442 410 437 400 434 416 437 433 374 375 392 403 392 454 394 463 437 386 387 408 381 413 421 401 379 401 406 382 395 398 393 369 366 366 422 420 374 362 351 369 366 395 342 352 372 375 400 341 335 388 363 363 375 374 403 347 349 342 359 364 365 366 341 369 346 326 364 365 366 368 363 386 363 363 392 370 348 323 380 379 374 366 358 357 342 338 358 339 338 377 384 393 356 360 314 361 371 333 350 325 339 358 361 354 370 380 369 394 327 385 357 382 329 346 370 349 369 397 318 375 352 346 352 345 408 385 362 341 388 361 360 351 381 370 335 370 350 362 365 365 396 359 346 349 352 363 372 347 372 344 340 376 336 368 329 359 384 344 360 330 316 330 357 375 326 354 371 359 372 364 391 369 341 359 342 389 353 366 353 341 379 382 341 322 308 358 316 382 371 387 350 336 357 375 360 370 323 377 359 345 357 364 364 358 359 337 362 361 334 377</intensities>
			</dataPoints>
		</scan>
	</xrdMeasurement>
</xrdMeasurements>
