<?xml version="1.0" encoding="UTF-8"?>
<xrdMeasurements xmlns="http://www.xrdml.com/XRDMeasurement/1.2" xmlns:xsi="http://www.w3.org/2001/XMLSchema-instance" xsi:schemaLocation="http://www.xrdml.com/XRDMeasurement/1.2 http://www.xrdml.com/XRDMeasurement/1.2/XRDMeasurement.xsd" status="Completed">
	<comment>
		<entry>Configuration=Stage Flat Sample, Owner=User-1, Creation date=8/3/2005 8:57:10 AM</entry>
		<entry>Goniometer=PW3050/60 (Theta/Theta); Minimum step size 2Theta:0.001; Minimum step size Omega:0.001</entry>
		<entry>Sample stage=PW3071/xx Bracket</entry>
		<entry>Diffractometer system=XPERT-PRO</entry>
		<entry>Measurement program=Film-10-80, Owner=User-1, Creation date=7/1/2019 12:12:31 PM</entry>
	</comment>
	<sample type="To be analyzed">
		<id></id>
		<name></name>
		<preparedBy></preparedBy>
	</sample>
	<xrdMeasurement measurementType="Scan" status="Completed">
		<comment>
			<entry/>
		</comment>
		<usedWavelength intended="K-Alpha 1">
			<kAlpha1 unit="Angstrom">1.5405980</kAlpha1>
			<kAlpha2 unit="Angstrom">1.5444260</kAlpha2>
			<kBeta unit="Angstrom">1.3922500</kBeta>
			<ratioKAlpha2KAlpha1>0.5000</ratioKAlpha2KAlpha1>
		</usedWavelength>
		<incidentBeamPath>
			<radius unit="mm">240.00</radius>
			<xRayTube id="1010048" name="PW3373/10 Cu LFF DK418250">
				<tension unit="kV">40</tension>
				<current unit="mA">40</current>
				<anodeMaterial>Cu</anodeMaterial>
				<focus type="Line">
					<length unit="mm">12.0</length>
					<width unit="mm">0.4</width>
					<takeOffAngle unit="deg">4.4</takeOffAngle>
				</focus>
			</xRayTube>
			<xRayMirror id="27020001" name="Inc. Beam Cu W/Si (parabolic MPD)" hybrid="false">
				<crystal type="Graded" shape="Parabolic">W/Si</crystal>
				<acceptanceAngle unit="deg">0.8</acceptanceAngle>
				<length unit="mm">55.3</length>
			</xRayMirror>
			<divergenceSlit id="22010004" name="Slit Fixed 1/2°" xsi:type="fixedDivergenceSlitType">
				<height unit="mm">0.76</height>
			</divergenceSlit>
		</incidentBeamPath>
		<diffractedBeamPath>
			<radius unit="mm">240.00</radius>
			<parallelPlateCollimator id="25010001" name="Parallel plate collimator 0.27°">
				<opening unit="deg">0.27</opening>
			</parallelPlateCollimator>
			<detector id="7010011" name="PW3011/20 (Miniprop. large window)" xsi:type="pointDetectorType">
				<phd>
					<lowerLevel unit="%">35.0</lowerLevel>
					<upperLevel unit="%">80.0</upperLevel>
				</phd>
			</detector>
		</diffractedBeamPath>
		<scan appendNumber="0" mode="Continuous" scanAxis="2Theta" status="Completed">
			<header>
				<startTimeStamp>2020-06-12T13:32:11-07:00</startTimeStamp>
				<endTimeStamp>2020-06-12T13:49:33-07:00</endTimeStamp>
				<author>
					<name>Administrator</name>
				</author>
				<source>
					<applicationSoftware version="2.1a">X'Pert Data Collector</applicationSoftware>
					<instrumentControlSoftware version="2.1E">XPERT-PRO</instrumentControlSoftware>
					<instrumentID>0000000026005197</instrumentID>
				</source>
			</header>
			<dataPoints>
				<positions axis="2Theta" unit="deg">
					<startPosition>10.0355</startPosition>
					<endPosition>89.9615</endPosition>
				</positions>
				<positions axis="Omega" unit="deg">
					<commonPosition>0.800</commonPosition>
				</positions>
				<commonCountingTime unit="seconds">1.00</commonCountingTime>
				<intensities unit="counts">19858 19585 19331 19304 18844 18712 18444 18342 18218 17851 18149 17681 17475 17198 17344 16943 16929 16749 16536 16399 16410 16122 16015 15506 15670 15526 15367 15160 15055 15136 14680 14687 14467 14575 14385 14215 13929 13777 13750 13478 13367 13268 13361 13081 12920 12895 12792 12654 12497 12535 12194 12162 12100 12043 11941 11657 11756 11575 11532 11501 11449 11104 11153 11050 10935 10068 10070 9768 9772 9831 9723 9680 9507 9535 9387 9240 9440 9183 9058 8945 8868 9023 8608 8788 8692 8561 8447 8387 8490 8165 8399 8329 7997 8237 8101 7951 7794 7915 7866 7642 7464 7594 7464 7540 7421 7389 7230 7150 7097 7176 7100 7026 6910 6839 6881 6817 6652 6604 6896 6471 6567 6406 6599 6428 6269 6277 6152 6161 6079 6224 5946 5920 5995 5972 5821 5922 5762 5840 5755 5555 5487 5478 5295 5529 5386 5406 5387 5406 5205 5289 5262 5098 5237 5090 4944 4946 4966 5037 4867 4850 4823 4767 4739 4768 4646 4717 4775 4596 4472 4575 4367 4449 4478 4429 4387 4282 4299 4223 4177 4269 4198 4078 4170 4110 4105 3959 4073 3928 3769 3933 3831 3890 3904 3748 3802 3717 3902 3701 3715 3650 3635 3587 3655 3626 3567 3581 3471 3498 3468 3337 3381 3406 3278 3276 3314 3357 3262 3298 3254 3087 3203 3130 3058 3147 3005 3114 2994 3027 3040 2887 2965 2968 2891 2925 2871 2981 2846 2780 2813 2829 2715 2707 2684 2713 2674 2614 2596 2616 2675 2649 2669 2525 2476 2508 2595 2511 2430 2499 2426 2408 2431 2427 2398 2341 2329 2353 2374 2371 2247 2289 2337 2216 2159 2247 2217 2215 2127 2179 2136 2271 2141 2179 2127 2166 2071 2018 1995 1992 2060 2033 1964 2005 1962 1878 1917 1941 1902 1961 1922 1891 1894 1858 1873 1840 1836 1836 1831 1808 1815 1896 1766 1727 1729 1694 1676 1734 1608 1665 1793 1634 1726 1745 1678 1594 1609 1692 1603 1636 1646 1579 1565 1622 1616 1554 1538 1627 1552 1552 1560 1545 1551 1608 1552 1529 1546 1537 1559 1528 1513 1473 1532 1443 1528 1491 1552 1413 1452 1533 1500 1512 1546 1512 1531 1427 1513 1474 1447 1489 1501 1522 1511 1430 1472 1426 1544 1557 1537 1515 1621 1527 1656 1653 1757 1809 1871 2069 2555 3036 3945 5256 7201 10088 14066 19104 23896 27906 28490 25592 19942 13584 8452 5060 3159 2309 1918 1661 1547 1404 1308 1309 1250 1252 1213 1204 1198 1151 1111 1109 1076 1076 1075 1051 1127 1004 1081 1019 1000 1042 1002 999 1033 972 988 983 1005 984 958 940 958 924 945 943 1026 944 960 979 983 947 910 927 900 950 913 858 822 870 885 867 854 862 850 867 826 831 776 808 800 838 838 775 826 727 774 763 761 768 752 767 746 814 717 756 745 718 709 717 743 735 747 693 711 690 716 702 715 721 674 744 635 719 704 639 748 705 679 673 743 643 661 680 684 675 663 641 665 644 659 688 633 627 652 665 650 629 618 645 609 674 664 639 601 655 603 624 614 563 657 663 649 582 607 602 646 587 614 606 581 589 547 606 604 552 613 604 609 586 617 588 631 540 605 591 611 611 581 567 551 574 587 519 583 535 573 608 579 559 552 528 555 532 565 548 532 534 525 547 494 569 524 527 499 502 550 530 510 514 516 541 520 551 546 557 558 508 531 480 504 514 530 538 518 564 578 558 586 601 593 632 609 652 686 715 797 889 1190 1555 2163 3089 4511 6088 7165 7906 7273 6279 4789 3376 2357 1448 1119 806 706 656 634 593 595 539 477 513 534 499 534 522 507 485 446 454 505 484 461 503 456 430 478 513 442 503 443 489 409 464 477 463 441 478 462 409 444 418 449 414 427 424 476 461 462 416 466 433 401 409 422 432 434 432 420 449 416 413 438 440 424 415 443 389 391 433 394 439 416 403 405 426 442 414 402 377 406 421 411 398 401 442 407 439 417 394 391 376 381 392 395 375 399 381 346 415 410 400 373 377 395 426 397 377 396 408 395 386 380 432 373 397 370 397 393 395 397 414 417 413 412 406 396 406 442 434 415 408 449 470 412 408 463 423 416 366 409 437 385 429 398 420 375 422 420 423 396 412 364 434 419 405 427 417 426 416 420 439 434 436 421 428 434 464 453 519 463 463 479 497 565 562 546 608 661 745 753 868 1070 1304 1769 2474 3532 5030 7079 8715 9866 10080 9798 8265 6598 4876 3406 2419 1666 1281 965 815 711 673 609 567 552 517 530 459 507 443 462 419 457 417 452 413 436 435 399 419 414 397 389 412 409 379 392 381 371 388 349 375 405 363 359 366 364 383 377 351 376 353 350 344 311 357 324 359 332 365 335 376 344 348 354 349 371 338 333 350 339 360 354 338 346 343 336 302 322 368 338 280 329 355 326 360 328 323 319 296 295 331 333 310 317 344 328 357 333 330 382 336 302 318 322 321 337 329 308 330 314 304 312 356 335 335 374 304 306 318 336 347 324 302 345 319 314 320 316 317 325 298 332 317 315 323 332 287 359 309 289 308 323 354 314 346 328 345 338 338 333 349 354 300 319 320 357 335 345 354 379 338 331 407 364 384 395 444 432 407 444 554 639 679 846 1115 1552 2031 2359 2837 2908 2934 2631 2258 1869 1557 1189 947 768 587 586 457 456 412 448 398 378 381 365 374 319 357 351 354 360 350 327 328 353 321 336</intensities>
			</dataPoints>
		</scan>
	</xrdMeasurement>
</xrdMeasurements>
