<?xml version="1.0" encoding="UTF-8"?>
<xrdMeasurements xmlns="http://www.xrdml.com/XRDMeasurement/1.2" xmlns:xsi="http://www.w3.org/2001/XMLSchema-instance" xsi:schemaLocation="http://www.xrdml.com/XRDMeasurement/1.2 http://www.xrdml.com/XRDMeasurement/1.2/XRDMeasurement.xsd" status="Completed">
	<comment>
		<entry>Configuration=Stage Flat Sample, Owner=User-1, Creation date=8/3/2005 8:57:10 AM</entry>
		<entry>Goniometer=PW3050/60 (Theta/Theta); Minimum step size 2Theta:0.001; Minimum step size Omega:0.001</entry>
		<entry>Sample stage=PW3071/xx Bracket</entry>
		<entry>Diffractometer system=XPERT-PRO</entry>
		<entry>Measurement program=Film-10-80, Owner=User-1, Creation date=7/1/2019 12:12:31 PM</entry>
	</comment>
	<sample type="To be analyzed">
		<id></id>
		<name></name>
		<preparedBy></preparedBy>
	</sample>
	<xrdMeasurement measurementType="Scan" status="Completed">
		<comment>
			<entry/>
		</comment>
		<usedWavelength intended="K-Alpha 1">
			<kAlpha1 unit="Angstrom">1.5405980</kAlpha1>
			<kAlpha2 unit="Angstrom">1.5444260</kAlpha2>
			<kBeta unit="Angstrom">1.3922500</kBeta>
			<ratioKAlpha2KAlpha1>0.5000</ratioKAlpha2KAlpha1>
		</usedWavelength>
		<incidentBeamPath>
			<radius unit="mm">240.00</radius>
			<xRayTube id="1010048" name="PW3373/10 Cu LFF DK418250">
				<tension unit="kV">40</tension>
				<current unit="mA">40</current>
				<anodeMaterial>Cu</anodeMaterial>
				<focus type="Line">
					<length unit="mm">12.0</length>
					<width unit="mm">0.4</width>
					<takeOffAngle unit="deg">6.0</takeOffAngle>
				</focus>
			</xRayTube>
			<xRayMirror id="27020001" name="Inc. Beam Cu W/Si (parabolic MPD)" hybrid="false">
				<crystal type="Graded" shape="Parabolic">W/Si</crystal>
				<acceptanceAngle unit="deg">0.8</acceptanceAngle>
				<length unit="mm">55.3</length>
			</xRayMirror>
			<divergenceSlit id="22010004" name="Slit Fixed 1/2°" xsi:type="fixedDivergenceSlitType">
				<height unit="mm">0.76</height>
			</divergenceSlit>
		</incidentBeamPath>
		<diffractedBeamPath>
			<radius unit="mm">240.00</radius>
			<parallelPlateCollimator id="25010001" name="Parallel plate collimator 0.27°">
				<opening unit="deg">0.27</opening>
			</parallelPlateCollimator>
			<detector id="7010011" name="PW3011/20 (Miniprop. large window)" xsi:type="pointDetectorType">
				<phd>
					<lowerLevel unit="%">35.0</lowerLevel>
					<upperLevel unit="%">80.0</upperLevel>
				</phd>
			</detector>
		</diffractedBeamPath>
		<scan appendNumber="0" mode="Continuous" scanAxis="2Theta" status="Completed">
			<header>
				<startTimeStamp>2020-06-12T12:51:34-07:00</startTimeStamp>
				<endTimeStamp>2020-06-12T13:08:55-07:00</endTimeStamp>
				<author>
					<name>Administrator</name>
				</author>
				<source>
					<applicationSoftware version="2.1a">X'Pert Data Collector</applicationSoftware>
					<instrumentControlSoftware version="2.1E">XPERT-PRO</instrumentControlSoftware>
					<instrumentID>0000000026005197</instrumentID>
				</source>
			</header>
			<dataPoints>
				<positions axis="2Theta" unit="deg">
					<startPosition>10.0355</startPosition>
					<endPosition>89.9615</endPosition>
				</positions>
				<positions axis="Omega" unit="deg">
					<commonPosition>0.800</commonPosition>
				</positions>
				<commonCountingTime unit="seconds">1.00</commonCountingTime>
				<intensities unit="counts">19519 19175 19113 18840 18770 18713 18246 18083 17864 17625 17695 17315 17331 17053 16788 16608 16643 16431 16318 16205 16035 15692 15433 15270 15427 15290 14973 14940 14953 14649 14601 14381 14425 13870 14018 13801 13680 13671 13673 13259 13335 12829 12993 12822 12720 12612 12719 12397 12580 11737 11050 11879 11896 11874 11839 10973 10404 10451 10158 10116 10206 10004 9832 9900 9814 9726 9605 9608 9388 9405 9183 9201 9182 9149 9106 8732 8700 8779 8678 8645 8404 8433 8515 8164 8291 8118 8282 8159 7975 8038 7900 7862 7689 7641 7596 7623 7487 7494 7312 7295 7113 7331 7295 7180 6984 7020 7012 6881 6802 6678 6703 6729 6616 6623 6298 6518 6358 6415 6350 6250 6089 6261 6018 5968 5834 5911 5874 5902 5736 5752 5625 5684 5767 5623 5677 5543 5576 5643 5366 5332 5343 5328 5205 5318 5245 5116 5008 5109 4972 5131 4900 4955 4866 4798 4916 4814 4854 4778 4661 4673 4614 4536 4528 4495 4467 4568 4385 4327 4364 4401 4301 4206 4241 4120 4098 4190 4140 4160 4003 3870 3891 3874 3884 3929 3888 3822 3909 3677 3847 3724 3696 3567 3577 3642 3566 3614 3505 3581 3550 3416 3444 3513 3424 3333 3329 3378 3281 3344 3322 3233 3288 3141 3190 3255 3208 3179 3154 3077 3106 3062 3098 3048 2933 2908 2959 3000 2975 2916 2875 2764 2820 2719 2789 2806 2740 2740 2751 2704 2693 2644 2713 2693 2623 2528 2550 2682 2535 2493 2522 2513 2431 2364 2453 2369 2382 2338 2308 2356 2334 2352 2342 2291 2310 2349 2177 2303 2242 2255 2177 2218 2094 2194 2190 2134 2146 2190 2036 2210 2056 2005 2010 2024 2003 1955 1915 1929 2016 1928 1939 1976 1911 1952 1849 1915 1822 1921 1824 1858 1805 1844 1827 1777 1770 1773 1694 1712 1723 1742 1733 1667 1734 1791 1661 1715 1709 1660 1670 1646 1640 1681 1608 1662 1634 1637 1574 1656 1558 1668 1615 1600 1644 1566 1574 1553 1516 1556 1493 1518 1503 1593 1551 1526 1495 1532 1550 1493 1559 1521 1533 1473 1406 1568 1515 1465 1486 1498 1532 1504 1506 1573 1594 1475 1606 1617 1611 1619 1638 1487 1590 1523 1635 1554 1640 1660 1716 1728 1748 1801 1909 2032 2121 2282 2461 2819 3201 3981 5036 6777 9440 13846 19767 29104 42199 58655 73019 79289 72577 58549 39573 20221 10624 5727 3522 2618 2109 1825 1655 1538 1431 1392 1365 1281 1294 1192 1175 1174 1147 1129 1117 1098 1101 1113 1028 1097 1043 1012 994 948 978 971 1035 989 1015 977 951 988 930 996 1032 995 931 991 887 899 936 940 953 945 952 917 923 834 916 835 851 825 821 788 807 829 794 821 873 840 765 799 803 820 797 802 796 748 750 785 751 774 801 708 778 728 744 776 762 707 705 771 708 787 728 723 730 686 705 698 713 649 689 681 660 725 734 679 675 686 684 705 636 692 666 660 642 656 643 635 643 634 621 608 644 622 622 614 574 598 621 583 627 683 625 659 636 625 644 591 633 632 659 597 571 590 601 597 612 587 589 578 554 590 563 599 609 602 599 605 563 591 613 620 604 583 549 593 601 583 565 530 584 561 517 562 544 552 570 523 511 522 528 520 552 547 505 548 548 511 497 542 562 518 555 493 535 541 489 504 534 486 512 506 496 527 529 497 559 528 507 497 499 506 513 506 514 499 551 512 498 556 543 586 583 622 609 643 671 766 948 1165 1493 1960 2520 3140 3414 3250 2754 2242 1676 1200 860 739 627 565 538 518 528 498 474 472 484 474 470 432 471 455 472 472 427 412 435 472 481 441 464 402 451 429 454 438 435 437 438 448 457 446 420 484 458 438 441 431 464 455 422 443 443 421 486 416 404 450 436 474 432 442 397 407 454 417 392 435 435 427 409 418 454 409 434 416 422 409 405 404 416 423 410 432 422 409 435 424 395 420 440 448 400 356 338 398 434 416 419 437 450 376 394 419 408 425 355 423 385 430 403 400 382 397 404 388 461 392 411 451 386 401 383 412 421 440 399 438 422 411 386 459 430 372 403 436 445 444 438 458 409 423 396 449 399 465 442 471 464 412 424 402 450 451 412 414 473 429 429 462 474 408 466 483 429 467 464 431 499 460 456 461 462 521 528 519 572 560 587 631 668 682 729 795 877 971 1158 1257 1555 1902 2613 3663 4937 6866 8790 10239 10574 10101 8398 6514 4721 3194 2117 1518 1105 818 719 661 610 559 533 491 491 496 495 446 429 429 434 416 401 399 438 388 395 400 397 353 363 381 414 407 404 398 391 369 383 376 347 373 376 359 376 374 315 364 344 381 351 345 350 363 351 328 370 375 344 310 361 335 329 344 337 309 325 331 321 336 341 341 332 341 344 341 328 298 335 332 305 337 329 306 326 350 346 351 309 334 316 347 311 310 305 334 354 357 344 337 324 322 323 331 352 329 354 330 311 378 354 345 333 320 329 328 316 325 330 335 346 334 284 308 339 328 322 315 310 352 313 289 335 350 331 293 316 304 333 323 333 334 331 306 298 311 357 333 340 365 341 316 328 318 332 337 373 360 364 330 347 372 379 348 375 410 362 453 442 478 547 556 645 741 868 1131 1370 1625 1798 1884 1900 1736 1511 1234 987 796 716 573 452 423 414 372 378 344 365 341 364 334 352 366 325 344 344 341 325 342 350 327 318 310 313</intensities>
			</dataPoints>
		</scan>
	</xrdMeasurement>
</xrdMeasurements>
