Mo2                                     
   1.00000000000000     
     3.1661264449579081   -0.0000000000000000    0.0000000000000002
    -0.0000000000000002    3.1661264449579081    0.0000000000000002
     0.0000000000000000    0.0000000000000000    3.1676179437604688
   Mo
     2
Direct
 -0.0000000000000000  0.0000000000000000 -0.0000000000000000
  0.5000000000000000  0.5000000000000000  0.5000000000000000
 
  0.00000000E+00  0.00000000E+00  0.00000000E+00
  0.00000000E+00  0.00000000E+00  0.00000000E+00
