    2    2   99    2
  0.1589163E+02  0.3167618E-09  0.3167618E-09  0.3167618E-09  0.5000000E-15
  1.000000000000000E-004
  CAR 
 unknown system                          
     28     20     64
 
  0.0000000E+00  0.0000000E+00  0.0000000E+00  0.2915452E-02
      1        -48.968150      -48.968142   1.000000   1.000000
      2        -48.544977      -48.544970   1.000000   1.000000
      3        -23.188274      -23.188274   1.000000   1.000000
      4        -23.188273      -23.188273   1.000000   1.000000
      5        -23.183457      -23.183457   1.000000   1.000000
      6        -22.269478      -22.269477   1.000000   1.000000
      7        -22.269478      -22.269477   1.000000   1.000000
      8        -22.263112      -22.263112   1.000000   1.000000
      9          5.159611        5.159612   1.000000   1.000000
     10          7.014922        7.014922   1.000000   1.000000
     11          7.018480        7.018480   1.000000   1.000000
     12         10.991662       10.991661   1.000000   1.000000
     13         10.991662       10.991661   1.000000   1.000000
     14         10.993809       10.993808   1.000764   1.000764
     15         13.954367       13.954367   0.000000   0.000000
     16         13.967218       13.967218   0.000000   0.000000
     17         16.208947       16.208946   0.000000   0.000000
     18         16.214787       16.214786   0.000000   0.000000
     19         16.214787       16.214786   0.000000   0.000000
     20         21.276736       21.276738   0.000000   0.000000
     21         21.288954       21.288957   0.000000   0.000000
     22         21.288954       21.288957   0.000000   0.000000
     23         27.146285       27.146285   0.000000   0.000000
     24         27.157097       27.157098   0.000000   0.000000
     25         27.157097       27.157098   0.000000   0.000000
     26         31.751253       31.751253   0.000000   0.000000
     27         32.835402       32.835403   0.000000   0.000000
     28         32.841232       32.841233   0.000000   0.000000
     29         35.662471       35.662471   0.000000   0.000000
     30         38.490960       38.490960   0.000000   0.000000
     31         38.497115       38.497115   0.000000   0.000000
     32         41.887870       41.887872   0.000000   0.000000
     33         41.913739       41.913741   0.000000   0.000000
     34         41.913739       41.913741   0.000000   0.000000
     35         48.178401       48.178403   0.000000   0.000000
     36         48.178401       48.178403   0.000000   0.000000
     37         48.189176       48.189179   0.000000   0.000000
     38         48.884756       48.884757   0.000000   0.000000
     39         48.900028       48.900030   0.000000   0.000000
     40         48.900028       48.900030   0.000000   0.000000
     41         52.242171       52.242170   0.000000   0.000000
     42         54.449191       54.449192   0.000000   0.000000
     43         54.449191       54.449192   0.000000   0.000000
     44         54.470983       54.470984   0.000000   0.000000
     45         57.039316       57.039313   0.000000   0.000000
     46         57.039316       57.039313   0.000000   0.000000
     47         57.040321       57.040318   0.000000   0.000000
     48         58.578735       58.578735   0.000000   0.000000
     49         58.589657       58.589657   0.000000   0.000000
     50         58.589657       58.589657   0.000000   0.000000
     51         60.914041       60.914036   0.000000   0.000000
     52         64.414718       64.414713   0.000000   0.000000
     53         64.961473       64.961472   0.000000   0.000000
     54         64.961473       64.961472   0.000000   0.000000
     55         64.971770       64.971769   0.000000   0.000000
     56         69.190874       69.190875   0.000000   0.000000
     57         69.190874       69.190875   0.000000   0.000000
     58         69.217203       69.217204   0.000000   0.000000
     59         70.595645       70.595646   0.000000   0.000000
     60         70.623996       70.623996   0.000000   0.000000
     61         73.292117       73.292119   0.000000   0.000000
     62         73.319345       73.319347   0.000000   0.000000
     63         74.557102       74.557102   0.000000   0.000000
     64         74.596395       74.596396   0.000000   0.000000
 
  0.1428571E+00  0.1137948E-32  0.0000000E+00  0.1749271E-01
      1        -48.944190      -48.944182   1.000000   1.000000
      2        -48.562767      -48.562759   1.000000   1.000000
      3        -23.189691      -23.189691   1.000000   1.000000
      4        -23.141402      -23.141402   1.000000   1.000000
      5        -23.136514      -23.136514   1.000000   1.000000
      6        -22.365052      -22.365051   1.000000   1.000000
      7        -22.313204      -22.313204   1.000000   1.000000
      8        -22.306920      -22.306920   1.000000   1.000000
      9          5.597924        5.597925   1.000000   1.000000
     10          7.252307        7.252306   1.000000   1.000000
     11          7.387104        7.387103   1.000000   1.000000
     12         10.969908       10.969908   1.000000   1.000000
     13         10.971986       10.971986   1.000000   1.000000
     14         11.185703       11.185702   1.000769   1.000769
     15         13.402034       13.402034  -0.014020  -0.014020
     16         14.157995       14.157994   0.000000   0.000000
     17         15.157152       15.157151   0.000000   0.000000
     18         15.160019       15.160019   0.000000   0.000000
     19         15.849755       15.849754   0.000000   0.000000
     20         20.149751       20.149753   0.000000   0.000000
     21         22.820502       22.820504   0.000000   0.000000
     22         22.830012       22.830014   0.000000   0.000000
     23         27.615170       27.615170   0.000000   0.000000
     24         27.879586       27.879586   0.000000   0.000000
     25         27.890527       27.890527   0.000000   0.000000
     26         31.457282       31.457282   0.000000   0.000000
     27         32.597099       32.597099   0.000000   0.000000
     28         33.684721       33.684721   0.000000   0.000000
     29         34.850389       34.850390   0.000000   0.000000
     30         36.265948       36.265948   0.000000   0.000000
     31         39.307435       39.307435   0.000000   0.000000
     32         41.267263       41.267266   0.000000   0.000000
     33         41.288560       41.288563   0.000000   0.000000
     34         44.598254       44.598255   0.000000   0.000000
     35         47.175295       47.175297   0.000000   0.000000
     36         47.190532       47.190534   0.000000   0.000000
     37         47.311267       47.311269   0.000000   0.000000
     38         47.438703       47.438704   0.000000   0.000000
     39         47.457777       47.457778   0.000000   0.000000
     40         49.176589       49.176589   0.000000   0.000000
     41         52.290005       52.290005   0.000000   0.000000
     42         52.298173       52.298173   0.000000   0.000000
     43         53.338050       53.338050   0.000000   0.000000
     44         55.004972       55.004974   0.000000   0.000000
     45         56.744610       56.744608   0.000000   0.000000
     46         58.182201       58.182199   0.000000   0.000000
     47         59.660028       59.660026   0.000000   0.000000
     48         59.660924       59.660923   0.000000   0.000000
     49         60.653044       60.653044   0.000000   0.000000
     50         60.662349       60.662349   0.000000   0.000000
     51         61.937349       61.937346   0.000000   0.000000
     52         63.341989       63.341989   0.000000   0.000000
     53         63.356127       63.356127   0.000000   0.000000
     54         64.524080       64.524079   0.000000   0.000000
     55         65.193024       65.193020   0.000000   0.000000
     56         66.572948       66.572948   0.000000   0.000000
     57         69.491561       69.491562   0.000000   0.000000
     58         70.065046       70.065047   0.000000   0.000000
     59         70.549520       70.549520   0.000000   0.000000
     60         71.020909       71.020909   0.000000   0.000000
     61         71.039141       71.039141   0.000000   0.000000
     62         72.734762       72.734762   0.000000   0.000000
     63         73.214701       73.214698   0.000000   0.000000
     64         73.223358       73.223356   0.000000   0.000000
 
  0.2857143E+00  0.2324917E-32  0.0000000E+00  0.1749271E-01
      1        -48.878730      -48.878722   1.000000   1.000000
      2        -48.614394      -48.614386   1.000000   1.000000
      3        -23.167864      -23.167864   1.000000   1.000000
      4        -23.010652      -23.010652   1.000000   1.000000
      5        -23.005559      -23.005559   1.000000   1.000000
      6        -22.601972      -22.601971   1.000000   1.000000
      7        -22.436919      -22.436919   1.000000   1.000000
      8        -22.430860      -22.430860   1.000000   1.000000
      9          6.758886        6.758888   1.000000   1.000000
     10          7.944421        7.944421   1.000000   1.000000
     11          8.252967        8.252967   1.000000   1.000000
     12         11.021769       11.021768   1.000000   1.000000
     13         11.023603       11.023602   1.000000   1.000000
     14         11.752738       11.752737   1.002917   1.002917
     15         12.055400       12.055400   0.565769   0.565770
     16         13.503685       13.503684  -0.025668  -0.025668
     17         13.504251       13.504251   0.000000   0.000000
     18         14.674666       14.674666   0.000000   0.000000
     19         14.920316       14.920315   0.000000   0.000000
     20         17.984451       17.984452   0.000000   0.000000
     21         25.891966       25.891968   0.000000   0.000000
     22         25.900010       25.900012   0.000000   0.000000
     23         28.665263       28.665263   0.000000   0.000000
     24         29.274183       29.274184   0.000000   0.000000
     25         29.801160       29.801160   0.000000   0.000000
     26         29.812521       29.812521   0.000000   0.000000
     27         30.563773       30.563774   0.000000   0.000000
     28         31.934415       31.934416   0.000000   0.000000
     29         37.367637       37.367637   0.000000   0.000000
     30         37.889649       37.889649   0.000000   0.000000
     31         39.048117       39.048120   0.000000   0.000000
     32         39.060964       39.060967   0.000000   0.000000
     33         41.706057       41.706058   0.000000   0.000000
     34         43.590702       43.590703   0.000000   0.000000
     35         43.608022       43.608023   0.000000   0.000000
     36         45.232309       45.232311   0.000000   0.000000
     37         46.578672       46.578673   0.000000   0.000000
     38         46.585712       46.585712   0.000000   0.000000
     39         46.600690       46.600690   0.000000   0.000000
     40         49.405224       49.405223   0.000000   0.000000
     41         50.406207       50.406206   0.000000   0.000000
     42         50.416472       50.416472   0.000000   0.000000
     43         51.807034       51.807035   0.000000   0.000000
     44         54.648243       54.648242   0.000000   0.000000
     45         56.666658       56.666659   0.000000   0.000000
     46         61.426158       61.426157   0.000000   0.000000
     47         61.438086       61.438084   0.000000   0.000000
     48         61.465098       61.465097   0.000000   0.000000
     49         61.686496       61.686495   0.000000   0.000000
     50         63.006281       63.006281   0.000000   0.000000
     51         63.640067       63.640068   0.000000   0.000000
     52         63.664641       63.664641   0.000000   0.000000
     53         64.409819       64.409819   0.000000   0.000000
     54         64.411448       64.411448   0.000000   0.000000
     55         65.591019       65.591018   0.000000   0.000000
     56         66.840132       66.840130   0.000000   0.000000
     57         67.330496       67.330495   0.000000   0.000000
     58         68.146591       68.146589   0.000000   0.000000
     59         69.249421       69.249421   0.000000   0.000000
     60         69.251824       69.251823   0.000000   0.000000
     61         70.392791       70.392792   0.000000   0.000000
     62         74.012878       74.012878   0.000000   0.000000
     63         74.040853       74.040852   0.000000   0.000000
     64         74.163736       74.163713   0.000000   0.000000
 
  0.4285714E+00  0.2698040E-32  0.0000000E+00  0.1749271E-01
      1        -48.788228      -48.788221   1.000000   1.000000
      2        -48.693761      -48.693753   1.000000   1.000000
      3        -23.070112      -23.070112   1.000000   1.000000
      4        -22.869464      -22.869464   1.000000   1.000000
      5        -22.823444      -22.823444   1.000000   1.000000
      6        -22.818050      -22.818049   1.000000   1.000000
      7        -22.618511      -22.618511   1.000000   1.000000
      8        -22.612772      -22.612772   1.000000   1.000000
      9          8.136003        8.136005   1.000000   1.000000
     10          8.793174        8.793175   1.000000   1.000000
     11          9.052051        9.052051   1.000000   1.000000
     12         10.484196       10.484196   1.000000   1.000000
     13         11.373603       11.373602   1.000000   1.000000
     14         11.374969       11.374968   1.000000   1.000000
     15         12.188233       12.188233   0.858745   0.858745
     16         12.188859       12.188858   0.533002   0.533003
     17         12.643324       12.643323   0.000000   0.000000
     18         13.758169       13.758168   0.000000   0.000000
     19         15.303873       15.303873   0.000000   0.000000
     20         16.216143       16.216144   0.000000   0.000000
     21         27.615111       27.615111   0.000000   0.000000
     22         27.897686       27.897686   0.000000   0.000000
     23         29.287758       29.287759   0.000000   0.000000
     24         29.296265       29.296267   0.000000   0.000000
     25         29.853099       29.853099   0.000000   0.000000
     26         30.977637       30.977637   0.000000   0.000000
     27         31.370094       31.370095   0.000000   0.000000
     28         31.381042       31.381043   0.000000   0.000000
     29         37.094183       37.094185   0.000000   0.000000
     30         37.104602       37.104604   0.000000   0.000000
     31         39.385240       39.385241   0.000000   0.000000
     32         39.398780       39.398781   0.000000   0.000000
     33         40.150236       40.150237   0.000000   0.000000
     34         41.962066       41.962067   0.000000   0.000000
     35         42.699034       42.699034   0.000000   0.000000
     36         45.470938       45.470938   0.000000   0.000000
     37         46.446412       46.446413   0.000000   0.000000
     38         47.315322       47.315322   0.000000   0.000000
     39         47.337499       47.337499   0.000000   0.000000
     40         48.688055       48.688054   0.000000   0.000000
     41         48.735694       48.735694   0.000000   0.000000
     42         48.753275       48.753275   0.000000   0.000000
     43         49.090652       49.090651   0.000000   0.000000
     44         50.143707       50.143707   0.000000   0.000000
     45         59.375205       59.375206   0.000000   0.000000
     46         61.563855       61.563855   0.000000   0.000000
     47         62.361481       62.361480   0.000000   0.000000
     48         62.366717       62.366716   0.000000   0.000000
     49         62.497428       62.497428   0.000000   0.000000
     50         62.830441       62.830442   0.000000   0.000000
     51         63.030648       63.030647   0.000000   0.000000
     52         64.380594       64.380593   0.000000   0.000000
     53         64.388592       64.388591   0.000000   0.000000
     54         64.743625       64.743624   0.000000   0.000000
     55         66.080270       66.080271   0.000000   0.000000
     56         66.088781       66.088781   0.000000   0.000000
     57         67.931135       67.931135   0.000000   0.000000
     58         67.938484       67.938484   0.000000   0.000000
     59         71.262346       71.262344   0.000000   0.000000
     60         71.891744       71.891745   0.000000   0.000000
     61         73.979317       73.979318   0.000000   0.000000
     62         74.419630       74.419629   0.000000   0.000000
     63         74.633431       74.633432   0.000000   0.000000
     64         74.642890       74.642892   0.000000   0.000000
 
  0.1428571E+00  0.1428571E+00  0.0000000E+00  0.3498542E-01
      1        -48.922213      -48.922205   1.000000   1.000000
      2        -48.578325      -48.578318   1.000000   1.000000
      3        -23.267997      -23.267997   1.000000   1.000000
      4        -23.093446      -23.093446   1.000000   1.000000
      5        -23.024643      -23.024643   1.000000   1.000000
      6        -22.534087      -22.534087   1.000000   1.000000
      7        -22.345595      -22.345594   1.000000   1.000000
      8        -22.271410      -22.271410   1.000000   1.000000
      9          5.989937        5.989938   1.000000   1.000000
     10          7.513119        7.513119   1.000000   1.000000
     11          7.707048        7.707047   1.000000   1.000000
     12         10.540674       10.540673   1.000000   1.000000
     13         10.870781       10.870781   1.000000   1.000000
     14         11.805829       11.805828   1.003741   1.003741
     15         13.476931       13.476930  -0.019108  -0.019109
     16         13.880245       13.880245   0.000000   0.000000
     17         13.982932       13.982931   0.000000   0.000000
     18         14.258619       14.258619   0.000000   0.000000
     19         16.346754       16.346753   0.000000   0.000000
     20         20.904420       20.904422   0.000000   0.000000
     21         22.135791       22.135792   0.000000   0.000000
     22         23.685843       23.685845   0.000000   0.000000
     23         27.617960       27.617960   0.000000   0.000000
     24         28.459850       28.459850   0.000000   0.000000
     25         28.587241       28.587241   0.000000   0.000000
     26         31.595361       31.595361   0.000000   0.000000
     27         32.086991       32.086991   0.000000   0.000000
     28         34.549150       34.549151   0.000000   0.000000
     29         34.901026       34.901027   0.000000   0.000000
     30         36.635767       36.635768   0.000000   0.000000
     31         36.829367       36.829367   0.000000   0.000000
     32         40.236886       40.236889   0.000000   0.000000
     33         41.746739       41.746740   0.000000   0.000000
     34         45.535955       45.535955   0.000000   0.000000
     35         45.550226       45.550227   0.000000   0.000000
     36         46.040505       46.040506   0.000000   0.000000
     37         47.069884       47.069885   0.000000   0.000000
     38         47.404833       47.404835   0.000000   0.000000
     39         47.979556       47.979558   0.000000   0.000000
     40         50.537282       50.537282   0.000000   0.000000
     41         51.274405       51.274404   0.000000   0.000000
     42         51.303958       51.303959   0.000000   0.000000
     43         54.810626       54.810626   0.000000   0.000000
     44         55.486698       55.486698   0.000000   0.000000
     45         56.000879       56.000877   0.000000   0.000000
     46         58.256178       58.256178   0.000000   0.000000
     47         59.296660       59.296660   0.000000   0.000000
     48         60.668709       60.668708   0.000000   0.000000
     49         60.710114       60.710112   0.000000   0.000000
     50         60.810744       60.810744   0.000000   0.000000
     51         60.829909       60.829908   0.000000   0.000000
     52         62.940259       62.940256   0.000000   0.000000
     53         63.829798       63.829799   0.000000   0.000000
     54         66.330616       66.330615   0.000000   0.000000
     55         66.409290       66.409289   0.000000   0.000000
     56         66.838483       66.838481   0.000000   0.000000
     57         67.563876       67.563876   0.000000   0.000000
     58         67.985446       67.985447   0.000000   0.000000
     59         68.070212       68.070212   0.000000   0.000000
     60         69.966543       69.966542   0.000000   0.000000
     61         70.437978       70.437977   0.000000   0.000000
     62         72.219443       72.219443   0.000000   0.000000
     63         73.589810       73.589811   0.000000   0.000000
     64         74.914036       74.914036   0.000000   0.000000
 
  0.2857143E+00  0.1428571E+00  0.0000000E+00  0.6997085E-01
      1        -48.862181      -48.862173   1.000000   1.000000
      2        -48.623839      -48.623832   1.000000   1.000000
      3        -23.307572      -23.307572   1.000000   1.000000
      4        -22.973677      -22.973677   1.000000   1.000000
      5        -22.853050      -22.853050   1.000000   1.000000
      6        -22.806618      -22.806618   1.000000   1.000000
      7        -22.455508      -22.455508   1.000000   1.000000
      8        -22.327873      -22.327873   1.000000   1.000000
      9          6.976967        6.976968   1.000000   1.000000
     10          8.069454        8.069453   1.000000   1.000000
     11          8.588380        8.588380   1.000000   1.000000
     12         10.301213       10.301213   1.000000   1.000000
     13         10.743285       10.743285   1.000000   1.000000
     14         12.327774       12.327774   0.996724   0.996724
     15         12.693186       12.693186  -0.020808  -0.020808
     16         12.756048       12.756048  -0.006171  -0.006171
     17         12.969494       12.969493   0.000000   0.000000
     18         14.472779       14.472778   0.000000   0.000000
     19         15.942724       15.942723   0.000000   0.000000
     20         18.825100       18.825102   0.000000   0.000000
     21         24.301127       24.301128   0.000000   0.000000
     22         26.036936       26.036938   0.000000   0.000000
     23         27.871888       27.871888   0.000000   0.000000
     24         28.812225       28.812225   0.000000   0.000000
     25         29.796465       29.796466   0.000000   0.000000
     26         30.457376       30.457376   0.000000   0.000000
     27         31.721181       31.721182   0.000000   0.000000
     28         32.753111       32.753112   0.000000   0.000000
     29         37.281771       37.281772   0.000000   0.000000
     30         37.625691       37.625694   0.000000   0.000000
     31         37.907263       37.907264   0.000000   0.000000
     32         38.179364       38.179365   0.000000   0.000000
     33         40.987051       40.987051   0.000000   0.000000
     34         42.853988       42.853989   0.000000   0.000000
     35         44.326298       44.326299   0.000000   0.000000
     36         45.000109       45.000109   0.000000   0.000000
     37         45.666484       45.666486   0.000000   0.000000
     38         47.098019       47.098021   0.000000   0.000000
     39         48.967123       48.967122   0.000000   0.000000
     40         49.409282       49.409282   0.000000   0.000000
     41         50.396664       50.396666   0.000000   0.000000
     42         52.412665       52.412666   0.000000   0.000000
     43         54.067845       54.067846   0.000000   0.000000
     44         54.634661       54.634661   0.000000   0.000000
     45         54.827287       54.827286   0.000000   0.000000
     46         57.137502       57.137502   0.000000   0.000000
     47         60.383629       60.383629   0.000000   0.000000
     48         60.798833       60.798833   0.000000   0.000000
     49         61.789276       61.789275   0.000000   0.000000
     50         62.361225       62.361225   0.000000   0.000000
     51         63.296943       63.296942   0.000000   0.000000
     52         63.710736       63.710734   0.000000   0.000000
     53         64.352978       64.352977   0.000000   0.000000
     54         64.535102       64.535103   0.000000   0.000000
     55         65.552103       65.552103   0.000000   0.000000
     56         66.170133       66.170132   0.000000   0.000000
     57         66.188057       66.188057   0.000000   0.000000
     58         68.101084       68.101083   0.000000   0.000000
     59         69.721092       69.721092   0.000000   0.000000
     60         69.989941       69.989941   0.000000   0.000000
     61         71.713788       71.713789   0.000000   0.000000
     62         71.714433       71.714433   0.000000   0.000000
     63         72.842140       72.842139   0.000000   0.000000
     64         77.201014       77.201010   0.000000   0.000000
 
  0.4285714E+00  0.1428571E+00  0.0000000E+00  0.6997085E-01
      1        -48.779767      -48.779759   1.000000   1.000000
      2        -48.694613      -48.694606   1.000000   1.000000
      3        -23.249618      -23.249618   1.000000   1.000000
      4        -23.072355      -23.072355   1.000000   1.000000
      5        -22.803210      -22.803210   1.000000   1.000000
      6        -22.658408      -22.658408   1.000000   1.000000
      7        -22.618093      -22.618093   1.000000   1.000000
      8        -22.470269      -22.470269   1.000000   1.000000
      9          8.034983        8.034983   1.000000   1.000000
     10          8.523019        8.523019   1.000000   1.000000
     11          9.443779        9.443779   1.000000   1.000000
     12         10.332847       10.332847   1.000000   1.000000
     13         10.473014       10.473014   1.000000   1.000000
     14         11.147737       11.147736   1.000000   1.000000
     15         12.317745       12.317745   0.298700   0.298701
     16         12.415070       12.415070   0.044957   0.044957
     17         13.754611       13.754611   0.000000   0.000000
     18         14.914386       14.914386   0.000000   0.000000
     19         15.221642       15.221642   0.000000   0.000000
     20         16.572822       16.572823   0.000000   0.000000
     21         26.087725       26.087726   0.000000   0.000000
     22         26.879047       26.879048   0.000000   0.000000
     23         28.847006       28.847006   0.000000   0.000000
     24         28.899026       28.899027   0.000000   0.000000
     25         29.134370       29.134372   0.000000   0.000000
     26         31.633573       31.633574   0.000000   0.000000
     27         31.663222       31.663223   0.000000   0.000000
     28         32.646091       32.646092   0.000000   0.000000
     29         36.001217       36.001219   0.000000   0.000000
     30         37.188039       37.188040   0.000000   0.000000
     31         38.238788       38.238789   0.000000   0.000000
     32         39.542813       39.542814   0.000000   0.000000
     33         41.745162       41.745163   0.000000   0.000000
     34         42.166476       42.166476   0.000000   0.000000
     35         42.277201       42.277202   0.000000   0.000000
     36         43.994852       43.994853   0.000000   0.000000
     37         46.504504       46.504505   0.000000   0.000000
     38         47.020229       47.020228   0.000000   0.000000
     39         47.388433       47.388434   0.000000   0.000000
     40         48.544889       48.544889   0.000000   0.000000
     41         49.755046       49.755046   0.000000   0.000000
     42         50.508610       50.508610   0.000000   0.000000
     43         52.378923       52.378924   0.000000   0.000000
     44         53.445656       53.445656   0.000000   0.000000
     45         56.117821       56.117821   0.000000   0.000000
     46         57.054067       57.054067   0.000000   0.000000
     47         58.535257       58.535257   0.000000   0.000000
     48         59.204924       59.204924   0.000000   0.000000
     49         60.762682       60.762681   0.000000   0.000000
     50         62.151388       62.151387   0.000000   0.000000
     51         63.980151       63.980151   0.000000   0.000000
     52         65.841753       65.841754   0.000000   0.000000
     53         65.842547       65.842545   0.000000   0.000000
     54         66.018873       66.018874   0.000000   0.000000
     55         66.650624       66.650624   0.000000   0.000000
     56         67.523231       67.523230   0.000000   0.000000
     57         69.076879       69.076880   0.000000   0.000000
     58         69.915990       69.915991   0.000000   0.000000
     59         70.877615       70.877616   0.000000   0.000000
     60         71.855765       71.855762   0.000000   0.000000
     61         72.686369       72.686368   0.000000   0.000000
     62         72.719173       72.719174   0.000000   0.000000
     63         75.255543       75.255543   0.000000   0.000000
     64         76.303056       76.303056   0.000000   0.000000
 
  0.2857143E+00  0.2857143E+00  0.0000000E+00  0.3498542E-01
      1        -48.817648      -48.817640   1.000000   1.000000
      2        -48.652459      -48.652451   1.000000   1.000000
      3        -23.443286      -23.443286   1.000000   1.000000
      4        -23.103344      -23.103344   1.000000   1.000000
      5        -22.886057      -22.886057   1.000000   1.000000
      6        -22.645164      -22.645163   1.000000   1.000000
      7        -22.526871      -22.526871   1.000000   1.000000
      8        -22.275928      -22.275928   1.000000   1.000000
      9          7.322661        7.322661   1.000000   1.000000
     10          8.051155        8.051155   1.000000   1.000000
     11          9.660177        9.660177   1.000000   1.000000
     12          9.672583        9.672582   1.000000   1.000000
     13         10.918164       10.918164   1.001056   1.001056
     14         11.022085       11.022086   1.010589   1.010589
     15         12.489988       12.489988   0.000800   0.000800
     16         13.563574       13.563573   0.000000   0.000000
     17         13.997804       13.997804   0.000000   0.000000
     18         14.187674       14.187673   0.000000   0.000000
     19         16.655676       16.655675   0.000000   0.000000
     20         19.129202       19.129204   0.000000   0.000000
     21         23.064862       23.064862   0.000000   0.000000
     22         26.563376       26.563376   0.000000   0.000000
     23         26.899847       26.899849   0.000000   0.000000
     24         27.661967       27.661968   0.000000   0.000000
     25         28.454676       28.454676   0.000000   0.000000
     26         32.100105       32.100106   0.000000   0.000000
     27         32.284284       32.284284   0.000000   0.000000
     28         34.846803       34.846806   0.000000   0.000000
     29         35.074256       35.074257   0.000000   0.000000
     30         36.730098       36.730099   0.000000   0.000000
     31         38.472544       38.472545   0.000000   0.000000
     32         38.702653       38.702654   0.000000   0.000000
     33         39.652777       39.652779   0.000000   0.000000
     34         41.922901       41.922901   0.000000   0.000000
     35         45.976011       45.976012   0.000000   0.000000
     36         46.047929       46.047929   0.000000   0.000000
     37         46.382525       46.382526   0.000000   0.000000
     38         46.775097       46.775096   0.000000   0.000000
     39         47.166616       47.166618   0.000000   0.000000
     40         49.223064       49.223063   0.000000   0.000000
     41         50.181170       50.181170   0.000000   0.000000
     42         53.098232       53.098232   0.000000   0.000000
     43         53.961538       53.961540   0.000000   0.000000
     44         54.091119       54.091118   0.000000   0.000000
     45         54.936342       54.936344   0.000000   0.000000
     46         58.967676       58.967678   0.000000   0.000000
     47         59.029104       59.029104   0.000000   0.000000
     48         59.992512       59.992512   0.000000   0.000000
     49         61.196169       61.196168   0.000000   0.000000
     50         61.276238       61.276236   0.000000   0.000000
     51         61.373953       61.373954   0.000000   0.000000
     52         61.534780       61.534780   0.000000   0.000000
     53         62.947896       62.947896   0.000000   0.000000
     54         64.360765       64.360765   0.000000   0.000000
     55         65.362713       65.362714   0.000000   0.000000
     56         65.386583       65.386581   0.000000   0.000000
     57         66.991496       66.991494   0.000000   0.000000
     58         67.543088       67.543090   0.000000   0.000000
     59         69.171518       69.171517   0.000000   0.000000
     60         71.874208       71.874208   0.000000   0.000000
     61         75.500843       75.500844   0.000000   0.000000
     62         76.195348       76.195347   0.000000   0.000000
     63         76.402120       76.402118   0.000000   0.000000
     64         76.900474       76.900475   0.000000   0.000000
 
  0.4285714E+00  0.2857143E+00  0.0000000E+00  0.6997085E-01
      1        -48.758163      -48.758156   1.000000   1.000000
      2        -48.699136      -48.699128   1.000000   1.000000
      3        -23.467804      -23.467804   1.000000   1.000000
      4        -23.347855      -23.347855   1.000000   1.000000
      5        -22.764126      -22.764126   1.000000   1.000000
      6        -22.635761      -22.635761   1.000000   1.000000
      7        -22.460726      -22.460726   1.000000   1.000000
      8        -22.327819      -22.327819   1.000000   1.000000
      9          7.540220        7.540220   1.000000   1.000000
     10          7.806530        7.806530   1.000000   1.000000
     11          9.527364        9.527363   1.000000   1.000000
     12          9.945299        9.945298   1.000000   1.000000
     13         10.811271       10.811271   1.019067   1.019067
     14         11.449161       11.449162   1.011219   1.011219
     15         12.950342       12.950342  -0.005929  -0.005929
     16         13.516512       13.516512   0.000000   0.000000
     17         14.932115       14.932115   0.000000   0.000000
     18         15.276625       15.276624   0.000000   0.000000
     19         16.305272       16.305271   0.000000   0.000000
     20         16.949348       16.949350   0.000000   0.000000
     21         24.226262       24.226263   0.000000   0.000000
     22         25.433177       25.433178   0.000000   0.000000
     23         26.468893       26.468894   0.000000   0.000000
     24         26.781190       26.781191   0.000000   0.000000
     25         28.883942       28.883945   0.000000   0.000000
     26         31.613152       31.613154   0.000000   0.000000
     27         32.983422       32.983423   0.000000   0.000000
     28         34.737217       34.737218   0.000000   0.000000
     29         35.251915       35.251916   0.000000   0.000000
     30         37.848814       37.848815   0.000000   0.000000
     31         37.956485       37.956486   0.000000   0.000000
     32         39.281074       39.281074   0.000000   0.000000
     33         39.626253       39.626254   0.000000   0.000000
     34         41.673495       41.673495   0.000000   0.000000
     35         44.736369       44.736369   0.000000   0.000000
     36         45.678269       45.678270   0.000000   0.000000
     37         47.382361       47.382362   0.000000   0.000000
     38         47.495146       47.495147   0.000000   0.000000
     39         47.709956       47.709957   0.000000   0.000000
     40         48.346906       48.346906   0.000000   0.000000
     41         50.921346       50.921347   0.000000   0.000000
     42         50.996149       50.996148   0.000000   0.000000
     43         52.503527       52.503526   0.000000   0.000000
     44         53.586956       53.586956   0.000000   0.000000
     45         53.778134       53.778134   0.000000   0.000000
     46         56.836166       56.836166   0.000000   0.000000
     47         58.783103       58.783103   0.000000   0.000000
     48         58.829849       58.829849   0.000000   0.000000
     49         61.089437       61.089439   0.000000   0.000000
     50         61.097962       61.097962   0.000000   0.000000
     51         61.558150       61.558151   0.000000   0.000000
     52         62.990208       62.990209   0.000000   0.000000
     53         63.847340       63.847339   0.000000   0.000000
     54         64.393395       64.393395   0.000000   0.000000
     55         64.927024       64.927024   0.000000   0.000000
     56         67.265202       67.265202   0.000000   0.000000
     57         68.842447       68.842445   0.000000   0.000000
     58         71.172551       71.172551   0.000000   0.000000
     59         71.588012       71.588012   0.000000   0.000000
     60         71.720161       71.720161   0.000000   0.000000
     61         73.368838       73.368838   0.000000   0.000000
     62         74.792193       74.792190   0.000000   0.000000
     63         75.168937       75.168938   0.000000   0.000000
     64         76.705010       76.705010   0.000000   0.000000
 
  0.4285714E+00  0.4285714E+00  0.0000000E+00  0.3498542E-01
      1        -48.732344      -48.732336   1.000000   1.000000
      2        -48.711249      -48.711241   1.000000   1.000000
      3        -23.580219      -23.580219   1.000000   1.000000
      4        -23.537957      -23.537957   1.000000   1.000000
      5        -22.714280      -22.714280   1.000000   1.000000
      6        -22.668393      -22.668393   1.000000   1.000000
      7        -22.327717      -22.327717   1.000000   1.000000
      8        -22.279735      -22.279734   1.000000   1.000000
      9          7.185156        7.185156   1.000000   1.000000
     10          7.278031        7.278031   1.000000   1.000000
     11          9.078823        9.078822   1.000000   1.000000
     12          9.219573        9.219573   1.000000   1.000000
     13         12.544973       12.544974   0.664861   0.664860
     14         13.197430       13.197432   0.150759   0.150757
     15         13.617071       13.617071   0.000000   0.000000
     16         14.072291       14.072290   0.000000   0.000000
     17         14.526483       14.526483   0.000000   0.000000
     18         16.011308       16.011309   0.000000   0.000000
     19         16.478332       16.478331   0.000000   0.000000
     20         16.917031       16.917030   0.000000   0.000000
     21         23.632200       23.632200   0.000000   0.000000
     22         24.386167       24.386167   0.000000   0.000000
     23         24.583345       24.583345   0.000000   0.000000
     24         24.940556       24.940557   0.000000   0.000000
     25         29.136525       29.136527   0.000000   0.000000
     26         30.248140       30.248142   0.000000   0.000000
     27         33.953620       33.953620   0.000000   0.000000
     28         34.975650       34.975651   0.000000   0.000000
     29         36.663496       36.663496   0.000000   0.000000
     30         37.958909       37.958910   0.000000   0.000000
     31         38.915299       38.915299   0.000000   0.000000
     32         39.415608       39.415609   0.000000   0.000000
     33         39.896731       39.896731   0.000000   0.000000
     34         42.946865       42.946865   0.000000   0.000000
     35         44.365737       44.365737   0.000000   0.000000
     36         44.713230       44.713230   0.000000   0.000000
     37         45.143075       45.143075   0.000000   0.000000
     38         46.829055       46.829056   0.000000   0.000000
     39         47.854019       47.854020   0.000000   0.000000
     40         47.921061       47.921062   0.000000   0.000000
     41         51.330444       51.330444   0.000000   0.000000
     42         52.761210       52.761211   0.000000   0.000000
     43         53.587039       53.587038   0.000000   0.000000
     44         54.184546       54.184547   0.000000   0.000000
     45         56.270382       56.270383   0.000000   0.000000
     46         56.379591       56.379593   0.000000   0.000000
     47         56.630067       56.630067   0.000000   0.000000
     48         57.799185       57.799185   0.000000   0.000000
     49         60.451258       60.451259   0.000000   0.000000
     50         60.872745       60.872745   0.000000   0.000000
     51         61.262030       61.262029   0.000000   0.000000
     52         61.890935       61.890934   0.000000   0.000000
     53         62.165988       62.165988   0.000000   0.000000
     54         63.535542       63.535541   0.000000   0.000000
     55         66.177093       66.177093   0.000000   0.000000
     56         66.381467       66.381471   0.000000   0.000000
     57         66.402716       66.402719   0.000000   0.000000
     58         66.706964       66.706963   0.000000   0.000000
     59         73.957100       73.957098   0.000000   0.000000
     60         73.960944       73.960942   0.000000   0.000000
     61         77.454359       77.454355   0.000000   0.000000
     62         77.674609       77.674609   0.000000   0.000000
     63         77.892977       77.892973   0.000000   0.000000
     64         79.259747       79.259748   0.000000   0.000000
 
  0.1428571E+00  0.1428571E+00  0.1428571E+00  0.2332362E-01
      1        -48.901986      -48.901978   1.000000   1.000000
      2        -48.591925      -48.591917   1.000000   1.000000
      3        -23.217574      -23.217574   1.000000   1.000000
      4        -23.214180      -23.214179   1.000000   1.000000
      5        -22.883212      -22.883212   1.000000   1.000000
      6        -22.668422      -22.668422   1.000000   1.000000
      7        -22.319280      -22.319280   1.000000   1.000000
      8        -22.314899      -22.314899   1.000000   1.000000
      9          6.367859        6.367860   1.000000   1.000000
     10          7.891943        7.891943   1.000000   1.000000
     11          7.895384        7.895384   1.000000   1.000000
     12         10.423515       10.423515   1.000000   1.000000
     13         10.425272       10.425271   1.000000   1.000000
     14         12.401072       12.401071   0.984607   0.984607
     15         12.480476       12.480476   0.017586   0.017586
     16         13.726018       13.726018   0.000000   0.000000
     17         13.736230       13.736230   0.000000   0.000000
     18         15.324016       15.324015   0.000000   0.000000
     19         15.329662       15.329662   0.000000   0.000000
     20         22.354337       22.354339   0.000000   0.000000
     21         22.359980       22.359982   0.000000   0.000000
     22         22.577908       22.577909   0.000000   0.000000
     23         28.049222       28.049223   0.000000   0.000000
     24         28.629805       28.629805   0.000000   0.000000
     25         28.632543       28.632543   0.000000   0.000000
     26         31.910774       31.910774   0.000000   0.000000
     27         31.915356       31.915357   0.000000   0.000000
     28         34.597851       34.597852   0.000000   0.000000
     29         36.083875       36.083875   0.000000   0.000000
     30         36.085532       36.085533   0.000000   0.000000
     31         36.632849       36.632851   0.000000   0.000000
     32         37.681958       37.681958   0.000000   0.000000
     33         42.915461       42.915461   0.000000   0.000000
     34         43.786448       43.786448   0.000000   0.000000
     35         44.931530       44.931532   0.000000   0.000000
     36         44.933043       44.933046   0.000000   0.000000
     37         48.719472       48.719473   0.000000   0.000000
     38         48.726328       48.726328   0.000000   0.000000
     39         49.022632       49.022634   0.000000   0.000000
     40         49.034566       49.034568   0.000000   0.000000
     41         51.456155       51.456156   0.000000   0.000000
     42         51.463718       51.463719   0.000000   0.000000
     43         54.987487       54.987485   0.000000   0.000000
     44         55.228062       55.228062   0.000000   0.000000
     45         56.215891       56.215892   0.000000   0.000000
     46         58.397488       58.397488   0.000000   0.000000
     47         58.413077       58.413077   0.000000   0.000000
     48         60.216847       60.216847   0.000000   0.000000
     49         60.224650       60.224650   0.000000   0.000000
     50         60.534043       60.534039   0.000000   0.000000
     51         62.942771       62.942772   0.000000   0.000000
     52         62.964377       62.964378   0.000000   0.000000
     53         63.834397       63.834394   0.000000   0.000000
     54         63.871481       63.871481   0.000000   0.000000
     55         64.100911       64.100911   0.000000   0.000000
     56         64.118800       64.118800   0.000000   0.000000
     57         67.816518       67.816516   0.000000   0.000000
     58         70.644860       70.644860   0.000000   0.000000
     59         70.664211       70.664210   0.000000   0.000000
     60         71.499963       71.499962   0.000000   0.000000
     61         71.518258       71.518256   0.000000   0.000000
     62         73.724321       73.724321   0.000000   0.000000
     63         73.734329       73.734329   0.000000   0.000000
     64         74.182109       74.182110   0.000000   0.000000
 
  0.2857143E+00  0.1428571E+00  0.1428571E+00  0.6997085E-01
      1        -48.846907      -48.846899   1.000000   1.000000
      2        -48.632027      -48.632020   1.000000   1.000000
      3        -23.308870      -23.308870   1.000000   1.000000
      4        -23.073997      -23.073996   1.000000   1.000000
      5        -22.920788      -22.920788   1.000000   1.000000
      6        -22.710782      -22.710782   1.000000   1.000000
      7        -22.451269      -22.451269   1.000000   1.000000
      8        -22.330891      -22.330891   1.000000   1.000000
      9          7.277523        7.277524   1.000000   1.000000
     10          8.414709        8.414709   1.000000   1.000000
     11          8.712230        8.712230   1.000000   1.000000
     12         10.161980       10.161979   1.000000   1.000000
     13         10.174450       10.174450   1.000000   1.000000
     14         11.104295       11.104294   1.003065   1.003065
     15         13.094726       13.094726  -0.026739  -0.026739
     16         13.577942       13.577941  -0.006567  -0.006567
     17         13.809062       13.809062   0.000000   0.000000
     18         14.353566       14.353565   0.000000   0.000000
     19         15.439126       15.439126   0.000000   0.000000
     20         19.907162       19.907164   0.000000   0.000000
     21         23.859696       23.859697   0.000000   0.000000
     22         25.075509       25.075511   0.000000   0.000000
     23         28.110673       28.110674   0.000000   0.000000
     24         28.272632       28.272633   0.000000   0.000000
     25         29.952772       29.952773   0.000000   0.000000
     26         30.649632       30.649633   0.000000   0.000000
     27         31.535027       31.535028   0.000000   0.000000
     28         34.097154       34.097155   0.000000   0.000000
     29         34.858262       34.858264   0.000000   0.000000
     30         36.344507       36.344508   0.000000   0.000000
     31         38.806984       38.806986   0.000000   0.000000
     32         39.903550       39.903551   0.000000   0.000000
     33         41.742136       41.742136   0.000000   0.000000
     34         41.809684       41.809685   0.000000   0.000000
     35         42.305466       42.305466   0.000000   0.000000
     36         44.843057       44.843058   0.000000   0.000000
     37         45.508604       45.508606   0.000000   0.000000
     38         48.632831       48.632830   0.000000   0.000000
     39         50.044223       50.044224   0.000000   0.000000
     40         50.228124       50.228125   0.000000   0.000000
     41         51.396377       51.396378   0.000000   0.000000
     42         52.852963       52.852963   0.000000   0.000000
     43         53.392052       53.392053   0.000000   0.000000
     44         54.069397       54.069396   0.000000   0.000000
     45         55.643120       55.643121   0.000000   0.000000
     46         58.386905       58.386905   0.000000   0.000000
     47         58.579331       58.579331   0.000000   0.000000
     48         58.802080       58.802080   0.000000   0.000000
     49         59.775172       59.775172   0.000000   0.000000
     50         60.946125       60.946124   0.000000   0.000000
     51         61.276226       61.276224   0.000000   0.000000
     52         63.343532       63.343530   0.000000   0.000000
     53         63.887850       63.887849   0.000000   0.000000
     54         64.035406       64.035407   0.000000   0.000000
     55         66.177818       66.177818   0.000000   0.000000
     56         67.261400       67.261399   0.000000   0.000000
     57         68.234092       68.234091   0.000000   0.000000
     58         68.570407       68.570406   0.000000   0.000000
     59         70.510299       70.510299   0.000000   0.000000
     60         71.025103       71.025102   0.000000   0.000000
     61         72.923873       72.923873   0.000000   0.000000
     62         73.423662       73.423661   0.000000   0.000000
     63         74.309872       74.309872   0.000000   0.000000
     64         75.816572       75.816572   0.000000   0.000000
 
  0.4285714E+00  0.1428571E+00  0.1428571E+00  0.6997085E-01
      1        -48.771858      -48.771850   1.000000   1.000000
      2        -48.695071      -48.695064   1.000000   1.000000
      3        -23.297233      -23.297233   1.000000   1.000000
      4        -23.157829      -23.157829   1.000000   1.000000
      5        -22.871537      -22.871537   1.000000   1.000000
      6        -22.649106      -22.649106   1.000000   1.000000
      7        -22.548091      -22.548091   1.000000   1.000000
      8        -22.414105      -22.414105   1.000000   1.000000
      9          8.157297        8.157298   1.000000   1.000000
     10          8.791650        8.791651   1.000000   1.000000
     11          9.137344        9.137344   1.000000   1.000000
     12          9.780182        9.780181   1.000000   1.000000
     13         10.558763       10.558763   1.000000   1.000000
     14         10.832705       10.832705   1.000000   1.000000
     15         12.570567       12.570567  -0.017863  -0.017862
     16         12.784480       12.784479  -0.018894  -0.018894
     17         14.474843       14.474843   0.000000   0.000000
     18         14.879401       14.879401   0.000000   0.000000
     19         15.411646       15.411646   0.000000   0.000000
     20         17.406859       17.406860   0.000000   0.000000
     21         25.330545       25.330546   0.000000   0.000000
     22         26.447642       26.447643   0.000000   0.000000
     23         27.491877       27.491879   0.000000   0.000000
     24         28.315826       28.315826   0.000000   0.000000
     25         30.221222       30.221224   0.000000   0.000000
     26         31.426458       31.426459   0.000000   0.000000
     27         31.473911       31.473912   0.000000   0.000000
     28         32.091981       32.091982   0.000000   0.000000
     29         35.440044       35.440044   0.000000   0.000000
     30         37.015109       37.015110   0.000000   0.000000
     31         39.040718       39.040720   0.000000   0.000000
     32         40.845825       40.845825   0.000000   0.000000
     33         42.000403       42.000403   0.000000   0.000000
     34         42.145075       42.145075   0.000000   0.000000
     35         42.212863       42.212864   0.000000   0.000000
     36         43.429512       43.429513   0.000000   0.000000
     37         43.738280       43.738281   0.000000   0.000000
     38         47.289780       47.289781   0.000000   0.000000
     39         48.525946       48.525946   0.000000   0.000000
     40         51.367582       51.367582   0.000000   0.000000
     41         51.421691       51.421691   0.000000   0.000000
     42         52.493510       52.493510   0.000000   0.000000
     43         52.883267       52.883268   0.000000   0.000000
     44         53.111000       53.111000   0.000000   0.000000
     45         54.035248       54.035249   0.000000   0.000000
     46         55.349972       55.349973   0.000000   0.000000
     47         57.720795       57.720795   0.000000   0.000000
     48         58.741335       58.741334   0.000000   0.000000
     49         60.485610       60.485610   0.000000   0.000000
     50         60.580934       60.580934   0.000000   0.000000
     51         62.181516       62.181514   0.000000   0.000000
     52         62.945128       62.945127   0.000000   0.000000
     53         65.688243       65.688244   0.000000   0.000000
     54         65.758909       65.758910   0.000000   0.000000
     55         68.897432       68.897432   0.000000   0.000000
     56         70.235902       70.235901   0.000000   0.000000
     57         70.239700       70.239701   0.000000   0.000000
     58         70.984008       70.984009   0.000000   0.000000
     59         71.532738       71.532738   0.000000   0.000000
     60         71.616386       71.616384   0.000000   0.000000
     61         72.112129       72.112130   0.000000   0.000000
     62         73.257464       73.257464   0.000000   0.000000
     63         74.815278       74.815277   0.000000   0.000000
     64         75.099953       75.099952   0.000000   0.000000
 
  0.2857143E+00  0.2857143E+00  0.1428571E+00  0.6997085E-01
      1        -48.805925      -48.805917   1.000000   1.000000
      2        -48.656991      -48.656983   1.000000   1.000000
      3        -23.385220      -23.385220   1.000000   1.000000
      4        -23.146260      -23.146260   1.000000   1.000000
      5        -23.024462      -23.024462   1.000000   1.000000
      6        -22.549903      -22.549903   1.000000   1.000000
      7        -22.518847      -22.518847   1.000000   1.000000
      8        -22.333059      -22.333059   1.000000   1.000000
      9          7.763218        7.763219   1.000000   1.000000
     10          8.476219        8.476219   1.000000   1.000000
     11          9.572682        9.572681   1.000000   1.000000
     12          9.679796        9.679797   1.000000   1.000000
     13         10.063641       10.063641   1.000914   1.000914
     14         10.318813       10.318813   1.007082   1.007082
     15         13.426688       13.426687  -0.000739  -0.000739
     16         13.677474       13.677473   0.000000   0.000000
     17         14.194850       14.194850   0.000000   0.000000
     18         15.013698       15.013697   0.000000   0.000000
     19         15.608826       15.608825   0.000000   0.000000
     20         20.543139       20.543140   0.000000   0.000000
     21         22.764515       22.764516   0.000000   0.000000
     22         25.228328       25.228330   0.000000   0.000000
     23         26.960032       26.960033   0.000000   0.000000
     24         27.538260       27.538261   0.000000   0.000000
     25         29.995406       29.995407   0.000000   0.000000
     26         30.929795       30.929795   0.000000   0.000000
     27         31.745656       31.745658   0.000000   0.000000
     28         32.164767       32.164768   0.000000   0.000000
     29         35.576041       35.576042   0.000000   0.000000
     30         37.384741       37.384741   0.000000   0.000000
     31         38.143900       38.143900   0.000000   0.000000
     32         40.171915       40.171917   0.000000   0.000000
     33         41.444670       41.444670   0.000000   0.000000
     34         42.263956       42.263956   0.000000   0.000000
     35         42.774165       42.774166   0.000000   0.000000
     36         45.304429       45.304431   0.000000   0.000000
     37         45.770671       45.770671   0.000000   0.000000
     38         45.978343       45.978343   0.000000   0.000000
     39         50.335816       50.335816   0.000000   0.000000
     40         51.130178       51.130179   0.000000   0.000000
     41         51.204674       51.204675   0.000000   0.000000
     42         52.839011       52.839011   0.000000   0.000000
     43         53.034770       53.034771   0.000000   0.000000
     44         54.484003       54.484002   0.000000   0.000000
     45         56.350109       56.350111   0.000000   0.000000
     46         56.580972       56.580971   0.000000   0.000000
     47         57.122729       57.122731   0.000000   0.000000
     48         58.785552       58.785551   0.000000   0.000000
     49         59.511340       59.511340   0.000000   0.000000
     50         60.802258       60.802258   0.000000   0.000000
     51         60.963907       60.963907   0.000000   0.000000
     52         62.182516       62.182517   0.000000   0.000000
     53         63.317398       63.317398   0.000000   0.000000
     54         64.852755       64.852754   0.000000   0.000000
     55         65.590098       65.590095   0.000000   0.000000
     56         67.999008       67.999007   0.000000   0.000000
     57         68.020281       68.020282   0.000000   0.000000
     58         69.446133       69.446133   0.000000   0.000000
     59         70.964355       70.964355   0.000000   0.000000
     60         72.296142       72.296141   0.000000   0.000000
     61         72.956736       72.956734   0.000000   0.000000
     62         73.575947       73.575946   0.000000   0.000000
     63         74.429688       74.429688   0.000000   0.000000
     64         76.087909       76.087909   0.000000   0.000000
 
  0.4285714E+00  0.2857143E+00  0.1428571E+00  0.1399417E+00
      1        -48.751624      -48.751617   1.000000   1.000000
      2        -48.698371      -48.698363   1.000000   1.000000
      3        -23.425481      -23.425481   1.000000   1.000000
      4        -23.341159      -23.341159   1.000000   1.000000
      5        -22.858066      -22.858066   1.000000   1.000000
      6        -22.670959      -22.670959   1.000000   1.000000
      7        -22.430376      -22.430376   1.000000   1.000000
      8        -22.358946      -22.358946   1.000000   1.000000
      9          7.921056        7.921056   1.000000   1.000000
     10          8.152066        8.152066   1.000000   1.000000
     11          9.413670        9.413669   1.000000   1.000000
     12          9.568005        9.568005   1.000000   1.000000
     13         10.819703       10.819703   1.009300   1.009300
     14         10.985257       10.985258   1.016688   1.016688
     15         13.304675       13.304675  -0.003516  -0.003516
     16         13.519478       13.519477   0.000000   0.000000
     17         14.674078       14.674077   0.000000   0.000000
     18         15.250487       15.250486   0.000000   0.000000
     19         16.545397       16.545397   0.000000   0.000000
     20         18.507561       18.507561   0.000000   0.000000
     21         23.836729       23.836730   0.000000   0.000000
     22         25.365216       25.365217   0.000000   0.000000
     23         26.111814       26.111815   0.000000   0.000000
     24         26.478276       26.478276   0.000000   0.000000
     25         29.209517       29.209519   0.000000   0.000000
     26         30.139756       30.139758   0.000000   0.000000
     27         32.829405       32.829406   0.000000   0.000000
     28         32.856857       32.856858   0.000000   0.000000
     29         35.997776       35.997776   0.000000   0.000000
     30         36.477182       36.477182   0.000000   0.000000
     31         39.078810       39.078811   0.000000   0.000000
     32         40.472530       40.472530   0.000000   0.000000
     33         40.623610       40.623610   0.000000   0.000000
     34         42.855441       42.855441   0.000000   0.000000
     35         43.928653       43.928653   0.000000   0.000000
     36         44.350431       44.350432   0.000000   0.000000
     37         45.214058       45.214058   0.000000   0.000000
     38         47.768216       47.768217   0.000000   0.000000
     39         48.919838       48.919838   0.000000   0.000000
     40         50.175147       50.175148   0.000000   0.000000
     41         50.752785       50.752786   0.000000   0.000000
     42         51.844626       51.844626   0.000000   0.000000
     43         52.185122       52.185121   0.000000   0.000000
     44         53.332864       53.332865   0.000000   0.000000
     45         55.291698       55.291698   0.000000   0.000000
     46         55.905559       55.905560   0.000000   0.000000
     47         57.115889       57.115889   0.000000   0.000000
     48         58.637787       58.637787   0.000000   0.000000
     49         60.171626       60.171627   0.000000   0.000000
     50         60.801914       60.801915   0.000000   0.000000
     51         61.668651       61.668651   0.000000   0.000000
     52         61.781746       61.781746   0.000000   0.000000
     53         64.234193       64.234193   0.000000   0.000000
     54         66.273127       66.273127   0.000000   0.000000
     55         67.615055       67.615056   0.000000   0.000000
     56         67.654630       67.654630   0.000000   0.000000
     57         69.815548       69.815548   0.000000   0.000000
     58         69.936478       69.936479   0.000000   0.000000
     59         71.623957       71.623957   0.000000   0.000000
     60         71.885485       71.885483   0.000000   0.000000
     61         73.391539       73.391539   0.000000   0.000000
     62         73.977361       73.977361   0.000000   0.000000
     63         75.102177       75.102176   0.000000   0.000000
     64         75.353730       75.353729   0.000000   0.000000
 
  0.4285714E+00  0.4285714E+00  0.1428571E+00  0.6997085E-01
      1        -48.727722      -48.727715   1.000000   1.000000
      2        -48.708680      -48.708673   1.000000   1.000000
      3        -23.516370      -23.516371   1.000000   1.000000
      4        -23.487237      -23.487237   1.000000   1.000000
      5        -22.780152      -22.780152   1.000000   1.000000
      6        -22.707886      -22.707885   1.000000   1.000000
      7        -22.365200      -22.365200   1.000000   1.000000
      8        -22.344306      -22.344306   1.000000   1.000000
      9          7.609446        7.609446   1.000000   1.000000
     10          7.665452        7.665452   1.000000   1.000000
     11          9.057328        9.057328   1.000000   1.000000
     12          9.173666        9.173666   1.000000   1.000000
     13         12.126466       12.126467   0.985186   0.985186
     14         12.348233       12.348235   0.804354   0.804353
     15         13.830585       13.830584   0.000000   0.000000
     16         14.062735       14.062734   0.000000   0.000000
     17         14.555173       14.555173   0.000000   0.000000
     18         15.111385       15.111385   0.000000   0.000000
     19         17.705773       17.705773   0.000000   0.000000
     20         18.508624       18.508624   0.000000   0.000000
     21         23.222080       23.222080   0.000000   0.000000
     22         24.034019       24.034019   0.000000   0.000000
     23         24.972559       24.972560   0.000000   0.000000
     24         25.079234       25.079235   0.000000   0.000000
     25         28.518615       28.518617   0.000000   0.000000
     26         28.951515       28.951518   0.000000   0.000000
     27         34.309077       34.309077   0.000000   0.000000
     28         35.141329       35.141330   0.000000   0.000000
     29         35.536316       35.536317   0.000000   0.000000
     30         36.104147       36.104148   0.000000   0.000000
     31         39.106775       39.106775   0.000000   0.000000
     32         39.715118       39.715118   0.000000   0.000000
     33         41.099131       41.099132   0.000000   0.000000
     34         41.998868       41.998868   0.000000   0.000000
     35         44.116891       44.116891   0.000000   0.000000
     36         44.513723       44.513724   0.000000   0.000000
     37         47.869179       47.869179   0.000000   0.000000
     38         48.064758       48.064759   0.000000   0.000000
     39         48.530886       48.530886   0.000000   0.000000
     40         49.366950       49.366952   0.000000   0.000000
     41         50.185462       50.185462   0.000000   0.000000
     42         51.389133       51.389132   0.000000   0.000000
     43         51.464876       51.464875   0.000000   0.000000
     44         53.337821       53.337822   0.000000   0.000000
     45         54.657179       54.657179   0.000000   0.000000
     46         57.069324       57.069324   0.000000   0.000000
     47         57.099778       57.099779   0.000000   0.000000
     48         57.843106       57.843105   0.000000   0.000000
     49         58.403336       58.403336   0.000000   0.000000
     50         60.732247       60.732248   0.000000   0.000000
     51         62.346100       62.346099   0.000000   0.000000
     52         62.594402       62.594401   0.000000   0.000000
     53         65.714891       65.714894   0.000000   0.000000
     54         66.118127       66.118127   0.000000   0.000000
     55         66.207220       66.207223   0.000000   0.000000
     56         68.309791       68.309792   0.000000   0.000000
     57         68.952623       68.952624   0.000000   0.000000
     58         69.992538       69.992538   0.000000   0.000000
     59         70.557646       70.557645   0.000000   0.000000
     60         73.235034       73.235032   0.000000   0.000000
     61         73.259560       73.259559   0.000000   0.000000
     62         74.688202       74.688202   0.000000   0.000000
     63         75.226328       75.226330   0.000000   0.000000
     64         76.129825       76.129822   0.000000   0.000000
 
  0.2857143E+00  0.2857143E+00  0.2857143E+00  0.2332362E-01
      1        -48.774922      -48.774914   1.000000   1.000000
      2        -48.671754      -48.671747   1.000000   1.000000
      3        -23.249771      -23.249771   1.000000   1.000000
      4        -23.222490      -23.222489   1.000000   1.000000
      5        -23.218605      -23.218605   1.000000   1.000000
      6        -22.493736      -22.493735   1.000000   1.000000
      7        -22.489148      -22.489148   1.000000   1.000000
      8        -22.455164      -22.455164   1.000000   1.000000
      9          8.806226        8.806227   1.000000   1.000000
     10          8.966464        8.966464   1.000000   1.000000
     11          9.412565        9.412565   1.000000   1.000000
     12          9.413720        9.413720   1.000000   1.000000
     13          9.671494        9.671494   1.000000   1.000000
     14          9.672772        9.672772   1.000026   1.000026
     15         14.132495       14.132494   0.000000   0.000000
     16         14.137936       14.137935   0.000000   0.000000
     17         14.438795       14.438795   0.000000   0.000000
     18         14.442832       14.442832   0.000000   0.000000
     19         16.698999       16.698999   0.000000   0.000000
     20         22.428564       22.428564   0.000000   0.000000
     21         22.730833       22.730835   0.000000   0.000000
     22         22.732651       22.732652   0.000000   0.000000
     23         27.080260       27.080261   0.000000   0.000000
     24         27.081616       27.081617   0.000000   0.000000
     25         28.166116       28.166118   0.000000   0.000000
     26         30.728459       30.728460   0.000000   0.000000
     27         31.771068       31.771069   0.000000   0.000000
     28         32.443058       32.443058   0.000000   0.000000
     29         32.448703       32.448703   0.000000   0.000000
     30         38.362904       38.362904   0.000000   0.000000
     31         40.699691       40.699692   0.000000   0.000000
     32         40.709841       40.709842   0.000000   0.000000
     33         42.418119       42.418119   0.000000   0.000000
     34         42.891692       42.891694   0.000000   0.000000
     35         42.891994       42.891995   0.000000   0.000000
     36         44.271293       44.271293   0.000000   0.000000
     37         44.283415       44.283415   0.000000   0.000000
     38         45.747954       45.747954   0.000000   0.000000
     39         48.559876       48.559875   0.000000   0.000000
     40         50.888275       50.888275   0.000000   0.000000
     41         50.901779       50.901779   0.000000   0.000000
     42         53.126769       53.126770   0.000000   0.000000
     43         53.132681       53.132682   0.000000   0.000000
     44         55.728427       55.728425   0.000000   0.000000
     45         56.091057       56.091057   0.000000   0.000000
     46         56.106799       56.106799   0.000000   0.000000
     47         57.962039       57.962038   0.000000   0.000000
     48         58.806815       58.806816   0.000000   0.000000
     49         58.826162       58.826164   0.000000   0.000000
     50         60.377536       60.377535   0.000000   0.000000
     51         61.763243       61.763245   0.000000   0.000000
     52         61.772604       61.772606   0.000000   0.000000
     53         65.703109       65.703110   0.000000   0.000000
     54         66.034851       66.034852   0.000000   0.000000
     55         66.039930       66.039931   0.000000   0.000000
     56         66.196527       66.196526   0.000000   0.000000
     57         66.931114       66.931112   0.000000   0.000000
     58         70.650126       70.650126   0.000000   0.000000
     59         71.232185       71.232185   0.000000   0.000000
     60         71.232386       71.232385   0.000000   0.000000
     61         71.552703       71.552699   0.000000   0.000000
     62         75.224202       75.224201   0.000000   0.000000
     63         75.225068       75.225067   0.000000   0.000000
     64         77.287196       77.287201   0.000000   0.000000
 
  0.4285714E+00  0.2857143E+00  0.2857143E+00  0.6997085E-01
      1        -48.735240      -48.735233   1.000000   1.000000
      2        -48.698338      -48.698330   1.000000   1.000000
      3        -23.340698      -23.340698   1.000000   1.000000
      4        -23.339517      -23.339517   1.000000   1.000000
      5        -22.984325      -22.984325   1.000000   1.000000
      6        -22.723889      -22.723889   1.000000   1.000000
      7        -22.449613      -22.449613   1.000000   1.000000
      8        -22.426706      -22.426706   1.000000   1.000000
      9          8.503290        8.503290   1.000000   1.000000
     10          8.571901        8.571901   1.000000   1.000000
     11          9.396871        9.396871   1.000000   1.000000
     12          9.542465        9.542465   1.000000   1.000000
     13         10.292926       10.292927   1.000000   1.000000
     14         10.592802       10.592803   1.000000   1.000000
     15         13.945001       13.945000   0.000000   0.000000
     16         13.973336       13.973335   0.000000   0.000000
     17         14.601931       14.601930   0.000000   0.000000
     18         14.730982       14.730981   0.000000   0.000000
     19         18.333504       18.333504   0.000000   0.000000
     20         20.242898       20.242898   0.000000   0.000000
     21         23.033701       23.033702   0.000000   0.000000
     22         24.640461       24.640462   0.000000   0.000000
     23         24.772599       24.772600   0.000000   0.000000
     24         26.062606       26.062607   0.000000   0.000000
     25         27.683499       27.683500   0.000000   0.000000
     26         29.102088       29.102089   0.000000   0.000000
     27         32.408567       32.408567   0.000000   0.000000
     28         32.938988       32.938988   0.000000   0.000000
     29         34.812899       34.812900   0.000000   0.000000
     30         36.977851       36.977851   0.000000   0.000000
     31         39.888626       39.888627   0.000000   0.000000
     32         41.158709       41.158709   0.000000   0.000000
     33         41.366270       41.366270   0.000000   0.000000
     34         41.998510       41.998510   0.000000   0.000000
     35         44.645811       44.645812   0.000000   0.000000
     36         44.990821       44.990821   0.000000   0.000000
     37         46.207251       46.207252   0.000000   0.000000
     38         47.524425       47.524426   0.000000   0.000000
     39         47.743273       47.743273   0.000000   0.000000
     40         48.226740       48.226741   0.000000   0.000000
     41         48.893643       48.893643   0.000000   0.000000
     42         50.570151       50.570152   0.000000   0.000000
     43         52.777962       52.777963   0.000000   0.000000
     44         54.985881       54.985881   0.000000   0.000000
     45         57.949655       57.949656   0.000000   0.000000
     46         58.273465       58.273465   0.000000   0.000000
     47         58.360006       58.360007   0.000000   0.000000
     48         59.275980       59.275981   0.000000   0.000000
     49         59.621305       59.621305   0.000000   0.000000
     50         60.142293       60.142293   0.000000   0.000000
     51         60.833660       60.833662   0.000000   0.000000
     52         61.621724       61.621724   0.000000   0.000000
     53         64.465455       64.465456   0.000000   0.000000
     54         66.517374       66.517374   0.000000   0.000000
     55         67.058862       67.058862   0.000000   0.000000
     56         68.011596       68.011596   0.000000   0.000000
     57         68.390208       68.390208   0.000000   0.000000
     58         69.054855       69.054856   0.000000   0.000000
     59         70.532395       70.532395   0.000000   0.000000
     60         72.825503       72.825501   0.000000   0.000000
     61         74.237207       74.237209   0.000000   0.000000
     62         75.240947       75.240945   0.000000   0.000000
     63         76.332862       76.332862   0.000000   0.000000
     64         76.559249       76.559248   0.000000   0.000000
 
  0.4285714E+00  0.4285714E+00  0.2857143E+00  0.6997085E-01
      1        -48.716734      -48.716726   1.000000   1.000000
      2        -48.703555      -48.703547   1.000000   1.000000
      3        -23.354660      -23.354660   1.000000   1.000000
      4        -23.337012      -23.337012   1.000000   1.000000
      5        -22.927121      -22.927121   1.000000   1.000000
      6        -22.781709      -22.781708   1.000000   1.000000
      7        -22.525345      -22.525345   1.000000   1.000000
      8        -22.481680      -22.481680   1.000000   1.000000
      9          8.464123        8.464123   1.000000   1.000000
     10          8.665661        8.665662   1.000000   1.000000
     11          9.100124        9.100123   1.000000   1.000000
     12          9.364327        9.364327   1.000000   1.000000
     13         10.976719       10.976719   1.000000   1.000000
     14         11.102638       11.102639   1.000000   1.000000
     15         14.286870       14.286869   0.000000   0.000000
     16         14.347849       14.347848   0.000000   0.000000
     17         14.609920       14.609920   0.000000   0.000000
     18         14.693689       14.693689   0.000000   0.000000
     19         19.757234       19.757234   0.000000   0.000000
     20         20.720422       20.720422   0.000000   0.000000
     21         22.401976       22.401976   0.000000   0.000000
     22         23.317532       23.317532   0.000000   0.000000
     23         24.493698       24.493699   0.000000   0.000000
     24         25.471110       25.471111   0.000000   0.000000
     25         26.323054       26.323056   0.000000   0.000000
     26         27.340683       27.340684   0.000000   0.000000
     27         34.054042       34.054042   0.000000   0.000000
     28         34.663768       34.663769   0.000000   0.000000
     29         35.227133       35.227133   0.000000   0.000000
     30         36.789681       36.789682   0.000000   0.000000
     31         39.645862       39.645862   0.000000   0.000000
     32         39.954478       39.954478   0.000000   0.000000
     33         40.320542       40.320542   0.000000   0.000000
     34         40.567834       40.567834   0.000000   0.000000
     35         44.324502       44.324503   0.000000   0.000000
     36         45.163808       45.163808   0.000000   0.000000
     37         45.859562       45.859562   0.000000   0.000000
     38         46.467284       46.467284   0.000000   0.000000
     39         48.702283       48.702285   0.000000   0.000000
     40         49.656119       49.656120   0.000000   0.000000
     41         50.527348       50.527349   0.000000   0.000000
     42         51.866907       51.866907   0.000000   0.000000
     43         52.608668       52.608670   0.000000   0.000000
     44         54.554399       54.554397   0.000000   0.000000
     45         55.652594       55.652595   0.000000   0.000000
     46         56.459332       56.459331   0.000000   0.000000
     47         57.514179       57.514178   0.000000   0.000000
     48         59.042474       59.042474   0.000000   0.000000
     49         60.077727       60.077727   0.000000   0.000000
     50         63.215112       63.215113   0.000000   0.000000
     51         63.722973       63.722974   0.000000   0.000000
     52         63.947964       63.947965   0.000000   0.000000
     53         64.985937       64.985938   0.000000   0.000000
     54         65.539864       65.539865   0.000000   0.000000
     55         66.863453       66.863454   0.000000   0.000000
     56         67.048657       67.048657   0.000000   0.000000
     57         69.428121       69.428121   0.000000   0.000000
     58         70.255893       70.255893   0.000000   0.000000
     59         70.528287       70.528290   0.000000   0.000000
     60         70.608813       70.608812   0.000000   0.000000
     61         73.290872       73.290872   0.000000   0.000000
     62         74.378646       74.378645   0.000000   0.000000
     63         74.777821       74.777820   0.000000   0.000000
     64         75.889134       75.889132   0.000000   0.000000
 
  0.4285714E+00  0.4285714E+00  0.4285714E+00  0.2332362E-01
      1        -48.706033      -48.706026   1.000000   1.000000
      2        -48.701336      -48.701329   1.000000   1.000000
      3        -23.201229      -23.201229   1.000000   1.000000
      4        -23.076805      -23.076804   1.000000   1.000000
      5        -23.072442      -23.072442   1.000000   1.000000
      6        -22.786959      -22.786959   1.000000   1.000000
      7        -22.782295      -22.782294   1.000000   1.000000
      8        -22.651108      -22.651108   1.000000   1.000000
      9          8.950499        8.950499   1.000000   1.000000
     10          9.403298        9.403298   1.000000   1.000000
     11          9.404658        9.404658   1.000000   1.000000
     12         10.083792       10.083792   1.000000   1.000000
     13         10.086823       10.086823   1.000000   1.000000
     14         10.210320       10.210320   1.000000   1.000000
     15         14.635957       14.635957   0.000000   0.000000
     16         14.637643       14.637643   0.000000   0.000000
     17         14.639197       14.639196   0.000000   0.000000
     18         14.641482       14.641481   0.000000   0.000000
     19         21.367726       21.367726   0.000000   0.000000
     20         21.934327       21.934328   0.000000   0.000000
     21         22.778843       22.778844   0.000000   0.000000
     22         22.913797       22.913798   0.000000   0.000000
     23         22.915506       22.915506   0.000000   0.000000
     24         24.733360       24.733361   0.000000   0.000000
     25         24.738581       24.738582   0.000000   0.000000
     26         25.909945       25.909946   0.000000   0.000000
     27         35.158731       35.158731   0.000000   0.000000
     28         36.015849       36.015849   0.000000   0.000000
     29         36.024323       36.024323   0.000000   0.000000
     30         38.531824       38.531824   0.000000   0.000000
     31         39.031272       39.031272   0.000000   0.000000
     32         39.033899       39.033899   0.000000   0.000000
     33         40.564322       40.564322   0.000000   0.000000
     34         40.570831       40.570831   0.000000   0.000000
     35         41.239004       41.239004   0.000000   0.000000
     36         42.323743       42.323743   0.000000   0.000000
     37         42.773989       42.773989   0.000000   0.000000
     38         42.780779       42.780779   0.000000   0.000000
     39         52.592108       52.592109   0.000000   0.000000
     40         52.599329       52.599330   0.000000   0.000000
     41         52.819995       52.819994   0.000000   0.000000
     42         53.459147       53.459144   0.000000   0.000000
     43         55.322225       55.322227   0.000000   0.000000
     44         55.322752       55.322754   0.000000   0.000000
     45         56.578597       56.578597   0.000000   0.000000
     46         58.580077       58.580078   0.000000   0.000000
     47         58.588748       58.588748   0.000000   0.000000
     48         59.589286       59.589288   0.000000   0.000000
     49         59.593165       59.593167   0.000000   0.000000
     50         60.396726       60.396725   0.000000   0.000000
     51         62.424403       62.424402   0.000000   0.000000
     52         62.636613       62.636613   0.000000   0.000000
     53         62.636870       62.636870   0.000000   0.000000
     54         63.375330       63.375331   0.000000   0.000000
     55         66.086581       66.086582   0.000000   0.000000
     56         66.098588       66.098589   0.000000   0.000000
     57         70.201951       70.201951   0.000000   0.000000
     58         72.156012       72.156013   0.000000   0.000000
     59         72.169330       72.169331   0.000000   0.000000
     60         72.302806       72.302807   0.000000   0.000000
     61         72.316303       72.316304   0.000000   0.000000
     62         74.313787       74.313787   0.000000   0.000000
     63         74.317185       74.317186   0.000000   0.000000
     64         77.209407       77.209403   0.000000   0.000000
