       N       E                     dE             d eps       ncg     rms          rms(c)
DAV:   1     0.273890431651E+02    0.27389E+02   -0.20602E+04  5376   0.459E+02
DAV:   2    -0.159722241475E+02   -0.43361E+02   -0.43255E+02  7488   0.660E+01
DAV:   3    -0.159900094960E+02   -0.17785E-01   -0.17791E-01  5632   0.163E+00
DAV:   4    -0.159900150801E+02   -0.55841E-05   -0.55849E-05  9728   0.251E-02
DAV:   5    -0.159900150795E+02    0.58753E-09   -0.20218E-11  5504   0.172E-05    0.344E+01
RMM:   6    -0.216852205569E+02   -0.56952E+01   -0.41359E-01  5120   0.179E+00    0.137E+01
RMM:   7    -0.218458428147E+02   -0.16062E+00   -0.17441E-01  5120   0.130E+00    0.739E+00
RMM:   8    -0.218183714391E+02    0.27471E-01   -0.14057E-02  5120   0.397E-01    0.147E+00
RMM:   9    -0.218152634829E+02    0.31080E-02   -0.38633E-03  5120   0.193E-01    0.995E-01
RMM:  10    -0.218143004024E+02    0.96308E-03   -0.30287E-03  5120   0.198E-01    0.267E-01
RMM:  11    -0.218151133688E+02   -0.81297E-03   -0.73767E-04  5119   0.992E-02    0.872E-02
RMM:  12    -0.218151288249E+02   -0.15456E-04   -0.49618E-05  3458   0.277E-02
   1 F= -.21815129E+02 E0= -.21815129E+02  d E =-.218151E+02  mag=     0.0001
       N       E                     dE             d eps       ncg     rms          rms(c)
DAV:   1    -0.218231216764E+02   -0.80083E-02   -0.64303E-02  7552   0.786E-01    0.462E-01
RMM:   2    -0.218226805201E+02    0.44116E-03   -0.65959E-04  5119   0.896E-02    0.796E-02
RMM:   3    -0.218231299941E+02   -0.44947E-03   -0.16428E-04  4614   0.460E-02    0.681E-02
RMM:   4    -0.218233173207E+02   -0.18733E-03   -0.15367E-05  2757   0.151E-02    0.230E-02
RMM:   5    -0.218233737936E+02   -0.56473E-04   -0.95686E-07  1409   0.360E-03
   2 F= -.21823374E+02 E0= -.21823374E+02  d E =-.824497E-02  mag=     0.0000
       N       E                     dE             d eps       ncg     rms          rms(c)
DAV:   1    -0.218214898461E+02    0.18275E-02   -0.22381E-02  8576   0.465E-01    0.272E-01
RMM:   2    -0.218190358879E+02    0.24540E-02   -0.21938E-04  5009   0.515E-02    0.470E-02
RMM:   3    -0.218186652593E+02    0.37063E-03   -0.56132E-05  3017   0.268E-02    0.369E-02
RMM:   4    -0.218185487666E+02    0.11649E-03   -0.45727E-06  2504   0.847E-03    0.219E-03
RMM:   5    -0.218185274205E+02    0.21346E-04   -0.49781E-07  1016   0.259E-03
   3 F= -.21818527E+02 E0= -.21818527E+02  d E =-.339860E-02  mag=    -0.0000
