 vasp.6.3.2 27Jun22 (build Jun 20 2023 10:49:10) complex                        
  
 executed on             LinuxIFC date 2025.08.24  10:33:44
 running on   64 total cores
 distrk:  each k-point on   64 cores,    1 groups
 distr:  one band on NCORE=   1 cores,   64 groups


--------------------------------------------------------------------------------------------------------


 INCAR:
   ALGO = Fast
   EDIFF = 0.0001
   ENCUT = 520.0
   IBRION = 2
   ISIF = 3
   ISMEAR = -5
   ISPIN = 2
   LASPH = True
   LMAXMIX = 4
   LORBIT = 11
   LREAL = Auto
   LWAVE = False
   MAGMOM = 2*5.0
   NELM = 100
   NSW = 99
   PREC = Accurate
   SIGMA = 0.05

 POTCAR:    PAW_PBE Mo_sv 02Feb2006               
 -----------------------------------------------------------------------------
|                                                                             |
|           W    W    AA    RRRRR   N    N  II  N    N   GGGG   !!!           |
|           W    W   A  A   R    R  NN   N  II  NN   N  G    G  !!!           |
|           W    W  A    A  R    R  N N  N  II  N N  N  G       !!!           |
|           W WW W  AAAAAA  RRRRR   N  N N  II  N  N N  G  GGG   !            |
|           WW  WW  A    A  R   R   N   NN  II  N   NN  G    G                |
|           W    W  A    A  R    R  N    N  II  N    N   GGGG   !!!           |
|                                                                             |
|     For optimal performance we recommend to set                             |
|       NCORE = 2 up to number-of-cores-per-socket                            |
|     NCORE specifies how many cores store one orbital (NPAR=cpu/NCORE).      |
|     This setting can greatly improve the performance of VASP for DFT.       |
|     The default, NCORE=1 might be grossly inefficient on modern             |
|     multi-core architectures or massively parallel machines. Do your        |
|     own testing! More info at https://www.vasp.at/wiki/index.php/NCORE      |
|     Unfortunately you need to use the default for GW and RPA                |
|     calculations (for HF NCORE is supported but not extensively tested      |
|     yet).                                                                   |
|                                                                             |
 -----------------------------------------------------------------------------

 POTCAR:    PAW_PBE Mo_sv 02Feb2006               
   VRHFIN =Mo: 4p5s4d                                                                               
   LEXCH  = PE                                                                                      
   EATOM  =  1862.2866 eV,  136.8742 Ry                                                             
                                                                                                    
   TITEL  = PAW_PBE Mo_sv 02Feb2006                                                                 
   LULTRA =        F    use ultrasoft PP ?                                                          
   IUNSCR =        1    unscreen: 0-lin 1-nonlin 2-no                                               
   RPACOR =    2.200    partial core radius                                                         
   POMASS =   95.940; ZVAL   =   14.000    mass and valenz                                          
   RCORE  =    2.500    outmost cutoff radius                                                       
   RWIGS  =    2.750; RWIGS  =    1.455    wigner-seitz radius (au A)                               
   ENMAX  =  242.676; ENMIN  =  182.007 eV                                                          
   ICORE  =        3    local potential                                                             
   LCOR   =        T    correct aug charges                                                         
   LPAW   =        T    paw PP                                                                      
   EAUG   =  446.014                                                                                
   DEXC   =    0.000                                                                                
   RMAX   =    2.563    core radius for proj-oper                                                   
   RAUG   =    1.300    factor for augmentation sphere                                              
   RDEP   =    2.641    radius for radial grids                                                     
   RDEPT  =    2.031    core radius for aug-charge                                                  
                                                                                                    
   Atomic configuration                                                                             
   11 entries                                                                                       
     n  l   j            E        occ.                                                              
     1  0  0.50    -19819.0341   2.0000                                                             
     2  0  0.50     -2799.0127   2.0000                                                             
     2  1  1.50     -2502.0276   6.0000                                                             
     3  0  0.50      -476.4449   2.0000                                                             
     3  1  1.50      -379.1496   6.0000                                                             
     3  2  2.50      -220.9367  10.0000                                                             
     4  0  0.50       -64.3378   2.0000                                                             
     5  0  0.50        -4.0862   1.0000                                                             
     4  1  1.50       -38.4773   6.0000                                                             
     4  2  2.50        -3.7535   5.0000                                                             
     4  3  2.50        -1.3606   0.0000                                                             
   Description                                                                                      
     l       E           TYP  RCUT    TYP  RCUT                                                     
     0    -64.3377829     23  2.100                                                                 
     0     -4.0861640     23  2.400                                                                 
     1    -38.4772993     23  2.100                                                                 
     1     13.6058260     23  2.100                                                                 
     2     -3.7534941     23  2.400                                                                 
     2     -5.1140767     23  2.400                                                                 
     3     -4.0817478     23  2.500                                                                 
  local pseudopotential read in
  partial core-charges read in
  partial kinetic energy density read in
  atomic valenz-charges read in
  non local Contribution for L=           0  read in
    real space projection operators read in
  non local Contribution for L=           0  read in
    real space projection operators read in
  non local Contribution for L=           1  read in
    real space projection operators read in
  non local Contribution for L=           1  read in
    real space projection operators read in
  non local Contribution for L=           2  read in
    real space projection operators read in
  non local Contribution for L=           2  read in
    real space projection operators read in
    PAW grid and wavefunctions read in
 
   number of l-projection  operators is LMAX  =           6
   number of lm-projection operators is LMMAX =          18
 
 -----------------------------------------------------------------------------
|                                                                             |
|               ----> ADVICE to this user running VASP <----                  |
|                                                                             |
|     You have a (more or less) 'small supercell' and for smaller cells       |
|     it is recommended to use the reciprocal-space projection scheme!        |
|     The real-space optimization is not efficient for small cells and it     |
|     is also less accurate ...                                               |
|     Therefore, set LREAL=.FALSE. in the INCAR file.                         |
|                                                                             |
 -----------------------------------------------------------------------------

 Optimization of the real space projectors (new method)

 maximal supplied QI-value         = 15.12
 optimisation between [QCUT,QGAM] = [ 11.64, 23.28] = [ 37.95,151.78] Ry 
 Optimized for a Real-space Cutoff    1.53 Angstroem

   l    n(q)    QCUT    max X(q) W(low)/X(q) W(high)/X(q)  e(spline) 
   0     11    11.641     3.559    0.80E-05    0.27E-04    0.27E-06
   0     11    11.641    20.730    0.39E-04    0.26E-04    0.29E-06
   1     10    11.641     3.279    0.18E-05    0.27E-05    0.28E-07
   1     10    11.641     4.693    0.11E-03    0.12E-04    0.28E-06
   2     10    11.641    67.616    0.19E-03    0.29E-03    0.91E-06
   2     10    11.641    62.420    0.19E-03    0.29E-03    0.92E-06
  PAW_PBE Mo_sv 02Feb2006               :
 energy of atom  1       EATOM=-1862.2866
 kinetic energy error for atom=    0.0070 (will be added to EATOM!!)
 
 
 POSCAR: Mo2
  positions in direct lattice
  No initial velocities read in
 exchange correlation table for  LEXCH =        8
   RHO(1)=    0.500       N(1)  =     2000
   RHO(2)=  100.500       N(2)  =     4000

 VTST: version 4.1, (05/19/21)

 CHAIN: initializing optimizer
 
 OPT: Using VASP Conjugate-Gradient optimizer
 CHAIN: Read ICHAIN            0
 
 POSCAR: Mo2
  positions in direct lattice
  No initial velocities read in
 


--------------------------------------------------------------------------------------------------------


 ion  position               nearest neighbor table
   1  0.000  0.000  0.000-   2 2.74   2 2.74   2 2.74   2 2.74   2 2.74   2 2.74   2 2.74   2 2.74

   2  0.500  0.500  0.500-   1 2.74   1 2.74   1 2.74   1 2.74   1 2.74   1 2.74   1 2.74   1 2.74

 
  LATTYP: Found a simple cubic cell.
 ALAT       =     3.1676179438
  
  Lattice vectors:
  
 A1 = (   3.1676179438,   0.0000000000,   0.0000000000)
 A2 = (  -0.0000000000,   3.1676179438,   0.0000000000)
 A3 = (   0.0000000000,   0.0000000000,   3.1676179438)


Analysis of symmetry for initial positions (statically):
=====================================================================
 Subroutine PRICEL returns following result:
 
  LATTYP: Found a body centered cubic cell.
 ALAT       =     3.1676179438
  
  Lattice vectors:
  
 A1 = (   1.5838089719,   1.5838089719,  -1.5838089719)
 A2 = (  -1.5838089719,   1.5838089719,   1.5838089719)
 A3 = (   1.5838089719,  -1.5838089719,   1.5838089719)
 
   2 primitive cells build up your supercell.
 

 Routine SETGRP: Setting up the symmetry group for a 
 simple cubic supercell.


 Subroutine GETGRP returns: Found 48 space group operations
 (whereof 48 operations were pure point group operations)
 out of a pool of 48 trial point group operations.


The static configuration has the point symmetry O_h .


Analysis of symmetry for dynamics (positions and initial velocities):
=====================================================================
 Subroutine PRICEL returns following result:
 
  LATTYP: Found a body centered cubic cell.
 ALAT       =     3.1676179438
  
  Lattice vectors:
  
 A1 = (   1.5838089719,   1.5838089719,  -1.5838089719)
 A2 = (  -1.5838089719,   1.5838089719,   1.5838089719)
 A3 = (   1.5838089719,  -1.5838089719,   1.5838089719)
 
   2 primitive cells build up your supercell.
 

 Routine SETGRP: Setting up the symmetry group for a 
 simple cubic supercell.


 Subroutine GETGRP returns: Found 48 space group operations
 (whereof 48 operations were pure point group operations)
 out of a pool of 48 trial point group operations.


The dynamic configuration has the point symmetry O_h .


Analysis of structural, dynamic, and magnetic symmetry:
=====================================================================
 Subroutine PRICEL returns following result:
 
  LATTYP: Found a body centered cubic cell.
 ALAT       =     3.1676179438
  
  Lattice vectors:
  
 A1 = (   1.5838089719,   1.5838089719,  -1.5838089719)
 A2 = (  -1.5838089719,   1.5838089719,   1.5838089719)
 A3 = (   1.5838089719,  -1.5838089719,   1.5838089719)
 
   2 primitive cells build up your supercell.
 

 Routine SETGRP: Setting up the symmetry group for a 
 simple cubic supercell.


 Subroutine GETGRP returns: Found 48 space group operations
 (whereof 48 operations were pure point group operations)
 out of a pool of 48 trial point group operations.


The overall configuration has the point symmetry O_h .


 Subroutine INISYM returns: Found 48 space group operations
 (whereof 48 operations are pure point group operations),
 and found     2 'primitive' translations


----------------------------------------------------------------------------------------

                                     Primitive cell                                     

  volume of cell :      15.8916

  direct lattice vectors                    reciprocal lattice vectors
     1.583808972  1.583808972 -1.583808972     0.315694638  0.315694638 -0.000000000
    -1.583808972  1.583808972  1.583808972    -0.000000000  0.315694638  0.315694638
     1.583808972 -1.583808972  1.583808972     0.315694638  0.000000000  0.315694638

  length of vectors
     2.743237609  2.743237609  2.743237609     0.446459639  0.446459639  0.446459639

  position of ions in fractional coordinates (direct lattice)
     0.000000000  0.000000000  0.000000000

  ion indices of the primitive-cell ions
   primitive index   ion index
                 1           1

----------------------------------------------------------------------------------------

 
 
 KPOINTS: pymatgen with grid density = 999 / numbe

Automatic generation of k-mesh.
 Grid dimensions read from file:
 generate k-points for:    7    7    7

 Generating k-lattice:

  Cartesian coordinates                     Fractional coordinates (reciprocal lattice)
     0.045099234  0.000000000  0.000000000     0.142857143 -0.000000000  0.000000000
     0.000000000  0.045099234  0.000000000     0.000000000  0.142857143  0.000000000
    -0.000000000 -0.000000000  0.045099234     0.000000000  0.000000000  0.142857143

  Length of vectors
     0.045099234  0.045099234  0.045099234

  Shift w.r.t. Gamma in fractional coordinates (k-lattice)
     0.000000000  0.000000000  0.000000000

 TETIRR: Found    163 inequivalent tetrahedra from     2058
 
 Subroutine IBZKPT returns following result:
 ===========================================
 
 Found     20 irreducible k-points:
 
 Following reciprocal coordinates:
            Coordinates               Weight
  0.000000  0.000000  0.000000      1.000000
  0.142857  0.000000  0.000000      6.000000
  0.285714  0.000000  0.000000      6.000000
  0.428571  0.000000  0.000000      6.000000
  0.142857  0.142857  0.000000     12.000000
  0.285714  0.142857  0.000000     24.000000
  0.428571  0.142857  0.000000     24.000000
  0.285714  0.285714  0.000000     12.000000
  0.428571  0.285714  0.000000     24.000000
  0.428571  0.428571  0.000000     12.000000
  0.142857  0.142857  0.142857      8.000000
  0.285714  0.142857  0.142857     24.000000
  0.428571  0.142857  0.142857     24.000000
  0.285714  0.285714  0.142857     24.000000
  0.428571  0.285714  0.142857     48.000000
  0.428571  0.428571  0.142857     24.000000
  0.285714  0.285714  0.285714      8.000000
  0.428571  0.285714  0.285714     24.000000
  0.428571  0.428571  0.285714     24.000000
  0.428571  0.428571  0.428571      8.000000
 
 Following cartesian coordinates:
            Coordinates               Weight
  0.000000  0.000000  0.000000      1.000000
  0.045099  0.000000  0.000000      6.000000
  0.090198  0.000000  0.000000      6.000000
  0.135298  0.000000  0.000000      6.000000
  0.045099  0.045099  0.000000     12.000000
  0.090198  0.045099  0.000000     24.000000
  0.135298  0.045099  0.000000     24.000000
  0.090198  0.090198  0.000000     12.000000
  0.135298  0.090198  0.000000     24.000000
  0.135298  0.135298  0.000000     12.000000
  0.045099  0.045099  0.045099      8.000000
  0.090198  0.045099  0.045099     24.000000
  0.135298  0.045099  0.045099     24.000000
  0.090198  0.090198  0.045099     24.000000
  0.135298  0.090198  0.045099     48.000000
  0.135298  0.135298  0.045099     24.000000
  0.090198  0.090198  0.090198      8.000000
  0.135298  0.090198  0.090198     24.000000
  0.135298  0.135298  0.090198     24.000000
  0.135298  0.135298  0.135298      8.000000
 


--------------------------------------------------------------------------------------------------------




 Dimension of arrays:
   k-points           NKPTS =     20   k-points in BZ     NKDIM =     20   number of bands    NBANDS=     64
   number of dos      NEDOS =    301   number of ions     NIONS =      2
   non local maximal  LDIM  =      6   non local SUM 2l+1 LMDIM =     18
   total plane-waves  NPLWV =  13824
   max r-space proj   IRMAX =   6624   max aug-charges    IRDMAX=  19218
   dimension x,y,z NGX =    24 NGY =   24 NGZ =   24
   dimension x,y,z NGXF=    48 NGYF=   48 NGZF=   48
   support grid    NGXF=    48 NGYF=   48 NGZF=   48
   ions per type =               2
   NGX,Y,Z   is equivalent  to a cutoff of  12.60, 12.60, 12.60 a.u.
   NGXF,Y,Z  is equivalent  to a cutoff of  25.19, 25.19, 25.19 a.u.

 SYSTEM =  unknown system                          
 POSCAR =  Mo2                                     

 Startparameter for this run:
   NWRITE =      2    write-flag & timer
   PREC   = accura    normal or accurate (medium, high low for compatibility)
   ISTART =      0    job   : 0-new  1-cont  2-samecut
   ICHARG =      2    charge: 1-file 2-atom 10-const
   ISPIN  =      2    spin polarized calculation?
   LNONCOLLINEAR =      F non collinear calculations
   LSORBIT =      F    spin-orbit coupling
   INIWAV =      1    electr: 0-lowe 1-rand  2-diag
   LASPH  =      T    aspherical Exc in radial PAW
 Electronic Relaxation 1
   ENCUT  =  520.0 eV  38.22 Ry    6.18 a.u.   5.89  5.89  5.89*2*pi/ulx,y,z
   ENINI  =  520.0     initial cutoff
   ENAUG  =  446.0 eV  augmentation charge cutoff
   NELM   =    100;   NELMIN=  2; NELMDL= -5     # of ELM steps 
   EDIFF  = 0.1E-03   stopping-criterion for ELM
   LREAL  =      T    real-space projection
   NLSPLINE    = F    spline interpolate recip. space projectors
   LCOMPAT=      F    compatible to vasp.4.4
   GGA_COMPAT  = T    GGA compatible to vasp.4.4-vasp.4.6
   LMAXPAW     = -100 max onsite density
   LMAXMIX     =    4 max onsite mixed and CHGCAR
   VOSKOWN=      0    Vosko Wilk Nusair interpolation
   ROPT   =   -0.00025
 Ionic relaxation
   EDIFFG = 0.1E-02   stopping-criterion for IOM
   NSW    =     99    number of steps for IOM
   NBLOCK =      1;   KBLOCK =     99    inner block; outer block 
   IBRION =      2    ionic relax: 0-MD 1-quasi-New 2-CG
   NFREE  =      1    steps in history (QN), initial steepest desc. (CG)
   ISIF   =      3    stress and relaxation
   IWAVPR =     11    prediction:  0-non 1-charg 2-wave 3-comb
   ISYM   =      2    0-nonsym 1-usesym 2-fastsym
   LCORR  =      T    Harris-Foulkes like correction to forces

   POTIM  = 0.5000    time-step for ionic-motion
   TEIN   =    0.0    initial temperature
   TEBEG  =    0.0;   TEEND  =   0.0 temperature during run
   SMASS  =  -3.00    Nose mass-parameter (am)
   estimated Nose-frequenzy (Omega)   =  0.10E-29 period in steps = 0.13E+47 mass=  -0.229E-27a.u.
   SCALEE = 1.0000    scale energy and forces
   NPACO  =    256;   APACO  = 10.0  distance and # of slots for P.C.
   PSTRESS=    0.0 pullay stress

  Mass of Ions in am
   POMASS =  95.94
  Ionic Valenz
   ZVAL   =  14.00
  Atomic Wigner-Seitz radii
   RWIGS  =  -1.00
  virtual crystal weights 
   VCA    =   1.00
   NELECT =      28.0000    total number of electrons
   NUPDOWN=      -1.0000    fix difference up-down

 DOS related values:
   EMIN   =  10.00;   EMAX   =-10.00  energy-range for DOS
   EFERMI =   0.00
   ISMEAR =    -5;   SIGMA  =   0.05  broadening in eV -4-tet -1-fermi 0-gaus

 Electronic relaxation 2 (details)
   IALGO  =     68    algorithm
   LDIAG  =      T    sub-space diagonalisation (order eigenvalues)
   LSUBROT=      F    optimize rotation matrix (better conditioning)
   TURBO    =      0    0=normal 1=particle mesh
   IRESTART =      0    0=no restart 2=restart with 2 vectors
   NREBOOT  =      0    no. of reboots
   NMIN     =      0    reboot dimension
   EREF     =   0.00    reference energy to select bands
   IMIX   =      4    mixing-type and parameters
     AMIX     =   0.40;   BMIX     =  1.00
     AMIX_MAG =   1.60;   BMIX_MAG =  1.00
     AMIN     =   0.10
     WC   =   100.;   INIMIX=   1;  MIXPRE=   1;  MAXMIX= -45

 Intra band minimization:
   WEIMIN = 0.0010     energy-eigenvalue tresh-hold
   EBREAK =  0.39E-06  absolut break condition
   DEPER  =   0.30     relativ break condition  

   TIME   =   0.40     timestep for ELM

  volume/ion in A,a.u.               =      15.89       107.24
  Fermi-wavevector in a.u.,A,eV,Ry     =   1.569380  2.965698 33.510508  2.462953
  Thomas-Fermi vector in A             =   2.671271
 
 Write flags
   LWAVE        =      F    write WAVECAR
   LDOWNSAMPLE  =      F    k-point downsampling of WAVECAR
   LCHARG       =      T    write CHGCAR
   LVTOT        =      F    write LOCPOT, total local potential
   LVHAR        =      F    write LOCPOT, Hartree potential only
   LELF         =      F    write electronic localiz. function (ELF)
   LORBIT       =     11    0 simple, 1 ext, 2 COOP (PROOUT), +10 PAW based schemes


 Dipole corrections
   LMONO  =      F    monopole corrections only (constant potential shift)
   LDIPOL =      F    correct potential (dipole corrections)
   IDIPOL =      0    1-x, 2-y, 3-z, 4-all directions 
   EPSILON=  1.0000000 bulk dielectric constant

 Exchange correlation treatment:
   GGA     =    --    GGA type
   LEXCH   =     8    internal setting for exchange type
   LIBXC   =     F    Libxc                    
   VOSKOWN =     0    Vosko Wilk Nusair interpolation
   LHFCALC =     F    Hartree Fock is set to
   LHFONE  =     F    Hartree Fock one center treatment
   AEXX    =    0.0000 exact exchange contribution

 Linear response parameters
   LEPSILON=     F    determine dielectric tensor
   LRPA    =     F    only Hartree local field effects (RPA)
   LNABLA  =     F    use nabla operator in PAW spheres
   LVEL    =     F    velocity operator in full k-point grid
   CSHIFT  =0.1000    complex shift for real part using Kramers Kronig
   OMEGAMAX=  -1.0    maximum frequency
   DEG_THRESHOLD= 0.2000000E-02 threshold for treating states as degnerate
   RTIME   =   -0.100 relaxation time in fs
  (WPLASMAI=    0.000 imaginary part of plasma frequency in eV, 0.658/RTIME)
   DFIELD  = 0.0000000 0.0000000 0.0000000 field for delta impulse in time
 
  Optional k-point grid parameters
   LKPOINTS_OPT  =     F    use optional k-point grid
   KPOINTS_OPT_MODE=     1    mode for optional k-point grid
 
 Orbital magnetization related:
   ORBITALMAG=     F  switch on orbital magnetization
   LCHIMAG   =     F  perturbation theory with respect to B field
   DQ        =  0.001000  dq finite difference perturbation B field
   LLRAUG    =     F  two centre corrections for induced B field



--------------------------------------------------------------------------------------------------------


 conjugate gradient relaxation of ions
 charge density and potential will be updated during run
 spin polarized calculation
 RMM-DIIS sequential band-by-band and
  variant of blocked Davidson during initial phase
 perform sub-space diagonalisation
    before iterative eigenvector-optimisation
 modified Broyden-mixing scheme, WC =      100.0
 initial mixing is a Kerker type mixing with AMIX =  0.4000 and BMIX =      1.0000
 Hartree-type preconditioning will be used
 using additional bands           50
 real space projection scheme for non local part
 use partial core corrections
 calculate Harris-corrections to forces 
   (improved forces if not selfconsistent)
 use gradient corrections 
 use of overlap-Matrix (Vanderbilt PP)
 Fermi weights with tetrahedron method with Bloechl corrections


--------------------------------------------------------------------------------------------------------


  energy-cutoff  :      520.00
  volume of cell :       31.78
      direct lattice vectors                 reciprocal lattice vectors
     3.167617944  0.000000000  0.000000000     0.315694638  0.000000000  0.000000000
    -0.000000000  3.167617944  0.000000000     0.000000000  0.315694638  0.000000000
     0.000000000  0.000000000  3.167617944    -0.000000000 -0.000000000  0.315694638

  length of vectors
     3.167617944  3.167617944  3.167617944     0.315694638  0.315694638  0.315694638


 
 k-points in units of 2pi/SCALE and weight: pymatgen with grid density = 999 / numbe
   0.00000000  0.00000000  0.00000000       0.003
   0.04509923  0.00000000  0.00000000       0.017
   0.09019847  0.00000000  0.00000000       0.017
   0.13529770  0.00000000  0.00000000       0.017
   0.04509923  0.04509923  0.00000000       0.035
   0.09019847  0.04509923  0.00000000       0.070
   0.13529770  0.04509923  0.00000000       0.070
   0.09019847  0.09019847  0.00000000       0.035
   0.13529770  0.09019847  0.00000000       0.070
   0.13529770  0.13529770  0.00000000       0.035
   0.04509923  0.04509923  0.04509923       0.023
   0.09019847  0.04509923  0.04509923       0.070
   0.13529770  0.04509923  0.04509923       0.070
   0.09019847  0.09019847  0.04509923       0.070
   0.13529770  0.09019847  0.04509923       0.140
   0.13529770  0.13529770  0.04509923       0.070
   0.09019847  0.09019847  0.09019847       0.023
   0.13529770  0.09019847  0.09019847       0.070
   0.13529770  0.13529770  0.09019847       0.070
   0.13529770  0.13529770  0.13529770       0.023
 
 k-points in reciprocal lattice and weights: pymatgen with grid density = 999 / numbe
   0.00000000  0.00000000  0.00000000       0.003
   0.14285714  0.00000000  0.00000000       0.017
   0.28571429  0.00000000  0.00000000       0.017
   0.42857143  0.00000000  0.00000000       0.017
   0.14285714  0.14285714  0.00000000       0.035
   0.28571429  0.14285714  0.00000000       0.070
   0.42857143  0.14285714  0.00000000       0.070
   0.28571429  0.28571429  0.00000000       0.035
   0.42857143  0.28571429  0.00000000       0.070
   0.42857143  0.42857143  0.00000000       0.035
   0.14285714  0.14285714  0.14285714       0.023
   0.28571429  0.14285714  0.14285714       0.070
   0.42857143  0.14285714  0.14285714       0.070
   0.28571429  0.28571429  0.14285714       0.070
   0.42857143  0.28571429  0.14285714       0.140
   0.42857143  0.42857143  0.14285714       0.070
   0.28571429  0.28571429  0.28571429       0.023
   0.42857143  0.28571429  0.28571429       0.070
   0.42857143  0.42857143  0.28571429       0.070
   0.42857143  0.42857143  0.42857143       0.023
 
 position of ions in fractional coordinates (direct lattice) 
   0.00000000  0.00000000  0.00000000
   0.50000000  0.50000000  0.50000000
 
 position of ions in cartesian coordinates  (Angst):
   0.00000000  0.00000000  0.00000000
   1.58380897  1.58380897  1.58380897
 


--------------------------------------------------------------------------------------------------------


 k-point   1 :   0.0000 0.0000 0.0000  plane waves:     847
 k-point   2 :   0.1429 0.0000 0.0000  plane waves:     844
 k-point   3 :   0.2857 0.0000 0.0000  plane waves:     856
 k-point   4 :   0.4286 0.0000 0.0000  plane waves:     856
 k-point   5 :   0.1429 0.1429 0.0000  plane waves:     857
 k-point   6 :   0.2857 0.1429 0.0000  plane waves:     849
 k-point   7 :   0.4286 0.1429 0.0000  plane waves:     850
 k-point   8 :   0.2857 0.2857 0.0000  plane waves:     856
 k-point   9 :   0.4286 0.2857 0.0000  plane waves:     854
 k-point  10 :   0.4286 0.4286 0.0000  plane waves:     864
 k-point  11 :   0.1429 0.1429 0.1429  plane waves:     850
 k-point  12 :   0.2857 0.1429 0.1429  plane waves:     850
 k-point  13 :   0.4286 0.1429 0.1429  plane waves:     858
 k-point  14 :   0.2857 0.2857 0.1429  plane waves:     862
 k-point  15 :   0.4286 0.2857 0.1429  plane waves:     853
 k-point  16 :   0.4286 0.4286 0.1429  plane waves:     854
 k-point  17 :   0.2857 0.2857 0.2857  plane waves:     853
 k-point  18 :   0.4286 0.2857 0.2857  plane waves:     859
 k-point  19 :   0.4286 0.4286 0.2857  plane waves:     858
 k-point  20 :   0.4286 0.4286 0.4286  plane waves:     870

 maximum and minimum number of plane-waves per node :       870      844

 maximum number of plane-waves:       870
 maximum index in each direction: 
   IXMAX=    5   IYMAX=    5   IZMAX=    5
   IXMIN=   -6   IYMIN=   -6   IZMIN=   -6


 serial   3D FFT for wavefunctions
 parallel 3D FFT for charge:
    minimum data exchange during FFTs selected (reduces bandwidth)


 total amount of memory used by VASP MPI-rank0    34377. kBytes
=======================================================================

   base      :      30000. kBytes
   nonlr-proj:       2253. kBytes
   fftplans  :        153. kBytes
   grid      :       1295. kBytes
   one-center:         62. kBytes
   wavefun   :        614. kBytes
 
     INWAV:  cpu time      0.0000: real time      0.0000
 Broyden mixing: mesh for mixing (old mesh)
   NGX = 11   NGY = 11   NGZ = 11
  (NGX  = 48   NGY  = 48   NGZ  = 48)
  gives a total of   1331 points

 initial charge density was supplied:
 charge density of overlapping atoms calculated
 number of electron      28.0000000 magnetization      10.0000000
 keeping initial charge density in first step


--------------------------------------------------------------------------------------------------------


 Maximum index for non-local projection operator         6403
 Maximum index for augmentation-charges          845 (set IRDMAX)


--------------------------------------------------------------------------------------------------------


 First call to EWALD:  gamma=   0.560
 Maximum number of real-space cells 3x 3x 3
 Maximum number of reciprocal cells 3x 3x 3

    FEWALD:  cpu time      0.0017: real time      0.0021


--------------------------------------- Iteration      1(   1)  ---------------------------------------


    POTLOK:  cpu time      0.0228: real time      0.0335
    SETDIJ:  cpu time      0.6122: real time      0.6155
     EDDAV:  cpu time      4.1240: real time      4.1431
 BZINTS: Fermi energy:   14.251986;   28.000000 electrons
         Band energy:-0.269635E+03;  BLOECHL correction:   -0.271067
       DOS:  cpu time      0.0482: real time      0.0520
    --------------------------------------------
      LOOP:  cpu time      4.8072: real time      4.8442

 eigenvalue-minimisations  :  5376
 total energy-change (2. order) : 0.2738904E+02  (-0.2060164E+04)
 number of electron      28.0000000 magnetization      10.0000000
 augmentation part       28.0000000 magnetization      10.0000000

 Free energy of the ion-electron system (eV)
  ---------------------------------------------------
  alpha Z        PSCENC =       231.92906741
  Ewald energy   TEWEN  =     -3242.56931108
  -Hartree energ DENC   =      -590.67896294
  -exchange      EXHF   =         0.00000000
  -V(xc)+E(xc)   XCENC  =       136.86907254
  PAW double counting   =      2992.40853489    -2955.49391942
  entropy T*S    EENTRO =         0.00000000
  eigenvalues    EBANDS =      -269.63461289
  atomic energy  EATOM  =      3724.55917465
  Solvation  Ediel_sol  =         0.00000000
  ---------------------------------------------------
  free energy    TOTEN  =        27.38904317 eV

  energy without entropy =       27.38904317  energy(sigma->0) =       27.38904317


--------------------------------------------------------------------------------------------------------




--------------------------------------- Iteration      1(   2)  ---------------------------------------


     EDDAV:  cpu time      7.7345: real time      7.7814
 BZINTS: Fermi energy:   13.105888;   28.000000 electrons
         Band energy:-0.312996E+03;  BLOECHL correction:   -0.218848
       DOS:  cpu time      0.0479: real time      0.0479
    --------------------------------------------
      LOOP:  cpu time      7.7824: real time      7.8293

 eigenvalue-minimisations  :  7488
 total energy-change (2. order) :-0.4336127E+02  (-0.4325467E+02)
 number of electron      28.0000000 magnetization      10.0000000
 augmentation part       28.0000000 magnetization      10.0000000

 Free energy of the ion-electron system (eV)
  ---------------------------------------------------
  alpha Z        PSCENC =       231.92906741
  Ewald energy   TEWEN  =     -3242.56931108
  -Hartree energ DENC   =      -590.67896294
  -exchange      EXHF   =         0.00000000
  -V(xc)+E(xc)   XCENC  =       136.86907254
  PAW double counting   =      2992.40853489    -2955.49391942
  entropy T*S    EENTRO =         0.00000000
  eigenvalues    EBANDS =      -312.99588020
  atomic energy  EATOM  =      3724.55917465
  Solvation  Ediel_sol  =         0.00000000
  ---------------------------------------------------
  free energy    TOTEN  =       -15.97222415 eV

  energy without entropy =      -15.97222415  energy(sigma->0) =      -15.97222415


--------------------------------------------------------------------------------------------------------




--------------------------------------- Iteration      1(   3)  ---------------------------------------


     EDDAV:  cpu time      5.8622: real time      5.9527
 BZINTS: Fermi energy:   13.105554;   28.000000 electrons
         Band energy:-0.313014E+03;  BLOECHL correction:   -0.218830
       DOS:  cpu time      0.0465: real time      0.0467
    --------------------------------------------
      LOOP:  cpu time      5.9087: real time      5.9994

 eigenvalue-minimisations  :  5632
 total energy-change (2. order) :-0.1778535E-01  (-0.1779096E-01)
 number of electron      28.0000000 magnetization      10.0000000
 augmentation part       28.0000000 magnetization      10.0000000

 Free energy of the ion-electron system (eV)
  ---------------------------------------------------
  alpha Z        PSCENC =       231.92906741
  Ewald energy   TEWEN  =     -3242.56931108
  -Hartree energ DENC   =      -590.67896294
  -exchange      EXHF   =         0.00000000
  -V(xc)+E(xc)   XCENC  =       136.86907254
  PAW double counting   =      2992.40853489    -2955.49391942
  entropy T*S    EENTRO =         0.00000000
  eigenvalues    EBANDS =      -313.01366555
  atomic energy  EATOM  =      3724.55917465
  Solvation  Ediel_sol  =         0.00000000
  ---------------------------------------------------
  free energy    TOTEN  =       -15.99000950 eV

  energy without entropy =      -15.99000950  energy(sigma->0) =      -15.99000950


--------------------------------------------------------------------------------------------------------




--------------------------------------- Iteration      1(   4)  ---------------------------------------


     EDDAV:  cpu time     14.8253: real time     14.9195
 BZINTS: Fermi energy:   13.105554;   28.000000 electrons
         Band energy:-0.313014E+03;  BLOECHL correction:   -0.218830
       DOS:  cpu time      0.0478: real time      0.0481
    --------------------------------------------
      LOOP:  cpu time     14.8731: real time     14.9676

 eigenvalue-minimisations  :  9728
 total energy-change (2. order) :-0.5584066E-05  (-0.5584902E-05)
 number of electron      28.0000000 magnetization      10.0000000
 augmentation part       28.0000000 magnetization      10.0000000

 Free energy of the ion-electron system (eV)
  ---------------------------------------------------
  alpha Z        PSCENC =       231.92906741
  Ewald energy   TEWEN  =     -3242.56931108
  -Hartree energ DENC   =      -590.67896294
  -exchange      EXHF   =         0.00000000
  -V(xc)+E(xc)   XCENC  =       136.86907254
  PAW double counting   =      2992.40853489    -2955.49391942
  entropy T*S    EENTRO =         0.00000000
  eigenvalues    EBANDS =      -313.01367113
  atomic energy  EATOM  =      3724.55917465
  Solvation  Ediel_sol  =         0.00000000
  ---------------------------------------------------
  free energy    TOTEN  =       -15.99001508 eV

  energy without entropy =      -15.99001508  energy(sigma->0) =      -15.99001508


--------------------------------------------------------------------------------------------------------




--------------------------------------- Iteration      1(   5)  ---------------------------------------


     EDDAV:  cpu time      4.8851: real time      4.9105
 BZINTS: Fermi energy:   13.105554;   28.000000 electrons
         Band energy:-0.313014E+03;  BLOECHL correction:   -0.218830
       DOS:  cpu time      0.0478: real time      0.0478
    CHARGE:  cpu time      0.0275: real time      0.0352
    MIXING:  cpu time      0.0051: real time      0.0107
    --------------------------------------------
      LOOP:  cpu time      4.9657: real time      5.0042

 eigenvalue-minimisations  :  5504
 total energy-change (2. order) : 0.5875336E-09  (-0.2021780E-11)
 number of electron      28.0000009 magnetization      -0.0757717
 augmentation part        4.5902358 magnetization      -1.5519731

 Broyden mixing:
  rms(total) = 0.34384E+01    rms(broyden)= 0.34384E+01
  rms(prec ) = 0.38276E+01
  weight for this iteration     100.00

 Free energy of the ion-electron system (eV)
  ---------------------------------------------------
  alpha Z        PSCENC =       231.92906741
  Ewald energy   TEWEN  =     -3242.56931108
  -Hartree energ DENC   =      -590.67896294
  -exchange      EXHF   =         0.00000000
  -V(xc)+E(xc)   XCENC  =       136.86907254
  PAW double counting   =      2992.40853489    -2955.49391942
  entropy T*S    EENTRO =         0.00000000
  eigenvalues    EBANDS =      -313.01367113
  atomic energy  EATOM  =      3724.55917465
  Solvation  Ediel_sol  =         0.00000000
  ---------------------------------------------------
  free energy    TOTEN  =       -15.99001508 eV

  energy without entropy =      -15.99001508  energy(sigma->0) =      -15.99001508


--------------------------------------------------------------------------------------------------------




--------------------------------------- Iteration      1(   6)  ---------------------------------------


    POTLOK:  cpu time      0.0143: real time      0.0145
    SETDIJ:  cpu time      0.6090: real time      0.6128
    EDDIAG:  cpu time      0.3988: real time      0.4071
  RMM-DIIS:  cpu time      0.1981: real time      0.2037
    ORTHCH:  cpu time      0.0578: real time      0.0592
 BZINTS: Fermi energy:   12.711095;   28.000000 electrons
         Band energy:-0.339961E+03;  BLOECHL correction:   -0.052271
       DOS:  cpu time      0.0447: real time      0.0447
    CHARGE:  cpu time      0.0267: real time      0.0269
    MIXING:  cpu time      0.0017: real time      0.0027
    --------------------------------------------
      LOOP:  cpu time      1.3511: real time      1.3716

 eigenvalue-minimisations  :  5120
 total energy-change (2. order) :-0.5695205E+01  (-0.4135922E-01)
 number of electron      28.0000009 magnetization       0.0827943
 augmentation part        4.7577577 magnetization      -0.0639405

 Broyden mixing:
  rms(total) = 0.13696E+01    rms(broyden)= 0.13696E+01
  rms(prec ) = 0.15981E+01
  weight for this iteration     100.00

 eigenvalues of (default mixing * dielectric matrix)
  average eigenvalue GAMMA=   0.7510
  0.7510

 Free energy of the ion-electron system (eV)
  ---------------------------------------------------
  alpha Z        PSCENC =       231.92906741
  Ewald energy   TEWEN  =     -3242.56931108
  -Hartree energ DENC   =      -560.10964148
  -exchange      EXHF   =         0.00000000
  -V(xc)+E(xc)   XCENC  =       131.99014265
  PAW double counting   =      3216.16985393    -3183.69363370
  entropy T*S    EENTRO =         0.00000000
  eigenvalues    EBANDS =      -339.96087294
  atomic energy  EATOM  =      3724.55917465
  Solvation  Ediel_sol  =         0.00000000
  ---------------------------------------------------
  free energy    TOTEN  =       -21.68522056 eV

  energy without entropy =      -21.68522056  energy(sigma->0) =      -21.68522056


--------------------------------------------------------------------------------------------------------




--------------------------------------- Iteration      1(   7)  ---------------------------------------


    POTLOK:  cpu time      0.0143: real time      0.0146
    SETDIJ:  cpu time      0.6178: real time      0.6201
    EDDIAG:  cpu time      0.3873: real time      0.3935
  RMM-DIIS:  cpu time      0.2667: real time      0.2803
    ORTHCH:  cpu time      0.0695: real time      0.0706
 BZINTS: Fermi energy:   12.496550;   28.000000 electrons
         Band energy:-0.349298E+03;  BLOECHL correction:   -0.057297
       DOS:  cpu time      0.0455: real time      0.0481
    CHARGE:  cpu time      0.0237: real time      0.0237
    MIXING:  cpu time      0.0005: real time      0.0005
    --------------------------------------------
      LOOP:  cpu time      1.4252: real time      1.4514

 eigenvalue-minimisations  :  5120
 total energy-change (2. order) :-0.1606223E+00  (-0.1744097E-01)
 number of electron      28.0000009 magnetization       0.0153973
 augmentation part        4.8456599 magnetization       0.0251973

 Broyden mixing:
  rms(total) = 0.73915E+00    rms(broyden)= 0.73915E+00
  rms(prec ) = 0.83789E+00
  weight for this iteration     100.00

 eigenvalues of (default mixing * dielectric matrix)
  average eigenvalue GAMMA=   0.7592
  0.9441  0.5743

 Free energy of the ion-electron system (eV)
  ---------------------------------------------------
  alpha Z        PSCENC =       231.92906741
  Ewald energy   TEWEN  =     -3242.56931108
  -Hartree energ DENC   =      -548.18826906
  -exchange      EXHF   =         0.00000000
  -V(xc)+E(xc)   XCENC  =       131.21719819
  PAW double counting   =      3255.31046965    -3224.80637060
  entropy T*S    EENTRO =         0.00000000
  eigenvalues    EBANDS =      -349.29780197
  atomic energy  EATOM  =      3724.55917465
  Solvation  Ediel_sol  =         0.00000000
  ---------------------------------------------------
  free energy    TOTEN  =       -21.84584281 eV

  energy without entropy =      -21.84584281  energy(sigma->0) =      -21.84584281


--------------------------------------------------------------------------------------------------------




--------------------------------------- Iteration      1(   8)  ---------------------------------------


    POTLOK:  cpu time      0.0129: real time      0.0141
    SETDIJ:  cpu time      0.6080: real time      0.6304
    EDDIAG:  cpu time      0.4336: real time      0.4512
  RMM-DIIS:  cpu time      0.1982: real time      0.2035
    ORTHCH:  cpu time      0.0544: real time      0.0559
 BZINTS: Fermi energy:   12.397579;   28.000000 electrons
         Band energy:-0.353588E+03;  BLOECHL correction:   -0.062004
       DOS:  cpu time      0.0451: real time      0.0467
    CHARGE:  cpu time      0.0238: real time      0.0242
    MIXING:  cpu time      0.0004: real time      0.0004
    --------------------------------------------
      LOOP:  cpu time      1.3764: real time      1.4265

 eigenvalue-minimisations  :  5120
 total energy-change (2. order) : 0.2747138E-01  (-0.1405659E-02)
 number of electron      28.0000009 magnetization      -0.0114397
 augmentation part        4.8883464 magnetization       0.0011472

 Broyden mixing:
  rms(total) = 0.14729E+00    rms(broyden)= 0.14728E+00
  rms(prec ) = 0.24069E+00
  weight for this iteration     100.00

 eigenvalues of (default mixing * dielectric matrix)
  average eigenvalue GAMMA=   0.8670
  1.1386  0.8452  0.6171

 Free energy of the ion-electron system (eV)
  ---------------------------------------------------
  alpha Z        PSCENC =       231.92906741
  Ewald energy   TEWEN  =     -3242.56931108
  -Hartree energ DENC   =      -542.55478474
  -exchange      EXHF   =         0.00000000
  -V(xc)+E(xc)   XCENC  =       130.91956780
  PAW double counting   =      3266.55671983    -3237.07042152
  entropy T*S    EENTRO =         0.00000000
  eigenvalues    EBANDS =      -353.58838379
  atomic energy  EATOM  =      3724.55917465
  Solvation  Ediel_sol  =         0.00000000
  ---------------------------------------------------
  free energy    TOTEN  =       -21.81837144 eV

  energy without entropy =      -21.81837144  energy(sigma->0) =      -21.81837144


--------------------------------------------------------------------------------------------------------




--------------------------------------- Iteration      1(   9)  ---------------------------------------


    POTLOK:  cpu time      0.0126: real time      0.0129
    SETDIJ:  cpu time      0.5992: real time      0.6247
    EDDIAG:  cpu time      0.3774: real time      0.3908
  RMM-DIIS:  cpu time      0.1991: real time      0.2041
    ORTHCH:  cpu time      0.0535: real time      0.0545
 BZINTS: Fermi energy:   12.354750;   28.000000 electrons
         Band energy:-0.355254E+03;  BLOECHL correction:   -0.064344
       DOS:  cpu time      0.0454: real time      0.0463
    CHARGE:  cpu time      0.0233: real time      0.0240
    MIXING:  cpu time      0.0005: real time      0.0005
    --------------------------------------------
      LOOP:  cpu time      1.3110: real time      1.3578

 eigenvalue-minimisations  :  5120
 total energy-change (2. order) : 0.3107956E-02  (-0.3863324E-03)
 number of electron      28.0000009 magnetization       0.0126028
 augmentation part        4.9022763 magnetization       0.0097575

 Broyden mixing:
  rms(total) = 0.99480E-01    rms(broyden)= 0.99480E-01
  rms(prec ) = 0.13290E+00
  weight for this iteration     100.00

 eigenvalues of (default mixing * dielectric matrix)
  average eigenvalue GAMMA=   1.0651
  0.6191  0.8153  1.4131  1.4131

 Free energy of the ion-electron system (eV)
  ---------------------------------------------------
  alpha Z        PSCENC =       231.92906741
  Ewald energy   TEWEN  =     -3242.56931108
  -Hartree energ DENC   =      -540.23731037
  -exchange      EXHF   =         0.00000000
  -V(xc)+E(xc)   XCENC  =       130.79380049
  PAW double counting   =      3263.63818988    -3234.67446468
  entropy T*S    EENTRO =         0.00000000
  eigenvalues    EBANDS =      -355.25440978
  atomic energy  EATOM  =      3724.55917465
  Solvation  Ediel_sol  =         0.00000000
  ---------------------------------------------------
  free energy    TOTEN  =       -21.81526348 eV

  energy without entropy =      -21.81526348  energy(sigma->0) =      -21.81526348


--------------------------------------------------------------------------------------------------------




--------------------------------------- Iteration      1(  10)  ---------------------------------------


    POTLOK:  cpu time      0.0126: real time      0.0137
    SETDIJ:  cpu time      0.6063: real time      0.6260
    EDDIAG:  cpu time      0.3740: real time      0.3975
  RMM-DIIS:  cpu time      0.2019: real time      0.2087
    ORTHCH:  cpu time      0.0541: real time      0.0572
 BZINTS: Fermi energy:   12.343670;   28.000000 electrons
         Band energy:-0.355451E+03;  BLOECHL correction:   -0.065096
       DOS:  cpu time      0.0455: real time      0.0460
    CHARGE:  cpu time      0.0232: real time      0.0232
    MIXING:  cpu time      0.0005: real time      0.0005
    --------------------------------------------
      LOOP:  cpu time      1.3181: real time      1.3728

 eigenvalue-minimisations  :  5120
 total energy-change (2. order) : 0.9630805E-03  (-0.3028743E-03)
 number of electron      28.0000009 magnetization      -0.0001616
 augmentation part        4.9010893 magnetization       0.0006507

 Broyden mixing:
  rms(total) = 0.26748E-01    rms(broyden)= 0.26747E-01
  rms(prec ) = 0.31953E-01
  weight for this iteration     100.00

 eigenvalues of (default mixing * dielectric matrix)
  average eigenvalue GAMMA=   1.2473
  2.4165  1.4773  0.6288  0.9623  0.7518

 Free energy of the ion-electron system (eV)
  ---------------------------------------------------
  alpha Z        PSCENC =       231.92906741
  Ewald energy   TEWEN  =     -3242.56931108
  -Hartree energ DENC   =      -539.78852304
  -exchange      EXHF   =         0.00000000
  -V(xc)+E(xc)   XCENC  =       130.76585753
  PAW double counting   =      3252.75518074    -3224.01442083
  entropy T*S    EENTRO =         0.00000000
  eigenvalues    EBANDS =      -355.45132578
  atomic energy  EATOM  =      3724.55917465
  Solvation  Ediel_sol  =         0.00000000
  ---------------------------------------------------
  free energy    TOTEN  =       -21.81430040 eV

  energy without entropy =      -21.81430040  energy(sigma->0) =      -21.81430040


--------------------------------------------------------------------------------------------------------




--------------------------------------- Iteration      1(  11)  ---------------------------------------


    POTLOK:  cpu time      0.0138: real time      0.0154
    SETDIJ:  cpu time      0.6090: real time      0.6331
    EDDIAG:  cpu time      0.4998: real time      0.5183
  RMM-DIIS:  cpu time      0.2187: real time      0.2282
    ORTHCH:  cpu time      0.0545: real time      0.0585
 BZINTS: Fermi energy:   12.339413;   28.000000 electrons
         Band energy:-0.355582E+03;  BLOECHL correction:   -0.065345
       DOS:  cpu time      0.0458: real time      0.0472
    CHARGE:  cpu time      0.0240: real time      0.0249
    MIXING:  cpu time      0.0006: real time      0.0006
    --------------------------------------------
      LOOP:  cpu time      1.4662: real time      1.5263

 eigenvalue-minimisations  :  5119
 total energy-change (2. order) :-0.8129664E-03  (-0.7376737E-04)
 number of electron      28.0000009 magnetization       0.0001368
 augmentation part        4.9018658 magnetization      -0.0001756

 Broyden mixing:
  rms(total) = 0.87201E-02    rms(broyden)= 0.87188E-02
  rms(prec ) = 0.92193E-02
  weight for this iteration     100.00

 eigenvalues of (default mixing * dielectric matrix)
  average eigenvalue GAMMA=   1.1964
  2.4916  1.5283  0.9787  0.6217  0.8387  0.7196

 Free energy of the ion-electron system (eV)
  ---------------------------------------------------
  alpha Z        PSCENC =       231.92906741
  Ewald energy   TEWEN  =     -3242.56931108
  -Hartree energ DENC   =      -539.60762022
  -exchange      EXHF   =         0.00000000
  -V(xc)+E(xc)   XCENC  =       130.75589664
  PAW double counting   =      3250.03581243    -3221.33643985
  entropy T*S    EENTRO =         0.00000000
  eigenvalues    EBANDS =      -355.58169335
  atomic energy  EATOM  =      3724.55917465
  Solvation  Ediel_sol  =         0.00000000
  ---------------------------------------------------
  free energy    TOTEN  =       -21.81511337 eV

  energy without entropy =      -21.81511337  energy(sigma->0) =      -21.81511337


--------------------------------------------------------------------------------------------------------




--------------------------------------- Iteration      1(  12)  ---------------------------------------


    POTLOK:  cpu time      0.0134: real time      0.0150
    SETDIJ:  cpu time      0.6037: real time      0.6267
    EDDIAG:  cpu time      0.3848: real time      0.3976
  RMM-DIIS:  cpu time      0.1755: real time      0.1797
    ORTHCH:  cpu time      0.2004: real time      0.2056
 BZINTS: Fermi energy:   12.339145;   28.000000 electrons
         Band energy:-0.355594E+03;  BLOECHL correction:   -0.065347
       DOS:  cpu time      0.0462: real time      0.0493
    --------------------------------------------
      LOOP:  cpu time      1.4242: real time      1.4738

 eigenvalue-minimisations  :  3458
 total energy-change (2. order) :-0.1545612E-04  (-0.4961797E-05)
 number of electron      28.0000009 magnetization       0.0001368
 augmentation part        4.9018658 magnetization      -0.0001756

 Free energy of the ion-electron system (eV)
  ---------------------------------------------------
  alpha Z        PSCENC =       231.92906741
  Ewald energy   TEWEN  =     -3242.56931108
  -Hartree energ DENC   =      -539.60858832
  -exchange      EXHF   =         0.00000000
  -V(xc)+E(xc)   XCENC  =       130.75614540
  PAW double counting   =      3249.54462887    -3220.83214230
  entropy T*S    EENTRO =         0.00000000
  eigenvalues    EBANDS =      -355.59410346
  atomic energy  EATOM  =      3724.55917465
  Solvation  Ediel_sol  =         0.00000000
  ---------------------------------------------------
  free energy    TOTEN  =       -21.81512882 eV

  energy without entropy =      -21.81512882  energy(sigma->0) =      -21.81512882


--------------------------------------------------------------------------------------------------------




 average (electrostatic) potential at core
  the test charge radii are     1.0818
  (the norm of the test charge is              1.0000)
       1 -69.5124       2 -69.5124
 
 
 
 E-fermi :  12.3391     XC(G=0): -13.3029     alpha+bet :-19.6609

 Fermi energy:        12.3391454064

 spin component 1

 k-point     1 :       0.0000    0.0000    0.0000
  band No.  band energies     occupation 
      1     -48.9814      1.00000
      2     -48.5598      1.00000
      3     -23.2004      1.00000
      4     -23.2004      1.00000
      5     -23.2004      1.00000
      6     -22.2836      1.00000
      7     -22.2836      1.00000
      8     -22.2836      1.00000
      9       5.1478      1.00000
     10       7.0090      1.00000
     11       7.0090      1.00000
     12      10.9792      1.00000
     13      10.9792      1.00000
     14      10.9792      1.00079
     15      13.9444      0.00000
     16      13.9444      0.00000
     17      16.1931      0.00000
     18      16.1931      0.00000
     19      16.1931      0.00000
     20      21.2628      0.00000
     21      21.2628      0.00000
     22      21.2628      0.00000
     23      27.1372      0.00000
     24      27.1372      0.00000
     25      27.1372      0.00000
     26      31.7164      0.00000
     27      32.8067      0.00000
     28      32.8067      0.00000
     29      35.6398      0.00000
     30      38.4658      0.00000
     31      38.4658      0.00000
     32      41.8687      0.00000
     33      41.8687      0.00000
     34      41.8687      0.00000
     35      48.1379      0.00000
     36      48.1379      0.00000
     37      48.1379      0.00000
     38      48.8570      0.00000
     39      48.8570      0.00000
     40      48.8570      0.00000
     41      52.2035      0.00000
     42      54.4175      0.00000
     43      54.4175      0.00000
     44      54.4175      0.00000
     45      57.0012      0.00000
     46      57.0012      0.00000
     47      57.0012      0.00000
     48      58.5377      0.00000
     49      58.5377      0.00000
     50      58.5377      0.00000
     51      60.8639      0.00000
     52      64.3693      0.00000
     53      64.9222      0.00000
     54      64.9222      0.00000
     55      64.9222      0.00000
     56      69.1571      0.00000
     57      69.1571      0.00000
     58      69.1571      0.00000
     59      70.5664      0.00000
     60      70.5664      0.00000
     61      73.2515      0.00000
     62      73.2515      0.00000
     63      74.5374      0.00000
     64      74.5374      0.00000

 k-point     2 :       0.1429    0.0000    0.0000
  band No.  band energies     occupation 
      1     -48.9575      1.00000
      2     -48.5775      1.00000
      3     -23.2017      1.00000
      4     -23.1537      1.00000
      5     -23.1537      1.00000
      6     -22.3789      1.00000
      7     -22.3273      1.00000
      8     -22.3273      1.00000
      9       5.5855      1.00000
     10       7.2434      1.00000
     11       7.3793      1.00000
     12      10.9578      1.00000
     13      10.9578      1.00000
     14      11.1730      1.00079
     15      13.3836     -0.01407
     16      14.1440      0.00000
     17      15.1417      0.00000
     18      15.1417      0.00000
     19      15.8288      0.00000
     20      20.1240      0.00000
     21      22.8027      0.00000
     22      22.8027      0.00000
     23      27.5943      0.00000
     24      27.8691      0.00000
     25      27.8691      0.00000
     26      31.4284      0.00000
     27      32.5675      0.00000
     28      33.6472      0.00000
     29      34.8206      0.00000
     30      36.2423      0.00000
     31      39.2796      0.00000
     32      41.2431      0.00000
     33      41.2431      0.00000
     34      44.5584      0.00000
     35      47.1432      0.00000
     36      47.1432      0.00000
     37      47.2724      0.00000
     38      47.4123      0.00000
     39      47.4123      0.00000
     40      49.1339      0.00000
     41      52.2556      0.00000
     42      52.2556      0.00000
     43      53.2932      0.00000
     44      54.9724      0.00000
     45      56.7047      0.00000
     46      58.1293      0.00000
     47      59.6210      0.00000
     48      59.6210      0.00000
     49      60.6076      0.00000
     50      60.6076      0.00000
     51      61.8884      0.00000
     52      63.3084      0.00000
     53      63.3084      0.00000
     54      64.4834      0.00000
     55      65.1448      0.00000
     56      66.5231      0.00000
     57      69.4575      0.00000
     58      70.0136      0.00000
     59      70.5054      0.00000
     60      70.9855      0.00000
     61      70.9855      0.00000
     62      72.6942      0.00000
     63      73.1708      0.00000
     64      73.1708      0.00000

 k-point     3 :       0.2857    0.0000    0.0000
  band No.  band energies     occupation 
      1     -48.8923      1.00000
      2     -48.6290      1.00000
      3     -23.1796      1.00000
      4     -23.0232      1.00000
      5     -23.0232      1.00000
      6     -22.6150      1.00000
      7     -22.4507      1.00000
      8     -22.4507      1.00000
      9       6.7452      1.00000
     10       7.9346      1.00000
     11       8.2428      1.00000
     12      11.0102      1.00000
     13      11.0102      1.00000
     14      11.7391      1.00309
     15      12.0394      0.56664
     16      13.4895     -0.02532
     17      13.4895      0.00000
     18      14.6583      0.00000
     19      14.9013      0.00000
     20      17.9597      0.00000
     21      25.8696      0.00000
     22      25.8696      0.00000
     23      28.6424      0.00000
     24      29.2504      0.00000
     25      29.7869      0.00000
     26      29.7869      0.00000
     27      30.5394      0.00000
     28      31.9061      0.00000
     29      37.3275      0.00000
     30      37.8637      0.00000
     31      39.0178      0.00000
     32      39.0178      0.00000
     33      41.6752      0.00000
     34      43.5654      0.00000
     35      43.5654      0.00000
     36      45.1967      0.00000
     37      46.5494      0.00000
     38      46.5571      0.00000
     39      46.5571      0.00000
     40      49.3635      0.00000
     41      50.3758      0.00000
     42      50.3758      0.00000
     43      51.7556      0.00000
     44      54.6044      0.00000
     45      56.6315      0.00000
     46      61.3995      0.00000
     47      61.3995      0.00000
     48      61.4103      0.00000
     49      61.6503      0.00000
     50      62.9668      0.00000
     51      63.6089      0.00000
     52      63.6089      0.00000
     53      64.3585      0.00000
     54      64.3585      0.00000
     55      65.5394      0.00000
     56      66.7938      0.00000
     57      67.2897      0.00000
     58      68.0879      0.00000
     59      69.2059      0.00000
     60      69.2067      0.00000
     61      70.3578      0.00000
     62      73.9811      0.00000
     63      73.9811      0.00000
     64      74.1199      0.00000

 k-point     4 :       0.4286    0.0000    0.0000
  band No.  band energies     occupation 
      1     -48.8022      1.00000
      2     -48.7081      1.00000
      3     -23.0819      1.00000
      4     -22.8817      1.00000
      5     -22.8364      1.00000
      6     -22.8364      1.00000
      7     -22.6319      1.00000
      8     -22.6319      1.00000
      9       8.1216      1.00000
     10       8.7802      1.00000
     11       9.0407      1.00000
     12      10.4708      1.00000
     13      11.3621      1.00000
     14      11.3621      1.00000
     15      12.1757      0.85396
     16      12.1757      0.52728
     17      12.6283      0.00000
     18      13.7413      0.00000
     19      15.2839      0.00000
     20      16.1931      0.00000
     21      27.5954      0.00000
     22      27.8778      0.00000
     23      29.2622      0.00000
     24      29.2622      0.00000
     25      29.8283      0.00000
     26      30.9510      0.00000
     27      31.3480      0.00000
     28      31.3480      0.00000
     29      37.0680      0.00000
     30      37.0680      0.00000
     31      39.3618      0.00000
     32      39.3618      0.00000
     33      40.1213      0.00000
     34      41.9190      0.00000
     35      42.6669      0.00000
     36      45.4354      0.00000
     37      46.4058      0.00000
     38      47.2948      0.00000
     39      47.2948      0.00000
     40      48.6425      0.00000
     41      48.7113      0.00000
     42      48.7113      0.00000
     43      49.0497      0.00000
     44      50.1028      0.00000
     45      59.3357      0.00000
     46      61.5295      0.00000
     47      62.3309      0.00000
     48      62.3309      0.00000
     49      62.4598      0.00000
     50      62.7846      0.00000
     51      62.9938      0.00000
     52      64.3469      0.00000
     53      64.3469      0.00000
     54      64.7056      0.00000
     55      66.0410      0.00000
     56      66.0410      0.00000
     57      67.8869      0.00000
     58      67.8869      0.00000
     59      71.1924      0.00000
     60      71.8553      0.00000
     61      73.9409      0.00000
     62      74.3504      0.00000
     63      74.5844      0.00000
     64      74.5844      0.00000

 k-point     5 :       0.1429    0.1429    0.0000
  band No.  band energies     occupation 
      1     -48.9357      1.00000
      2     -48.5930      1.00000
      3     -23.2798      1.00000
      4     -23.1108      1.00000
      5     -23.0371      1.00000
      6     -22.5475      1.00000
      7     -22.3658      1.00000
      8     -22.2855      1.00000
      9       5.9770      1.00000
     10       7.5025      1.00000
     11       7.6998      1.00000
     12      10.5295      1.00000
     13      10.8571      1.00000
     14      11.7921      1.00396
     15      13.4552     -0.01906
     16      13.8644      0.00000
     17      13.9720      0.00000
     18      14.2436      0.00000
     19      16.3248      0.00000
     20      20.8777      0.00000
     21      22.1089      0.00000
     22      23.6671      0.00000
     23      27.5969      0.00000
     24      28.4365      0.00000
     25      28.5756      0.00000
     26      31.5706      0.00000
     27      32.0565      0.00000
     28      34.5097      0.00000
     29      34.8732      0.00000
     30      36.6008      0.00000
     31      36.8048      0.00000
     32      40.2086      0.00000
     33      41.7129      0.00000
     34      45.4947      0.00000
     35      45.5102      0.00000
     36      46.0157      0.00000
     37      47.0439      0.00000
     38      47.3555      0.00000
     39      47.9392      0.00000
     40      50.5046      0.00000
     41      51.2348      0.00000
     42      51.2552      0.00000
     43      54.7733      0.00000
     44      55.4387      0.00000
     45      55.9574      0.00000
     46      58.2030      0.00000
     47      59.2616      0.00000
     48      60.6216      0.00000
     49      60.6527      0.00000
     50      60.7760      0.00000
     51      60.7854      0.00000
     52      62.8939      0.00000
     53      63.7972      0.00000
     54      66.2905      0.00000
     55      66.3569      0.00000
     56      66.7856      0.00000
     57      67.5228      0.00000
     58      67.9599      0.00000
     59      68.0390      0.00000
     60      69.9151      0.00000
     61      70.3718      0.00000
     62      72.1782      0.00000
     63      73.5570      0.00000
     64      74.8630      0.00000

 k-point     6 :       0.2857    0.1429    0.0000
  band No.  band energies     occupation 
      1     -48.8759      1.00000
      2     -48.6384      1.00000
      3     -23.3191      1.00000
      4     -22.9915      1.00000
      5     -22.8658      1.00000
      6     -22.8192      1.00000
      7     -22.4753      1.00000
      8     -22.3418      1.00000
      9       6.9632      1.00000
     10       8.0578      1.00000
     11       8.5793      1.00000
     12      10.2909      1.00000
     13      10.7302      1.00000
     14      12.3148      0.99651
     15      12.6781     -0.02102
     16      12.7383     -0.00609
     17      12.9552      0.00000
     18      14.4570      0.00000
     19      15.9218      0.00000
     20      18.7997      0.00000
     21      24.2720      0.00000
     22      26.0153      0.00000
     23      27.8498      0.00000
     24      28.7854      0.00000
     25      29.7730      0.00000
     26      30.4422      0.00000
     27      31.6929      0.00000
     28      32.7276      0.00000
     29      37.2457      0.00000
     30      37.5956      0.00000
     31      37.8669      0.00000
     32      38.1527      0.00000
     33      40.9512      0.00000
     34      42.8151      0.00000
     35      44.3001      0.00000
     36      44.9685      0.00000
     37      45.6410      0.00000
     38      47.0656      0.00000
     39      48.9302      0.00000
     40      49.3788      0.00000
     41      50.3455      0.00000
     42      52.3627      0.00000
     43      54.0159      0.00000
     44      54.5995      0.00000
     45      54.7810      0.00000
     46      57.0999      0.00000
     47      60.3355      0.00000
     48      60.7608      0.00000
     49      61.7431      0.00000
     50      62.3292      0.00000
     51      63.2487      0.00000
     52      63.6529      0.00000
     53      64.3262      0.00000
     54      64.5045      0.00000
     55      65.5172      0.00000
     56      66.1171      0.00000
     57      66.1421      0.00000
     58      68.0525      0.00000
     59      69.6715      0.00000
     60      69.9578      0.00000
     61      71.6520      0.00000
     62      71.6765      0.00000
     63      72.8012      0.00000
     64      77.1624      0.00000

 k-point     7 :       0.4286    0.1429    0.0000
  band No.  band energies     occupation 
      1     -48.7938      1.00000
      2     -48.7089      1.00000
      3     -23.2611      1.00000
      4     -23.0842      1.00000
      5     -22.8217      1.00000
      6     -22.6715      1.00000
      7     -22.6373      1.00000
      8     -22.4838      1.00000
      9       8.0212      1.00000
     10       8.5097      1.00000
     11       9.4334      1.00000
     12      10.3207      1.00000
     13      10.4628      1.00000
     14      11.1367      1.00000
     15      12.3014      0.30007
     16      12.4001      0.04390
     17      13.7379      0.00000
     18      14.8956      0.00000
     19      15.2022      0.00000
     20      16.5498      0.00000
     21      26.0619      0.00000
     22      26.8569      0.00000
     23      28.8203      0.00000
     24      28.8734      0.00000
     25      29.1097      0.00000
     26      31.6052      0.00000
     27      31.6399      0.00000
     28      32.6160      0.00000
     29      35.9770      0.00000
     30      37.1553      0.00000
     31      38.2141      0.00000
     32      39.5088      0.00000
     33      41.7050      0.00000
     34      42.1316      0.00000
     35      42.2480      0.00000
     36      43.9619      0.00000
     37      46.4684      0.00000
     38      46.9805      0.00000
     39      47.3665      0.00000
     40      48.5195      0.00000
     41      49.7055      0.00000
     42      50.4642      0.00000
     43      52.3296      0.00000
     44      53.3980      0.00000
     45      56.0817      0.00000
     46      57.0127      0.00000
     47      58.4941      0.00000
     48      59.1641      0.00000
     49      60.7393      0.00000
     50      62.1267      0.00000
     51      63.9481      0.00000
     52      65.8065      0.00000
     53      65.8135      0.00000
     54      65.9831      0.00000
     55      66.6059      0.00000
     56      67.4748      0.00000
     57      69.0143      0.00000
     58      69.8574      0.00000
     59      70.8345      0.00000
     60      71.7904      0.00000
     61      72.6311      0.00000
     62      72.6744      0.00000
     63      75.2021      0.00000
     64      76.2353      0.00000

 k-point     8 :       0.2857    0.2857    0.0000
  band No.  band energies     occupation 
      1     -48.8315      1.00000
      2     -48.6669      1.00000
      3     -23.4544      1.00000
      4     -23.1152      1.00000
      5     -22.9042      1.00000
      6     -22.6582      1.00000
      7     -22.5464      1.00000
      8     -22.2898      1.00000
      9       7.3099      1.00000
     10       8.0395      1.00000
     11       9.6495      1.00000
     12       9.6636      1.00000
     13      10.9075      1.00105
     14      11.0075      1.01069
     15      12.4747      0.00083
     16      13.5421      0.00000
     17      13.9805      0.00000
     18      14.1741      0.00000
     19      16.6331      0.00000
     20      19.1037      0.00000
     21      23.0360      0.00000
     22      26.5432      0.00000
     23      26.8788      0.00000
     24      27.6314      0.00000
     25      28.4323      0.00000
     26      32.0731      0.00000
     27      32.2666      0.00000
     28      34.8185      0.00000
     29      35.0494      0.00000
     30      36.6998      0.00000
     31      38.4367      0.00000
     32      38.6748      0.00000
     33      39.6167      0.00000
     34      41.8845      0.00000
     35      45.9485      0.00000
     36      46.0147      0.00000
     37      46.3625      0.00000
     38      46.7441      0.00000
     39      47.1279      0.00000
     40      49.1870      0.00000
     41      50.1387      0.00000
     42      53.0652      0.00000
     43      53.9097      0.00000
     44      54.0464      0.00000
     45      54.8839      0.00000
     46      58.9243      0.00000
     47      58.9836      0.00000
     48      59.9386      0.00000
     49      61.1461      0.00000
     50      61.2308      0.00000
     51      61.3531      0.00000
     52      61.4917      0.00000
     53      62.9148      0.00000
     54      64.3279      0.00000
     55      65.3239      0.00000
     56      65.3338      0.00000
     57      66.9606      0.00000
     58      67.5026      0.00000
     59      69.1110      0.00000
     60      71.8402      0.00000
     61      75.4486      0.00000
     62      76.1443      0.00000
     63      76.3588      0.00000
     64      76.8377      0.00000

 k-point     9 :       0.4286    0.2857    0.0000
  band No.  band energies     occupation 
      1     -48.7723      1.00000
      2     -48.7134      1.00000
      3     -23.4787      1.00000
      4     -23.3590      1.00000
      5     -22.7827      1.00000
      6     -22.6549      1.00000
      7     -22.4741      1.00000
      8     -22.3415      1.00000
      9       7.5289      1.00000
     10       7.7954      1.00000
     11       9.5188      1.00000
     12       9.9362      1.00000
     13      10.7985      1.01904
     14      11.4341      1.01129
     15      12.9323     -0.00603
     16      13.4964      0.00000
     17      14.9141      0.00000
     18      15.2571      0.00000
     19      16.2836      0.00000
     20      16.9268      0.00000
     21      24.1973      0.00000
     22      25.4102      0.00000
     23      26.4422      0.00000
     24      26.7601      0.00000
     25      28.8613      0.00000
     26      31.5882      0.00000
     27      32.9556      0.00000
     28      34.7076      0.00000
     29      35.2297      0.00000
     30      37.8202      0.00000
     31      37.9302      0.00000
     32      39.2508      0.00000
     33      39.5969      0.00000
     34      41.6381      0.00000
     35      44.7052      0.00000
     36      45.6438      0.00000
     37      47.3589      0.00000
     38      47.4521      0.00000
     39      47.6827      0.00000
     40      48.3066      0.00000
     41      50.8771      0.00000
     42      50.9556      0.00000
     43      52.4579      0.00000
     44      53.5534      0.00000
     45      53.7291      0.00000
     46      56.7976      0.00000
     47      58.7543      0.00000
     48      58.7978      0.00000
     49      61.0316      0.00000
     50      61.0506      0.00000
     51      61.5384      0.00000
     52      62.9673      0.00000
     53      63.7985      0.00000
     54      64.3379      0.00000
     55      64.8809      0.00000
     56      67.2133      0.00000
     57      68.8022      0.00000
     58      71.1034      0.00000
     59      71.5348      0.00000
     60      71.6596      0.00000
     61      73.3297      0.00000
     62      74.7418      0.00000
     63      75.1256      0.00000
     64      76.6656      0.00000

 k-point    10 :       0.4286    0.4286    0.0000
  band No.  band energies     occupation 
      1     -48.7466      1.00000
      2     -48.7255      1.00000
      3     -23.5908      1.00000
      4     -23.5486      1.00000
      5     -22.7331      1.00000
      6     -22.6874      1.00000
      7     -22.3414      1.00000
      8     -22.2935      1.00000
      9       7.1752      1.00000
     10       7.2681      1.00000
     11       9.0712      1.00000
     12       9.2117      1.00000
     13      12.5293      0.66512
     14      13.1783      0.15246
     15      13.5959      0.00000
     16      14.0504      0.00000
     17      14.5100      0.00000
     18      15.9907      0.00000
     19      16.4563      0.00000
     20      16.8940      0.00000
     21      23.6016      0.00000
     22      24.3546      0.00000
     23      24.5675      0.00000
     24      24.9234      0.00000
     25      29.1151      0.00000
     26      30.2255      0.00000
     27      33.9248      0.00000
     28      34.9452      0.00000
     29      36.6377      0.00000
     30      37.9307      0.00000
     31      38.8884      0.00000
     32      39.3885      0.00000
     33      39.8677      0.00000
     34      42.9139      0.00000
     35      44.3308      0.00000
     36      44.6835      0.00000
     37      45.1108      0.00000
     38      46.7927      0.00000
     39      47.8294      0.00000
     40      47.8940      0.00000
     41      51.2859      0.00000
     42      52.7125      0.00000
     43      53.5470      0.00000
     44      54.1480      0.00000
     45      56.2171      0.00000
     46      56.3395      0.00000
     47      56.5920      0.00000
     48      57.7467      0.00000
     49      60.4358      0.00000
     50      60.8472      0.00000
     51      61.2246      0.00000
     52      61.8539      0.00000
     53      62.1406      0.00000
     54      63.4861      0.00000
     55      66.1166      0.00000
     56      66.3165      0.00000
     57      66.3359      0.00000
     58      66.6501      0.00000
     59      73.8881      0.00000
     60      73.9101      0.00000
     61      77.4054      0.00000
     62      77.6318      0.00000
     63      77.8322      0.00000
     64      79.2185      0.00000

 k-point    11 :       0.1429    0.1429    0.1429
  band No.  band energies     occupation 
      1     -48.9155      1.00000
      2     -48.6065      1.00000
      3     -23.2295      1.00000
      4     -23.2295      1.00000
      5     -22.8978      1.00000
      6     -22.6835      1.00000
      7     -22.3332      1.00000
      8     -22.3332      1.00000
      9       6.3550      1.00000
     10       7.8847      1.00000
     11       7.8847      1.00000
     12      10.4121      1.00000
     13      10.4121      1.00000
     14      12.3862      0.98374
     15      12.4654      0.01758
     16      13.7151      0.00000
     17      13.7151      0.00000
     18      15.3083      0.00000
     19      15.3083      0.00000
     20      22.3326      0.00000
     21      22.3326      0.00000
     22      22.5530      0.00000
     23      28.0323      0.00000
     24      28.6106      0.00000
     25      28.6106      0.00000
     26      31.8854      0.00000
     27      31.8854      0.00000
     28      34.5646      0.00000
     29      36.0587      0.00000
     30      36.0587      0.00000
     31      36.5967      0.00000
     32      37.6539      0.00000
     33      42.8836      0.00000
     34      43.7510      0.00000
     35      44.8910      0.00000
     36      44.8910      0.00000
     37      48.6875      0.00000
     38      48.6875      0.00000
     39      48.9895      0.00000
     40      48.9895      0.00000
     41      51.4218      0.00000
     42      51.4218      0.00000
     43      54.9512      0.00000
     44      55.1892      0.00000
     45      56.1728      0.00000
     46      58.3673      0.00000
     47      58.3673      0.00000
     48      60.1700      0.00000
     49      60.1700      0.00000
     50      60.4855      0.00000
     51      62.9100      0.00000
     52      62.9100      0.00000
     53      63.7853      0.00000
     54      63.8317      0.00000
     55      64.0669      0.00000
     56      64.0669      0.00000
     57      67.7628      0.00000
     58      70.6093      0.00000
     59      70.6093      0.00000
     60      71.4497      0.00000
     61      71.4709      0.00000
     62      73.6805      0.00000
     63      73.6805      0.00000
     64      74.1368      0.00000

 k-point    12 :       0.2857    0.1429    0.1429
  band No.  band energies     occupation 
      1     -48.8606      1.00000
      2     -48.6465      1.00000
      3     -23.3212      1.00000
      4     -23.0889      1.00000
      5     -22.9345      1.00000
      6     -22.7258      1.00000
      7     -22.4680      1.00000
      8     -22.3465      1.00000
      9       7.2641      1.00000
     10       8.4042      1.00000
     11       8.7018      1.00000
     12      10.1500      1.00000
     13      10.1627      1.00000
     14      11.0914      1.00324
     15      13.0778     -0.02667
     16      13.5616     -0.00647
     17      13.7941      0.00000
     18      14.3377      0.00000
     19      15.4189      0.00000
     20      19.8817      0.00000
     21      23.8350      0.00000
     22      25.0488      0.00000
     23      28.0876      0.00000
     24      28.2512      0.00000
     25      29.9314      0.00000
     26      30.6255      0.00000
     27      31.5096      0.00000
     28      34.0679      0.00000
     29      34.8314      0.00000
     30      36.3129      0.00000
     31      38.7760      0.00000
     32      39.8693      0.00000
     33      41.7135      0.00000
     34      41.7733      0.00000
     35      42.2708      0.00000
     36      44.8075      0.00000
     37      45.4696      0.00000
     38      48.6007      0.00000
     39      50.0096      0.00000
     40      50.1908      0.00000
     41      51.3542      0.00000
     42      52.8117      0.00000
     43      53.3555      0.00000
     44      54.0344      0.00000
     45      55.5920      0.00000
     46      58.3450      0.00000
     47      58.5416      0.00000
     48      58.7683      0.00000
     49      59.7335      0.00000
     50      60.9105      0.00000
     51      61.2307      0.00000
     52      63.2879      0.00000
     53      63.8426      0.00000
     54      63.9855      0.00000
     55      66.1377      0.00000
     56      67.2117      0.00000
     57      68.1812      0.00000
     58      68.5238      0.00000
     59      70.4650      0.00000
     60      70.9773      0.00000
     61      72.8821      0.00000
     62      73.3797      0.00000
     63      74.2673      0.00000
     64      75.7746      0.00000

 k-point    13 :       0.4286    0.1429    0.1429
  band No.  band energies     occupation 
      1     -48.7859      1.00000
      2     -48.7094      1.00000
      3     -23.3095      1.00000
      4     -23.1705      1.00000
      5     -22.8871      1.00000
      6     -22.6653      1.00000
      7     -22.5634      1.00000
      8     -22.4297      1.00000
      9       8.1448      1.00000
     10       8.7799      1.00000
     11       9.1259      1.00000
     12       9.7684      1.00000
     13      10.5458      1.00000
     14      10.8197      1.00000
     15      12.5557     -0.01825
     16      12.7705     -0.01894
     17      14.4567      0.00000
     18      14.8600      0.00000
     19      15.3927      0.00000
     20      17.3843      0.00000
     21      25.3066      0.00000
     22      26.4252      0.00000
     23      27.4637      0.00000
     24      28.2912      0.00000
     25      30.1969      0.00000
     26      31.4011      0.00000
     27      31.4484      0.00000
     28      32.0629      0.00000
     29      35.4146      0.00000
     30      36.9859      0.00000
     31      39.0084      0.00000
     32      40.8140      0.00000
     33      41.9691      0.00000
     34      42.1148      0.00000
     35      42.1751      0.00000
     36      43.3961      0.00000
     37      43.7031      0.00000
     38      47.2534      0.00000
     39      48.4864      0.00000
     40      51.3188      0.00000
     41      51.3858      0.00000
     42      52.4623      0.00000
     43      52.8442      0.00000
     44      53.0735      0.00000
     45      53.9936      0.00000
     46      55.3141      0.00000
     47      57.6862      0.00000
     48      58.7081      0.00000
     49      60.4479      0.00000
     50      60.5473      0.00000
     51      62.1374      0.00000
     52      62.9077      0.00000
     53      65.6378      0.00000
     54      65.7101      0.00000
     55      68.8579      0.00000
     56      70.1819      0.00000
     57      70.1921      0.00000
     58      70.9293      0.00000
     59      71.4878      0.00000
     60      71.5555      0.00000
     61      72.0641      0.00000
     62      73.2088      0.00000
     63      74.7671      0.00000
     64      75.0505      0.00000

 k-point    14 :       0.2857    0.2857    0.1429
  band No.  band energies     occupation 
      1     -48.8198      1.00000
      2     -48.6714      1.00000
      3     -23.3965      1.00000
      4     -23.1586      1.00000
      5     -23.0409      1.00000
      6     -22.5647      1.00000
      7     -22.5378      1.00000
      8     -22.3468      1.00000
      9       7.7503      1.00000
     10       8.4647      1.00000
     11       9.5632      1.00000
     12       9.6690      1.00000
     13      10.0521      1.00091
     14      10.3050      1.00706
     15      13.4117     -0.00077
     16      13.6566      0.00000
     17      14.1812      0.00000
     18      14.9951      0.00000
     19      15.5872      0.00000
     20      20.5171      0.00000
     21      22.7365      0.00000
     22      25.2060      0.00000
     23      26.9398      0.00000
     24      27.5087      0.00000
     25      29.9733      0.00000
     26      30.9099      0.00000
     27      31.7180      0.00000
     28      32.1379      0.00000
     29      35.5481      0.00000
     30      37.3621      0.00000
     31      38.1127      0.00000
     32      40.1372      0.00000
     33      41.4141      0.00000
     34      42.2347      0.00000
     35      42.7330      0.00000
     36      45.2655      0.00000
     37      45.7345      0.00000
     38      45.9473      0.00000
     39      50.3048      0.00000
     40      51.1028      0.00000
     41      51.1644      0.00000
     42      52.8114      0.00000
     43      52.9885      0.00000
     44      54.4471      0.00000
     45      56.3008      0.00000
     46      56.5474      0.00000
     47      57.0686      0.00000
     48      58.7470      0.00000
     49      59.4603      0.00000
     50      60.7613      0.00000
     51      60.9198      0.00000
     52      62.1419      0.00000
     53      63.2655      0.00000
     54      64.8076      0.00000
     55      65.5299      0.00000
     56      67.9408      0.00000
     57      67.9891      0.00000
     58      69.4036      0.00000
     59      70.9428      0.00000
     60      72.2501      0.00000
     61      72.8998      0.00000
     62      73.5386      0.00000
     63      74.3834      0.00000
     64      76.0411      0.00000

 k-point    15 :       0.4286    0.2857    0.1429
  band No.  band energies     occupation 
      1     -48.7657      1.00000
      2     -48.7127      1.00000
      3     -23.4366      1.00000
      4     -23.3527      1.00000
      5     -22.8754      1.00000
      6     -22.6893      1.00000
      7     -22.4449      1.00000
      8     -22.3730      1.00000
      9       7.9100      1.00000
     10       8.1414      1.00000
     11       9.4042      1.00000
     12       9.5575      1.00000
     13      10.8066      1.00929
     14      10.9702      1.01669
     15      13.2872     -0.00358
     16      13.5005      0.00000
     17      14.6560      0.00000
     18      15.2300      0.00000
     19      16.5250      0.00000
     20      18.4842      0.00000
     21      23.8090      0.00000
     22      25.3399      0.00000
     23      26.0894      0.00000
     24      26.4544      0.00000
     25      29.1870      0.00000
     26      30.1151      0.00000
     27      32.8052      0.00000
     28      32.8297      0.00000
     29      35.9710      0.00000
     30      36.4484      0.00000
     31      39.0505      0.00000
     32      40.4433      0.00000
     33      40.5961      0.00000
     34      42.8225      0.00000
     35      43.8940      0.00000
     36      44.3146      0.00000
     37      45.1789      0.00000
     38      47.7316      0.00000
     39      48.8814      0.00000
     40      50.1364      0.00000
     41      50.7132      0.00000
     42      51.8172      0.00000
     43      52.1621      0.00000
     44      53.2881      0.00000
     45      55.2505      0.00000
     46      55.8754      0.00000
     47      57.0815      0.00000
     48      58.5915      0.00000
     49      60.1230      0.00000
     50      60.7493      0.00000
     51      61.6158      0.00000
     52      61.7296      0.00000
     53      64.1931      0.00000
     54      66.2235      0.00000
     55      67.5742      0.00000
     56      67.6106      0.00000
     57      69.7700      0.00000
     58      69.9101      0.00000
     59      71.5814      0.00000
     60      71.8227      0.00000
     61      73.3430      0.00000
     62      73.9199      0.00000
     63      75.0425      0.00000
     64      75.3065      0.00000

 k-point    16 :       0.4286    0.4286    0.1429
  band No.  band energies     occupation 
      1     -48.7419      1.00000
      2     -48.7230      1.00000
      3     -23.5271      1.00000
      4     -23.4981      1.00000
      5     -22.7986      1.00000
      6     -22.7268      1.00000
      7     -22.3791      1.00000
      8     -22.3579      1.00000
      9       7.5995      1.00000
     10       7.6557      1.00000
     11       9.0489      1.00000
     12       9.1648      1.00000
     13      12.1104      0.98532
     14      12.3302      0.80595
     15      13.8098      0.00000
     16      14.0408      0.00000
     17      14.5387      0.00000
     18      15.0920      0.00000
     19      17.6833      0.00000
     20      18.4852      0.00000
     21      23.1922      0.00000
     22      24.0031      0.00000
     23      24.9567      0.00000
     24      25.0621      0.00000
     25      28.4962      0.00000
     26      28.9285      0.00000
     27      34.2802      0.00000
     28      35.1153      0.00000
     29      35.5056      0.00000
     30      36.0770      0.00000
     31      39.0813      0.00000
     32      39.6878      0.00000
     33      41.0686      0.00000
     34      41.9667      0.00000
     35      44.0862      0.00000
     36      44.4822      0.00000
     37      47.8362      0.00000
     38      48.0293      0.00000
     39      48.4953      0.00000
     40      49.3334      0.00000
     41      50.1425      0.00000
     42      51.3699      0.00000
     43      51.4432      0.00000
     44      53.2930      0.00000
     45      54.6201      0.00000
     46      57.0222      0.00000
     47      57.0560      0.00000
     48      57.7954      0.00000
     49      58.3546      0.00000
     50      60.6827      0.00000
     51      62.2989      0.00000
     52      62.5468      0.00000
     53      65.6545      0.00000
     54      66.0677      0.00000
     55      66.1433      0.00000
     56      68.2581      0.00000
     57      68.9369      0.00000
     58      69.9673      0.00000
     59      70.5085      0.00000
     60      73.1879      0.00000
     61      73.1965      0.00000
     62      74.6453      0.00000
     63      75.1835      0.00000
     64      76.0613      0.00000

 k-point    17 :       0.2857    0.2857    0.2857
  band No.  band energies     occupation 
      1     -48.7889      1.00000
      2     -48.6861      1.00000
      3     -23.2632      1.00000
      4     -23.2341      1.00000
      5     -23.2341      1.00000
      6     -22.5070      1.00000
      7     -22.5070      1.00000
      8     -22.4709      1.00000
      9       8.7922      1.00000
     10       8.9556      1.00000
     11       9.4019      1.00000
     12       9.4019      1.00000
     13       9.6602      1.00000
     14       9.6602      1.00003
     15      14.1184      0.00000
     16      14.1184      0.00000
     17      14.4234      0.00000
     18      14.4234      0.00000
     19      16.6785      0.00000
     20      22.4032      0.00000
     21      22.7059      0.00000
     22      22.7059      0.00000
     23      27.0575      0.00000
     24      27.0575      0.00000
     25      28.1356      0.00000
     26      30.7098      0.00000
     27      31.7437      0.00000
     28      32.4220      0.00000
     29      32.4220      0.00000
     30      38.3370      0.00000
     31      40.6750      0.00000
     32      40.6750      0.00000
     33      42.3854      0.00000
     34      42.8573      0.00000
     35      42.8573      0.00000
     36      44.2484      0.00000
     37      44.2484      0.00000
     38      45.7064      0.00000
     39      48.5292      0.00000
     40      50.8597      0.00000
     41      50.8597      0.00000
     42      53.0894      0.00000
     43      53.0894      0.00000
     44      55.6839      0.00000
     45      56.0598      0.00000
     46      56.0598      0.00000
     47      57.9198      0.00000
     48      58.7728      0.00000
     49      58.7728      0.00000
     50      60.3388      0.00000
     51      61.7158      0.00000
     52      61.7158      0.00000
     53      65.6531      0.00000
     54      65.9918      0.00000
     55      65.9918      0.00000
     56      66.1533      0.00000
     57      66.8784      0.00000
     58      70.5963      0.00000
     59      71.1838      0.00000
     60      71.1838      0.00000
     61      71.4990      0.00000
     62      75.1746      0.00000
     63      75.1746      0.00000
     64      77.2452      0.00000

 k-point    18 :       0.4286    0.2857    0.2857
  band No.  band energies     occupation 
      1     -48.7494      1.00000
      2     -48.7126      1.00000
      3     -23.3533      1.00000
      4     -23.3518      1.00000
      5     -22.9996      1.00000
      6     -22.7399      1.00000
      7     -22.4647      1.00000
      8     -22.4422      1.00000
      9       8.4933      1.00000
     10       8.5614      1.00000
     11       9.3855      1.00000
     12       9.5307      1.00000
     13      10.2782      1.00000
     14      10.5785      1.00000
     15      13.9285      0.00000
     16      13.9559      0.00000
     17      14.5838      0.00000
     18      14.7118      0.00000
     19      18.3115      0.00000
     20      20.2187      0.00000
     21      23.0091      0.00000
     22      24.6148      0.00000
     23      24.7469      0.00000
     24      26.0380      0.00000
     25      27.6598      0.00000
     26      29.0781      0.00000
     27      32.3865      0.00000
     28      32.9156      0.00000
     29      34.7855      0.00000
     30      36.9505      0.00000
     31      39.8570      0.00000
     32      41.1268      0.00000
     33      41.3369      0.00000
     34      41.9695      0.00000
     35      44.6150      0.00000
     36      44.9612      0.00000
     37      46.1706      0.00000
     38      47.4863      0.00000
     39      47.7165      0.00000
     40      48.1933      0.00000
     41      48.8652      0.00000
     42      50.5298      0.00000
     43      52.7363      0.00000
     44      54.9368      0.00000
     45      57.9032      0.00000
     46      58.2369      0.00000
     47      58.3127      0.00000
     48      59.2357      0.00000
     49      59.5716      0.00000
     50      60.1028      0.00000
     51      60.7852      0.00000
     52      61.5832      0.00000
     53      64.4231      0.00000
     54      66.4741      0.00000
     55      67.0152      0.00000
     56      67.9569      0.00000
     57      68.3427      0.00000
     58      68.9967      0.00000
     59      70.4862      0.00000
     60      72.7696      0.00000
     61      74.1771      0.00000
     62      75.1788      0.00000
     63      76.2781      0.00000
     64      76.5055      0.00000

 k-point    19 :       0.4286    0.4286    0.2857
  band No.  band energies     occupation 
      1     -48.7310      1.00000
      2     -48.7178      1.00000
      3     -23.3662      1.00000
      4     -23.3481      1.00000
      5     -22.9446      1.00000
      6     -22.8003      1.00000
      7     -22.5384      1.00000
      8     -22.4960      1.00000
      9       8.4546      1.00000
     10       8.6557      1.00000
     11       9.0898      1.00000
     12       9.3533      1.00000
     13      10.9601      1.00000
     14      11.0866      1.00000
     15      14.2669      0.00000
     16      14.3271      0.00000
     17      14.5934      0.00000
     18      14.6760      0.00000
     19      19.7337      0.00000
     20      20.6965      0.00000
     21      22.3737      0.00000
     22      23.2887      0.00000
     23      24.4733      0.00000
     24      25.4535      0.00000
     25      26.2988      0.00000
     26      27.3180      0.00000
     27      34.0304      0.00000
     28      34.6395      0.00000
     29      35.1981      0.00000
     30      36.7590      0.00000
     31      39.6195      0.00000
     32      39.9225      0.00000
     33      40.2921      0.00000
     34      40.5360      0.00000
     35      44.2919      0.00000
     36      45.1331      0.00000
     37      45.8453      0.00000
     38      46.4512      0.00000
     39      48.6667      0.00000
     40      49.6152      0.00000
     41      50.4855      0.00000
     42      51.8314      0.00000
     43      52.5690      0.00000
     44      54.5063      0.00000
     45      55.6100      0.00000
     46      56.4110      0.00000
     47      57.4586      0.00000
     48      58.9968      0.00000
     49      60.0370      0.00000
     50      63.1715      0.00000
     51      63.6773      0.00000
     52      63.8945      0.00000
     53      64.9347      0.00000
     54      65.4991      0.00000
     55      66.8169      0.00000
     56      67.0048      0.00000
     57      69.3859      0.00000
     58      70.1990      0.00000
     59      70.4781      0.00000
     60      70.5580      0.00000
     61      73.2343      0.00000
     62      74.3295      0.00000
     63      74.7271      0.00000
     64      75.8236      0.00000

 k-point    20 :       0.4286    0.4286    0.4286
  band No.  band energies     occupation 
      1     -48.7203      1.00000
      2     -48.7156      1.00000
      3     -23.2147      1.00000
      4     -23.0885      1.00000
      5     -23.0885      1.00000
      6     -22.7994      1.00000
      7     -22.7994      1.00000
      8     -22.6662      1.00000
      9       8.9392      1.00000
     10       9.3921      1.00000
     11       9.3921      1.00000
     12      10.0722      1.00000
     13      10.0722      1.00000
     14      10.1966      1.00000
     15      14.6190      0.00000
     16      14.6190      0.00000
     17      14.6226      0.00000
     18      14.6226      0.00000
     19      21.3429      0.00000
     20      21.9085      0.00000
     21      22.7532      0.00000
     22      22.8903      0.00000
     23      22.8903      0.00000
     24      24.7119      0.00000
     25      24.7119      0.00000
     26      25.8854      0.00000
     27      35.1373      0.00000
     28      35.9962      0.00000
     29      35.9962      0.00000
     30      38.5052      0.00000
     31      39.0057      0.00000
     32      39.0057      0.00000
     33      40.5402      0.00000
     34      40.5402      0.00000
     35      41.2134      0.00000
     36      42.2912      0.00000
     37      42.7478      0.00000
     38      42.7478      0.00000
     39      52.5566      0.00000
     40      52.5566      0.00000
     41      52.7772      0.00000
     42      53.4160      0.00000
     43      55.2806      0.00000
     44      55.2806      0.00000
     45      56.5326      0.00000
     46      58.5423      0.00000
     47      58.5423      0.00000
     48      59.5444      0.00000
     49      59.5444      0.00000
     50      60.3575      0.00000
     51      62.3841      0.00000
     52      62.5916      0.00000
     53      62.5916      0.00000
     54      63.3252      0.00000
     55      66.0431      0.00000
     56      66.0431      0.00000
     57      70.1498      0.00000
     58      72.1121      0.00000
     59      72.1121      0.00000
     60      72.2584      0.00000
     61      72.2584      0.00000
     62      74.2600      0.00000
     63      74.2600      0.00000
     64      77.1530      0.00000
 Fermi energy:        12.3391454064

 spin component 2

 k-point     1 :       0.0000    0.0000    0.0000
  band No.  band energies     occupation 
      1     -48.9814      1.00000
      2     -48.5598      1.00000
      3     -23.2003      1.00000
      4     -23.2003      1.00000
      5     -23.2003      1.00000
      6     -22.2835      1.00000
      7     -22.2835      1.00000
      8     -22.2835      1.00000
      9       5.1479      1.00000
     10       7.0089      1.00000
     11       7.0089      1.00000
     12      10.9793      1.00000
     13      10.9793      1.00000
     14      10.9793      1.00079
     15      13.9444      0.00000
     16      13.9444      0.00000
     17      16.1928      0.00000
     18      16.1928      0.00000
     19      16.1928      0.00000
     20      21.2632      0.00000
     21      21.2632      0.00000
     22      21.2632      0.00000
     23      27.1369      0.00000
     24      27.1369      0.00000
     25      27.1369      0.00000
     26      31.7165      0.00000
     27      32.8065      0.00000
     28      32.8065      0.00000
     29      35.6409      0.00000
     30      38.4654      0.00000
     31      38.4654      0.00000
     32      41.8689      0.00000
     33      41.8689      0.00000
     34      41.8689      0.00000
     35      48.1388      0.00000
     36      48.1388      0.00000
     37      48.1388      0.00000
     38      48.8570      0.00000
     39      48.8570      0.00000
     40      48.8570      0.00000
     41      52.2041      0.00000
     42      54.4178      0.00000
     43      54.4178      0.00000
     44      54.4178      0.00000
     45      57.0010      0.00000
     46      57.0010      0.00000
     47      57.0010      0.00000
     48      58.5376      0.00000
     49      58.5376      0.00000
     50      58.5376      0.00000
     51      60.8637      0.00000
     52      64.3691      0.00000
     53      64.9219      0.00000
     54      64.9219      0.00000
     55      64.9219      0.00000
     56      69.1576      0.00000
     57      69.1576      0.00000
     58      69.1576      0.00000
     59      70.5668      0.00000
     60      70.5668      0.00000
     61      73.2513      0.00000
     62      73.2513      0.00000
     63      74.5372      0.00000
     64      74.5372      0.00000

 k-point     2 :       0.1429    0.0000    0.0000
  band No.  band energies     occupation 
      1     -48.9576      1.00000
      2     -48.5775      1.00000
      3     -23.2016      1.00000
      4     -23.1535      1.00000
      5     -23.1535      1.00000
      6     -22.3787      1.00000
      7     -22.3271      1.00000
      8     -22.3271      1.00000
      9       5.5856      1.00000
     10       7.2433      1.00000
     11       7.3792      1.00000
     12      10.9579      1.00000
     13      10.9579      1.00000
     14      11.1730      1.00079
     15      13.3836     -0.01407
     16      14.1440      0.00000
     17      15.1416      0.00000
     18      15.1416      0.00000
     19      15.8286      0.00000
     20      20.1243      0.00000
     21      22.8030      0.00000
     22      22.8030      0.00000
     23      27.5940      0.00000
     24      27.8689      0.00000
     25      27.8689      0.00000
     26      31.4283      0.00000
     27      32.5673      0.00000
     28      33.6472      0.00000
     29      34.8205      0.00000
     30      36.2433      0.00000
     31      39.2793      0.00000
     32      41.2435      0.00000
     33      41.2435      0.00000
     34      44.5584      0.00000
     35      47.1438      0.00000
     36      47.1438      0.00000
     37      47.2732      0.00000
     38      47.4123      0.00000
     39      47.4123      0.00000
     40      49.1339      0.00000
     41      52.2557      0.00000
     42      52.2557      0.00000
     43      53.2937      0.00000
     44      54.9728      0.00000
     45      56.7045      0.00000
     46      58.1292      0.00000
     47      59.6210      0.00000
     48      59.6210      0.00000
     49      60.6076      0.00000
     50      60.6076      0.00000
     51      61.8883      0.00000
     52      63.3085      0.00000
     53      63.3085      0.00000
     54      64.4832      0.00000
     55      65.1446      0.00000
     56      66.5230      0.00000
     57      69.4580      0.00000
     58      70.0136      0.00000
     59      70.5054      0.00000
     60      70.9862      0.00000
     61      70.9862      0.00000
     62      72.6945      0.00000
     63      73.1742      0.00000
     64      73.1742      0.00000

 k-point     3 :       0.2857    0.0000    0.0000
  band No.  band energies     occupation 
      1     -48.8923      1.00000
      2     -48.6290      1.00000
      3     -23.1795      1.00000
      4     -23.0231      1.00000
      5     -23.0231      1.00000
      6     -22.6148      1.00000
      7     -22.4506      1.00000
      8     -22.4506      1.00000
      9       6.7453      1.00000
     10       7.9345      1.00000
     11       8.2427      1.00000
     12      11.0103      1.00000
     13      11.0103      1.00000
     14      11.7392      1.00308
     15      12.0394      0.56671
     16      13.4895     -0.02533
     17      13.4895      0.00000
     18      14.6583      0.00000
     19      14.9011      0.00000
     20      17.9600      0.00000
     21      25.8698      0.00000
     22      25.8698      0.00000
     23      28.6422      0.00000
     24      29.2503      0.00000
     25      29.7867      0.00000
     26      29.7867      0.00000
     27      30.5393      0.00000
     28      31.9059      0.00000
     29      37.3276      0.00000
     30      37.8646      0.00000
     31      39.0182      0.00000
     32      39.0182      0.00000
     33      41.6749      0.00000
     34      43.5654      0.00000
     35      43.5654      0.00000
     36      45.1975      0.00000
     37      46.5495      0.00000
     38      46.5575      0.00000
     39      46.5575      0.00000
     40      49.3634      0.00000
     41      50.3759      0.00000
     42      50.3759      0.00000
     43      51.7557      0.00000
     44      54.6043      0.00000
     45      56.6319      0.00000
     46      61.3993      0.00000
     47      61.3993      0.00000
     48      61.4104      0.00000
     49      61.6503      0.00000
     50      62.9663      0.00000
     51      63.6091      0.00000
     52      63.6091      0.00000
     53      64.3584      0.00000
     54      64.3584      0.00000
     55      65.5411      0.00000
     56      66.7936      0.00000
     57      67.2893      0.00000
     58      68.0877      0.00000
     59      69.2058      0.00000
     60      69.2112      0.00000
     61      70.3584      0.00000
     62      73.9811      0.00000
     63      73.9811      0.00000
     64      74.1200      0.00000

 k-point     4 :       0.4286    0.0000    0.0000
  band No.  band energies     occupation 
      1     -48.8022      1.00000
      2     -48.7081      1.00000
      3     -23.0818      1.00000
      4     -22.8815      1.00000
      5     -22.8363      1.00000
      6     -22.8363      1.00000
      7     -22.6318      1.00000
      8     -22.6318      1.00000
      9       8.1217      1.00000
     10       8.7802      1.00000
     11       9.0406      1.00000
     12      10.4707      1.00000
     13      11.3621      1.00000
     14      11.3621      1.00000
     15      12.1757      0.85401
     16      12.1757      0.52737
     17      12.6283      0.00000
     18      13.7412      0.00000
     19      15.2840      0.00000
     20      16.1933      0.00000
     21      27.5953      0.00000
     22      27.8777      0.00000
     23      29.2623      0.00000
     24      29.2623      0.00000
     25      29.8281      0.00000
     26      30.9508      0.00000
     27      31.3479      0.00000
     28      31.3479      0.00000
     29      37.0684      0.00000
     30      37.0684      0.00000
     31      39.3620      0.00000
     32      39.3620      0.00000
     33      40.1221      0.00000
     34      41.9192      0.00000
     35      42.6677      0.00000
     36      45.4351      0.00000
     37      46.4061      0.00000
     38      47.2951      0.00000
     39      47.2951      0.00000
     40      48.6423      0.00000
     41      48.7115      0.00000
     42      48.7115      0.00000
     43      49.0496      0.00000
     44      50.1026      0.00000
     45      59.3360      0.00000
     46      61.5295      0.00000
     47      62.3306      0.00000
     48      62.3306      0.00000
     49      62.4600      0.00000
     50      62.7849      0.00000
     51      62.9933      0.00000
     52      64.3465      0.00000
     53      64.3465      0.00000
     54      64.7051      0.00000
     55      66.0416      0.00000
     56      66.0416      0.00000
     57      67.8871      0.00000
     58      67.8871      0.00000
     59      71.1923      0.00000
     60      71.8559      0.00000
     61      73.9414      0.00000
     62      74.3503      0.00000
     63      74.5857      0.00000
     64      74.5857      0.00000

 k-point     5 :       0.1429    0.1429    0.0000
  band No.  band energies     occupation 
      1     -48.9357      1.00000
      2     -48.5930      1.00000
      3     -23.2797      1.00000
      4     -23.1106      1.00000
      5     -23.0369      1.00000
      6     -22.5474      1.00000
      7     -22.3657      1.00000
      8     -22.2854      1.00000
      9       5.9772      1.00000
     10       7.5024      1.00000
     11       7.6997      1.00000
     12      10.5296      1.00000
     13      10.8571      1.00000
     14      11.7921      1.00396
     15      13.4552     -0.01906
     16      13.8644      0.00000
     17      13.9720      0.00000
     18      14.2435      0.00000
     19      16.3245      0.00000
     20      20.8780      0.00000
     21      22.1091      0.00000
     22      23.6675      0.00000
     23      27.5967      0.00000
     24      28.4362      0.00000
     25      28.5753      0.00000
     26      31.5705      0.00000
     27      32.0563      0.00000
     28      34.5098      0.00000
     29      34.8730      0.00000
     30      36.6007      0.00000
     31      36.8057      0.00000
     32      40.2090      0.00000
     33      41.7129      0.00000
     34      45.4947      0.00000
     35      45.5107      0.00000
     36      46.0162      0.00000
     37      47.0439      0.00000
     38      47.3556      0.00000
     39      47.9400      0.00000
     40      50.5047      0.00000
     41      51.2349      0.00000
     42      51.2552      0.00000
     43      54.7735      0.00000
     44      55.4391      0.00000
     45      55.9573      0.00000
     46      58.2029      0.00000
     47      59.2615      0.00000
     48      60.6216      0.00000
     49      60.6527      0.00000
     50      60.7761      0.00000
     51      60.7854      0.00000
     52      62.8938      0.00000
     53      63.7973      0.00000
     54      66.2904      0.00000
     55      66.3567      0.00000
     56      66.7855      0.00000
     57      67.5223      0.00000
     58      67.9601      0.00000
     59      68.0389      0.00000
     60      69.9151      0.00000
     61      70.3717      0.00000
     62      72.1789      0.00000
     63      73.5572      0.00000
     64      74.8633      0.00000

 k-point     6 :       0.2857    0.1429    0.0000
  band No.  band energies     occupation 
      1     -48.8759      1.00000
      2     -48.6384      1.00000
      3     -23.3190      1.00000
      4     -22.9913      1.00000
      5     -22.8656      1.00000
      6     -22.8191      1.00000
      7     -22.4752      1.00000
      8     -22.3416      1.00000
      9       6.9633      1.00000
     10       8.0577      1.00000
     11       8.5792      1.00000
     12      10.2909      1.00000
     13      10.7302      1.00000
     14      12.3148      0.99652
     15      12.6781     -0.02102
     16      12.7383     -0.00609
     17      12.9552      0.00000
     18      14.4570      0.00000
     19      15.9216      0.00000
     20      18.8000      0.00000
     21      24.2722      0.00000
     22      26.0157      0.00000
     23      27.8495      0.00000
     24      28.7852      0.00000
     25      29.7729      0.00000
     26      30.4420      0.00000
     27      31.6928      0.00000
     28      32.7274      0.00000
     29      37.2459      0.00000
     30      37.5961      0.00000
     31      37.8671      0.00000
     32      38.1535      0.00000
     33      40.9513      0.00000
     34      42.8151      0.00000
     35      44.3002      0.00000
     36      44.9686      0.00000
     37      45.6415      0.00000
     38      47.0662      0.00000
     39      48.9302      0.00000
     40      49.3789      0.00000
     41      50.3456      0.00000
     42      52.3628      0.00000
     43      54.0161      0.00000
     44      54.5997      0.00000
     45      54.7810      0.00000
     46      57.0998      0.00000
     47      60.3356      0.00000
     48      60.7607      0.00000
     49      61.7429      0.00000
     50      62.3294      0.00000
     51      63.2486      0.00000
     52      63.6527      0.00000
     53      64.3260      0.00000
     54      64.5046      0.00000
     55      65.5170      0.00000
     56      66.1168      0.00000
     57      66.1424      0.00000
     58      68.0529      0.00000
     59      69.6713      0.00000
     60      69.9580      0.00000
     61      71.6520      0.00000
     62      71.6776      0.00000
     63      72.8019      0.00000
     64      77.1642      0.00000

 k-point     7 :       0.4286    0.1429    0.0000
  band No.  band energies     occupation 
      1     -48.7938      1.00000
      2     -48.7089      1.00000
      3     -23.2610      1.00000
      4     -23.0841      1.00000
      5     -22.8215      1.00000
      6     -22.6714      1.00000
      7     -22.6371      1.00000
      8     -22.4837      1.00000
      9       8.0212      1.00000
     10       8.5096      1.00000
     11       9.4333      1.00000
     12      10.3207      1.00000
     13      10.4628      1.00000
     14      11.1367      1.00000
     15      12.3014      0.30010
     16      12.4001      0.04392
     17      13.7378      0.00000
     18      14.8955      0.00000
     19      15.2022      0.00000
     20      16.5500      0.00000
     21      26.0618      0.00000
     22      26.8567      0.00000
     23      28.8201      0.00000
     24      28.8733      0.00000
     25      29.1099      0.00000
     26      31.6052      0.00000
     27      31.6399      0.00000
     28      32.6159      0.00000
     29      35.9774      0.00000
     30      37.1556      0.00000
     31      38.2144      0.00000
     32      39.5088      0.00000
     33      41.7053      0.00000
     34      42.1317      0.00000
     35      42.2485      0.00000
     36      43.9626      0.00000
     37      46.4684      0.00000
     38      46.9805      0.00000
     39      47.3668      0.00000
     40      48.5197      0.00000
     41      49.7054      0.00000
     42      50.4641      0.00000
     43      52.3298      0.00000
     44      53.3981      0.00000
     45      56.0818      0.00000
     46      57.0125      0.00000
     47      58.4940      0.00000
     48      59.1642      0.00000
     49      60.7390      0.00000
     50      62.1264      0.00000
     51      63.9483      0.00000
     52      65.8067      0.00000
     53      65.8135      0.00000
     54      65.9841      0.00000
     55      66.6060      0.00000
     56      67.4751      0.00000
     57      69.0149      0.00000
     58      69.8593      0.00000
     59      70.8347      0.00000
     60      71.7922      0.00000
     61      72.6309      0.00000
     62      72.6854      0.00000
     63      75.2065      0.00000
     64      76.2357      0.00000

 k-point     8 :       0.2857    0.2857    0.0000
  band No.  band energies     occupation 
      1     -48.8315      1.00000
      2     -48.6669      1.00000
      3     -23.4543      1.00000
      4     -23.1151      1.00000
      5     -22.9041      1.00000
      6     -22.6581      1.00000
      7     -22.5463      1.00000
      8     -22.2897      1.00000
      9       7.3100      1.00000
     10       8.0394      1.00000
     11       9.6495      1.00000
     12       9.6636      1.00000
     13      10.9075      1.00105
     14      11.0075      1.01068
     15      12.4747      0.00083
     16      13.5421      0.00000
     17      13.9804      0.00000
     18      14.1741      0.00000
     19      16.6329      0.00000
     20      19.1039      0.00000
     21      23.0360      0.00000
     22      26.5430      0.00000
     23      26.8793      0.00000
     24      27.6313      0.00000
     25      28.4321      0.00000
     26      32.0731      0.00000
     27      32.2663      0.00000
     28      34.8191      0.00000
     29      35.0492      0.00000
     30      36.6999      0.00000
     31      38.4370      0.00000
     32      38.6752      0.00000
     33      39.6169      0.00000
     34      41.8844      0.00000
     35      45.9488      0.00000
     36      46.0147      0.00000
     37      46.3628      0.00000
     38      46.7442      0.00000
     39      47.1285      0.00000
     40      49.1870      0.00000
     41      50.1387      0.00000
     42      53.0655      0.00000
     43      53.9099      0.00000
     44      54.0463      0.00000
     45      54.8837      0.00000
     46      58.9242      0.00000
     47      58.9839      0.00000
     48      59.9387      0.00000
     49      61.1459      0.00000
     50      61.2307      0.00000
     51      61.3534      0.00000
     52      61.4921      0.00000
     53      62.9147      0.00000
     54      64.3272      0.00000
     55      65.3237      0.00000
     56      65.3340      0.00000
     57      66.9613      0.00000
     58      67.5028      0.00000
     59      69.1110      0.00000
     60      71.8402      0.00000
     61      75.4495      0.00000
     62      76.1447      0.00000
     63      76.3589      0.00000
     64      76.8394      0.00000

 k-point     9 :       0.4286    0.2857    0.0000
  band No.  band energies     occupation 
      1     -48.7723      1.00000
      2     -48.7135      1.00000
      3     -23.4786      1.00000
      4     -23.3589      1.00000
      5     -22.7826      1.00000
      6     -22.6548      1.00000
      7     -22.4740      1.00000
      8     -22.3414      1.00000
      9       7.5289      1.00000
     10       7.7954      1.00000
     11       9.5189      1.00000
     12       9.9362      1.00000
     13      10.7984      1.01904
     14      11.4341      1.01129
     15      12.9323     -0.00603
     16      13.4964      0.00000
     17      14.9142      0.00000
     18      15.2569      0.00000
     19      16.2834      0.00000
     20      16.9269      0.00000
     21      24.1972      0.00000
     22      25.4101      0.00000
     23      26.4421      0.00000
     24      26.7599      0.00000
     25      28.8619      0.00000
     26      31.5887      0.00000
     27      32.9557      0.00000
     28      34.7077      0.00000
     29      35.2296      0.00000
     30      37.8203      0.00000
     31      37.9302      0.00000
     32      39.2509      0.00000
     33      39.5970      0.00000
     34      41.6382      0.00000
     35      44.7056      0.00000
     36      45.6443      0.00000
     37      47.3591      0.00000
     38      47.4520      0.00000
     39      47.6829      0.00000
     40      48.3066      0.00000
     41      50.8770      0.00000
     42      50.9557      0.00000
     43      52.4578      0.00000
     44      53.5538      0.00000
     45      53.7291      0.00000
     46      56.7980      0.00000
     47      58.7542      0.00000
     48      58.7977      0.00000
     49      61.0316      0.00000
     50      61.0505      0.00000
     51      61.5387      0.00000
     52      62.9676      0.00000
     53      63.7987      0.00000
     54      64.3379      0.00000
     55      64.8806      0.00000
     56      67.2135      0.00000
     57      68.8045      0.00000
     58      71.1035      0.00000
     59      71.5348      0.00000
     60      71.6606      0.00000
     61      73.3298      0.00000
     62      74.7417      0.00000
     63      75.1280      0.00000
     64      76.6658      0.00000

 k-point    10 :       0.4286    0.4286    0.0000
  band No.  band energies     occupation 
      1     -48.7466      1.00000
      2     -48.7255      1.00000
      3     -23.5907      1.00000
      4     -23.5485      1.00000
      5     -22.7330      1.00000
      6     -22.6873      1.00000
      7     -22.3412      1.00000
      8     -22.2934      1.00000
      9       7.1752      1.00000
     10       7.2681      1.00000
     11       9.0712      1.00000
     12       9.2117      1.00000
     13      12.5293      0.66516
     14      13.1783      0.15244
     15      13.5959      0.00000
     16      14.0504      0.00000
     17      14.5100      0.00000
     18      15.9908      0.00000
     19      16.4561      0.00000
     20      16.8937      0.00000
     21      23.6016      0.00000
     22      24.3546      0.00000
     23      24.5673      0.00000
     24      24.9232      0.00000
     25      29.1158      0.00000
     26      30.2263      0.00000
     27      33.9251      0.00000
     28      34.9456      0.00000
     29      36.6374      0.00000
     30      37.9304      0.00000
     31      38.8884      0.00000
     32      39.3885      0.00000
     33      39.8675      0.00000
     34      42.9140      0.00000
     35      44.3305      0.00000
     36      44.6836      0.00000
     37      45.1110      0.00000
     38      46.7926      0.00000
     39      47.8297      0.00000
     40      47.8943      0.00000
     41      51.2859      0.00000
     42      52.7126      0.00000
     43      53.5469      0.00000
     44      54.1487      0.00000
     45      56.2170      0.00000
     46      56.3405      0.00000
     47      56.5921      0.00000
     48      57.7468      0.00000
     49      60.4361      0.00000
     50      60.8473      0.00000
     51      61.2246      0.00000
     52      61.8537      0.00000
     53      62.1400      0.00000
     54      63.4863      0.00000
     55      66.1168      0.00000
     56      66.3166      0.00000
     57      66.3361      0.00000
     58      66.6501      0.00000
     59      73.8892      0.00000
     60      73.9122      0.00000
     61      77.4077      0.00000
     62      77.6321      0.00000
     63      77.8322      0.00000
     64      79.2184      0.00000

 k-point    11 :       0.1429    0.1429    0.1429
  band No.  band energies     occupation 
      1     -48.9155      1.00000
      2     -48.6066      1.00000
      3     -23.2294      1.00000
      4     -23.2294      1.00000
      5     -22.8977      1.00000
      6     -22.6834      1.00000
      7     -22.3331      1.00000
      8     -22.3331      1.00000
      9       6.3551      1.00000
     10       7.8846      1.00000
     11       7.8846      1.00000
     12      10.4121      1.00000
     13      10.4121      1.00000
     14      12.3862      0.98375
     15      12.4654      0.01758
     16      13.7151      0.00000
     17      13.7151      0.00000
     18      15.3082      0.00000
     19      15.3082      0.00000
     20      22.3329      0.00000
     21      22.3329      0.00000
     22      22.5532      0.00000
     23      28.0321      0.00000
     24      28.6103      0.00000
     25      28.6103      0.00000
     26      31.8852      0.00000
     27      31.8852      0.00000
     28      34.5649      0.00000
     29      36.0585      0.00000
     30      36.0585      0.00000
     31      36.5971      0.00000
     32      37.6547      0.00000
     33      42.8841      0.00000
     34      43.7509      0.00000
     35      44.8915      0.00000
     36      44.8915      0.00000
     37      48.6876      0.00000
     38      48.6876      0.00000
     39      48.9898      0.00000
     40      48.9898      0.00000
     41      51.4218      0.00000
     42      51.4218      0.00000
     43      54.9511      0.00000
     44      55.1894      0.00000
     45      56.1733      0.00000
     46      58.3673      0.00000
     47      58.3673      0.00000
     48      60.1700      0.00000
     49      60.1700      0.00000
     50      60.4854      0.00000
     51      62.9101      0.00000
     52      62.9101      0.00000
     53      63.7852      0.00000
     54      63.8313      0.00000
     55      64.0668      0.00000
     56      64.0668      0.00000
     57      67.7630      0.00000
     58      70.6097      0.00000
     59      70.6097      0.00000
     60      71.4495      0.00000
     61      71.4704      0.00000
     62      73.6817      0.00000
     63      73.6817      0.00000
     64      74.1365      0.00000

 k-point    12 :       0.2857    0.1429    0.1429
  band No.  band energies     occupation 
      1     -48.8606      1.00000
      2     -48.6465      1.00000
      3     -23.3211      1.00000
      4     -23.0888      1.00000
      5     -22.9344      1.00000
      6     -22.7256      1.00000
      7     -22.4679      1.00000
      8     -22.3464      1.00000
      9       7.2642      1.00000
     10       8.4041      1.00000
     11       8.7018      1.00000
     12      10.1500      1.00000
     13      10.1628      1.00000
     14      11.0914      1.00324
     15      13.0778     -0.02668
     16      13.5616     -0.00647
     17      13.7940      0.00000
     18      14.3377      0.00000
     19      15.4188      0.00000
     20      19.8818      0.00000
     21      23.8352      0.00000
     22      25.0489      0.00000
     23      28.0874      0.00000
     24      28.2510      0.00000
     25      29.9312      0.00000
     26      30.6255      0.00000
     27      31.5095      0.00000
     28      34.0682      0.00000
     29      34.8315      0.00000
     30      36.3133      0.00000
     31      38.7761      0.00000
     32      39.8697      0.00000
     33      41.7139      0.00000
     34      41.7736      0.00000
     35      42.2708      0.00000
     36      44.8076      0.00000
     37      45.4702      0.00000
     38      48.6008      0.00000
     39      50.0098      0.00000
     40      50.1909      0.00000
     41      51.3544      0.00000
     42      52.8117      0.00000
     43      53.3557      0.00000
     44      54.0344      0.00000
     45      55.5922      0.00000
     46      58.3450      0.00000
     47      58.5417      0.00000
     48      58.7681      0.00000
     49      59.7334      0.00000
     50      60.9103      0.00000
     51      61.2306      0.00000
     52      63.2880      0.00000
     53      63.8427      0.00000
     54      63.9855      0.00000
     55      66.1376      0.00000
     56      67.2118      0.00000
     57      68.1814      0.00000
     58      68.5237      0.00000
     59      70.4649      0.00000
     60      70.9795      0.00000
     61      72.8823      0.00000
     62      73.3799      0.00000
     63      74.2680      0.00000
     64      75.7750      0.00000

 k-point    13 :       0.4286    0.1429    0.1429
  band No.  band energies     occupation 
      1     -48.7859      1.00000
      2     -48.7094      1.00000
      3     -23.3094      1.00000
      4     -23.1704      1.00000
      5     -22.8869      1.00000
      6     -22.6652      1.00000
      7     -22.5633      1.00000
      8     -22.4296      1.00000
      9       8.1449      1.00000
     10       8.7799      1.00000
     11       9.1259      1.00000
     12       9.7683      1.00000
     13      10.5458      1.00000
     14      10.8197      1.00000
     15      12.5557     -0.01823
     16      12.7704     -0.01894
     17      14.4567      0.00000
     18      14.8600      0.00000
     19      15.3927      0.00000
     20      17.3844      0.00000
     21      25.3066      0.00000
     22      26.4251      0.00000
     23      27.4637      0.00000
     24      28.2910      0.00000
     25      30.1972      0.00000
     26      31.4010      0.00000
     27      31.4482      0.00000
     28      32.0633      0.00000
     29      35.4145      0.00000
     30      36.9860      0.00000
     31      39.0088      0.00000
     32      40.8142      0.00000
     33      41.9696      0.00000
     34      42.1151      0.00000
     35      42.1753      0.00000
     36      43.3960      0.00000
     37      43.7037      0.00000
     38      47.2534      0.00000
     39      48.4864      0.00000
     40      51.3188      0.00000
     41      51.3859      0.00000
     42      52.4624      0.00000
     43      52.8444      0.00000
     44      53.0735      0.00000
     45      53.9937      0.00000
     46      55.3141      0.00000
     47      57.6860      0.00000
     48      58.7079      0.00000
     49      60.4480      0.00000
     50      60.5472      0.00000
     51      62.1374      0.00000
     52      62.9074      0.00000
     53      65.6380      0.00000
     54      65.7106      0.00000
     55      68.8579      0.00000
     56      70.1821      0.00000
     57      70.1930      0.00000
     58      70.9318      0.00000
     59      71.4878      0.00000
     60      71.5565      0.00000
     61      72.0801      0.00000
     62      73.2113      0.00000
     63      74.7705      0.00000
     64      75.0580      0.00000

 k-point    14 :       0.2857    0.2857    0.1429
  band No.  band energies     occupation 
      1     -48.8198      1.00000
      2     -48.6714      1.00000
      3     -23.3963      1.00000
      4     -23.1585      1.00000
      5     -23.0408      1.00000
      6     -22.5645      1.00000
      7     -22.5377      1.00000
      8     -22.3467      1.00000
      9       7.7504      1.00000
     10       8.4646      1.00000
     11       9.5632      1.00000
     12       9.6689      1.00000
     13      10.0521      1.00091
     14      10.3050      1.00706
     15      13.4117     -0.00077
     16      13.6566      0.00000
     17      14.1812      0.00000
     18      14.9951      0.00000
     19      15.5871      0.00000
     20      20.5172      0.00000
     21      22.7367      0.00000
     22      25.2062      0.00000
     23      26.9395      0.00000
     24      27.5086      0.00000
     25      29.9733      0.00000
     26      30.9097      0.00000
     27      31.7185      0.00000
     28      32.1379      0.00000
     29      35.5483      0.00000
     30      37.3619      0.00000
     31      38.1129      0.00000
     32      40.1377      0.00000
     33      41.4146      0.00000
     34      42.2348      0.00000
     35      42.7330      0.00000
     36      45.2660      0.00000
     37      45.7347      0.00000
     38      45.9474      0.00000
     39      50.3049      0.00000
     40      51.1030      0.00000
     41      51.1644      0.00000
     42      52.8114      0.00000
     43      52.9886      0.00000
     44      54.4473      0.00000
     45      56.3007      0.00000
     46      56.5475      0.00000
     47      57.0685      0.00000
     48      58.7470      0.00000
     49      59.4604      0.00000
     50      60.7613      0.00000
     51      60.9195      0.00000
     52      62.1420      0.00000
     53      63.2655      0.00000
     54      64.8077      0.00000
     55      65.5298      0.00000
     56      67.9409      0.00000
     57      67.9892      0.00000
     58      69.4038      0.00000
     59      70.9427      0.00000
     60      72.2500      0.00000
     61      72.9003      0.00000
     62      73.5404      0.00000
     63      74.3851      0.00000
     64      76.0513      0.00000

 k-point    15 :       0.4286    0.2857    0.1429
  band No.  band energies     occupation 
      1     -48.7657      1.00000
      2     -48.7127      1.00000
      3     -23.4365      1.00000
      4     -23.3525      1.00000
      5     -22.8753      1.00000
      6     -22.6892      1.00000
      7     -22.4448      1.00000
      8     -22.3729      1.00000
      9       7.9100      1.00000
     10       8.1414      1.00000
     11       9.4042      1.00000
     12       9.5575      1.00000
     13      10.8066      1.00928
     14      10.9702      1.01669
     15      13.2872     -0.00358
     16      13.5005      0.00000
     17      14.6560      0.00000
     18      15.2299      0.00000
     19      16.5249      0.00000
     20      18.4841      0.00000
     21      23.8091      0.00000
     22      25.3398      0.00000
     23      26.0894      0.00000
     24      26.4542      0.00000
     25      29.1873      0.00000
     26      30.1155      0.00000
     27      32.8050      0.00000
     28      32.8298      0.00000
     29      35.9710      0.00000
     30      36.4485      0.00000
     31      39.0508      0.00000
     32      40.4435      0.00000
     33      40.5961      0.00000
     34      42.8228      0.00000
     35      43.8941      0.00000
     36      44.3149      0.00000
     37      45.1790      0.00000
     38      47.7318      0.00000
     39      48.8814      0.00000
     40      50.1365      0.00000
     41      50.7134      0.00000
     42      51.8174      0.00000
     43      52.1622      0.00000
     44      53.2881      0.00000
     45      55.2505      0.00000
     46      55.8753      0.00000
     47      57.0815      0.00000
     48      58.5916      0.00000
     49      60.1232      0.00000
     50      60.7492      0.00000
     51      61.6158      0.00000
     52      61.7295      0.00000
     53      64.1931      0.00000
     54      66.2236      0.00000
     55      67.5746      0.00000
     56      67.6109      0.00000
     57      69.7703      0.00000
     58      69.9100      0.00000
     59      71.5815      0.00000
     60      71.8229      0.00000
     61      73.3434      0.00000
     62      73.9246      0.00000
     63      75.0435      0.00000
     64      75.3104      0.00000

 k-point    16 :       0.4286    0.4286    0.1429
  band No.  band energies     occupation 
      1     -48.7419      1.00000
      2     -48.7230      1.00000
      3     -23.5270      1.00000
      4     -23.4980      1.00000
      5     -22.7984      1.00000
      6     -22.7267      1.00000
      7     -22.3790      1.00000
      8     -22.3578      1.00000
      9       7.5995      1.00000
     10       7.6557      1.00000
     11       9.0489      1.00000
     12       9.1648      1.00000
     13      12.1104      0.98533
     14      12.3302      0.80595
     15      13.8098      0.00000
     16      14.0408      0.00000
     17      14.5387      0.00000
     18      15.0920      0.00000
     19      17.6831      0.00000
     20      18.4850      0.00000
     21      23.1923      0.00000
     22      24.0032      0.00000
     23      24.9565      0.00000
     24      25.0619      0.00000
     25      28.4967      0.00000
     26      28.9290      0.00000
     27      34.2805      0.00000
     28      35.1151      0.00000
     29      35.5059      0.00000
     30      36.0768      0.00000
     31      39.0815      0.00000
     32      39.6880      0.00000
     33      41.0684      0.00000
     34      41.9666      0.00000
     35      44.0862      0.00000
     36      44.4823      0.00000
     37      47.8361      0.00000
     38      48.0294      0.00000
     39      48.4955      0.00000
     40      49.3336      0.00000
     41      50.1428      0.00000
     42      51.3699      0.00000
     43      51.4433      0.00000
     44      53.2932      0.00000
     45      54.6202      0.00000
     46      57.0219      0.00000
     47      57.0565      0.00000
     48      57.7953      0.00000
     49      58.3545      0.00000
     50      60.6831      0.00000
     51      62.2988      0.00000
     52      62.5469      0.00000
     53      65.6546      0.00000
     54      66.0679      0.00000
     55      66.1434      0.00000
     56      68.2589      0.00000
     57      68.9368      0.00000
     58      69.9671      0.00000
     59      70.5090      0.00000
     60      73.1909      0.00000
     61      73.1965      0.00000
     62      74.6456      0.00000
     63      75.1850      0.00000
     64      76.0668      0.00000

 k-point    17 :       0.2857    0.2857    0.2857
  band No.  band energies     occupation 
      1     -48.7889      1.00000
      2     -48.6861      1.00000
      3     -23.2631      1.00000
      4     -23.2339      1.00000
      5     -23.2339      1.00000
      6     -22.5069      1.00000
      7     -22.5069      1.00000
      8     -22.4708      1.00000
      9       8.7923      1.00000
     10       8.9556      1.00000
     11       9.4019      1.00000
     12       9.4019      1.00000
     13       9.6602      1.00000
     14       9.6602      1.00003
     15      14.1184      0.00000
     16      14.1184      0.00000
     17      14.4233      0.00000
     18      14.4233      0.00000
     19      16.6784      0.00000
     20      22.4035      0.00000
     21      22.7059      0.00000
     22      22.7059      0.00000
     23      27.0573      0.00000
     24      27.0573      0.00000
     25      28.1361      0.00000
     26      30.7096      0.00000
     27      31.7439      0.00000
     28      32.4220      0.00000
     29      32.4220      0.00000
     30      38.3374      0.00000
     31      40.6750      0.00000
     32      40.6750      0.00000
     33      42.3860      0.00000
     34      42.8577      0.00000
     35      42.8577      0.00000
     36      44.2485      0.00000
     37      44.2485      0.00000
     38      45.7064      0.00000
     39      48.5292      0.00000
     40      50.8598      0.00000
     41      50.8598      0.00000
     42      53.0896      0.00000
     43      53.0896      0.00000
     44      55.6842      0.00000
     45      56.0595      0.00000
     46      56.0595      0.00000
     47      57.9199      0.00000
     48      58.7728      0.00000
     49      58.7728      0.00000
     50      60.3382      0.00000
     51      61.7158      0.00000
     52      61.7158      0.00000
     53      65.6537      0.00000
     54      65.9920      0.00000
     55      65.9920      0.00000
     56      66.1528      0.00000
     57      66.8782      0.00000
     58      70.6008      0.00000
     59      71.1842      0.00000
     60      71.1842      0.00000
     61      71.4990      0.00000
     62      75.1748      0.00000
     63      75.1748      0.00000
     64      77.2503      0.00000

 k-point    18 :       0.4286    0.2857    0.2857
  band No.  band energies     occupation 
      1     -48.7494      1.00000
      2     -48.7126      1.00000
      3     -23.3532      1.00000
      4     -23.3517      1.00000
      5     -22.9994      1.00000
      6     -22.7398      1.00000
      7     -22.4646      1.00000
      8     -22.4421      1.00000
      9       8.4933      1.00000
     10       8.5615      1.00000
     11       9.3855      1.00000
     12       9.5306      1.00000
     13      10.2782      1.00000
     14      10.5785      1.00000
     15      13.9285      0.00000
     16      13.9559      0.00000
     17      14.5838      0.00000
     18      14.7118      0.00000
     19      18.3114      0.00000
     20      20.2186      0.00000
     21      23.0094      0.00000
     22      24.6147      0.00000
     23      24.7471      0.00000
     24      26.0378      0.00000
     25      27.6600      0.00000
     26      29.0782      0.00000
     27      32.3863      0.00000
     28      32.9156      0.00000
     29      34.7856      0.00000
     30      36.9508      0.00000
     31      39.8574      0.00000
     32      41.1271      0.00000
     33      41.3371      0.00000
     34      41.9699      0.00000
     35      44.6151      0.00000
     36      44.9614      0.00000
     37      46.1706      0.00000
     38      47.4864      0.00000
     39      47.7164      0.00000
     40      48.1935      0.00000
     41      48.8653      0.00000
     42      50.5299      0.00000
     43      52.7364      0.00000
     44      54.9370      0.00000
     45      57.9031      0.00000
     46      58.2368      0.00000
     47      58.3126      0.00000
     48      59.2357      0.00000
     49      59.5716      0.00000
     50      60.1025      0.00000
     51      60.7854      0.00000
     52      61.5828      0.00000
     53      64.4237      0.00000
     54      66.4741      0.00000
     55      67.0156      0.00000
     56      67.9568      0.00000
     57      68.3433      0.00000
     58      68.9973      0.00000
     59      70.4862      0.00000
     60      72.7701      0.00000
     61      74.1805      0.00000
     62      75.1798      0.00000
     63      76.2789      0.00000
     64      76.5195      0.00000

 k-point    19 :       0.4286    0.4286    0.2857
  band No.  band energies     occupation 
      1     -48.7310      1.00000
      2     -48.7178      1.00000
      3     -23.3661      1.00000
      4     -23.3480      1.00000
      5     -22.9445      1.00000
      6     -22.8001      1.00000
      7     -22.5383      1.00000
      8     -22.4959      1.00000
      9       8.4546      1.00000
     10       8.6557      1.00000
     11       9.0898      1.00000
     12       9.3533      1.00000
     13      10.9601      1.00000
     14      11.0866      1.00000
     15      14.2669      0.00000
     16      14.3271      0.00000
     17      14.5934      0.00000
     18      14.6760      0.00000
     19      19.7335      0.00000
     20      20.6963      0.00000
     21      22.3740      0.00000
     22      23.2890      0.00000
     23      24.4732      0.00000
     24      25.4532      0.00000
     25      26.2989      0.00000
     26      27.3181      0.00000
     27      34.0302      0.00000
     28      34.6393      0.00000
     29      35.1983      0.00000
     30      36.7594      0.00000
     31      39.6199      0.00000
     32      39.9224      0.00000
     33      40.2926      0.00000
     34      40.5360      0.00000
     35      44.2924      0.00000
     36      45.1334      0.00000
     37      45.8453      0.00000
     38      46.4512      0.00000
     39      48.6668      0.00000
     40      49.6153      0.00000
     41      50.4855      0.00000
     42      51.8315      0.00000
     43      52.5692      0.00000
     44      54.5066      0.00000
     45      55.6099      0.00000
     46      56.4112      0.00000
     47      57.4583      0.00000
     48      58.9967      0.00000
     49      60.0369      0.00000
     50      63.1713      0.00000
     51      63.6774      0.00000
     52      63.8945      0.00000
     53      64.9346      0.00000
     54      65.4993      0.00000
     55      66.8170      0.00000
     56      67.0057      0.00000
     57      69.3868      0.00000
     58      70.1999      0.00000
     59      70.4783      0.00000
     60      70.5589      0.00000
     61      73.2352      0.00000
     62      74.3298      0.00000
     63      74.7279      0.00000
     64      75.8241      0.00000

 k-point    20 :       0.4286    0.4286    0.4286
  band No.  band energies     occupation 
      1     -48.7203      1.00000
      2     -48.7156      1.00000
      3     -23.2146      1.00000
      4     -23.0884      1.00000
      5     -23.0884      1.00000
      6     -22.7992      1.00000
      7     -22.7992      1.00000
      8     -22.6661      1.00000
      9       8.9392      1.00000
     10       9.3921      1.00000
     11       9.3921      1.00000
     12      10.0722      1.00000
     13      10.0722      1.00000
     14      10.1966      1.00000
     15      14.6190      0.00000
     16      14.6190      0.00000
     17      14.6226      0.00000
     18      14.6226      0.00000
     19      21.3428      0.00000
     20      21.9091      0.00000
     21      22.7537      0.00000
     22      22.8901      0.00000
     23      22.8901      0.00000
     24      24.7116      0.00000
     25      24.7116      0.00000
     26      25.8852      0.00000
     27      35.1371      0.00000
     28      35.9962      0.00000
     29      35.9962      0.00000
     30      38.5057      0.00000
     31      39.0057      0.00000
     32      39.0057      0.00000
     33      40.5406      0.00000
     34      40.5406      0.00000
     35      41.2133      0.00000
     36      42.2918      0.00000
     37      42.7481      0.00000
     38      42.7481      0.00000
     39      52.5567      0.00000
     40      52.5567      0.00000
     41      52.7773      0.00000
     42      53.4163      0.00000
     43      55.2809      0.00000
     44      55.2809      0.00000
     45      56.5326      0.00000
     46      58.5421      0.00000
     47      58.5421      0.00000
     48      59.5446      0.00000
     49      59.5446      0.00000
     50      60.3570      0.00000
     51      62.3836      0.00000
     52      62.5913      0.00000
     53      62.5913      0.00000
     54      63.3257      0.00000
     55      66.0430      0.00000
     56      66.0430      0.00000
     57      70.1504      0.00000
     58      72.1123      0.00000
     59      72.1123      0.00000
     60      72.2585      0.00000
     61      72.2585      0.00000
     62      74.2640      0.00000
     63      74.2640      0.00000
     64      77.1528      0.00000


--------------------------------------------------------------------------------------------------------


 soft charge-density along one line, spin component           1
         0         1         2         3         4         5         6         7         8         9
 total charge-density along one line
 
 soft charge-density along one line, spin component           2
         0         1         2         3         4         5         6         7         8         9
 total charge-density along one line
 
 pseudopotential strength for first ion, spin component:           1
 -5.356  10.033   0.000   0.000  -0.000  -0.000  -0.000   0.000
 10.033   3.334  -0.000  -0.000   0.000   0.000   0.000   0.000
  0.000  -0.000 -16.513  -0.000  -0.000   7.243   0.000   0.000
  0.000  -0.000  -0.000 -16.513   0.000   0.000   7.243  -0.000
 -0.000   0.000  -0.000   0.000 -16.513   0.000  -0.000   7.243
 -0.000   0.000   7.243   0.000   0.000   6.695   0.000  -0.000
 -0.000   0.000   0.000   7.243  -0.000   0.000   6.695   0.000
  0.000   0.000   0.000  -0.000   7.243  -0.000   0.000   6.695
 -0.000   0.000  -0.000   0.000   0.000   0.000   0.000  -0.000
 -0.000   0.000   0.000   0.000   0.000  -0.000  -0.000   0.000
 -0.000   0.000  -0.000   0.000  -0.000   0.000  -0.000   0.000
  0.000  -0.000   0.000  -0.000   0.000   0.000   0.000  -0.000
  0.000  -0.000  -0.000   0.000   0.000   0.000  -0.000  -0.000
 -0.000   0.000  -0.000   0.000   0.000   0.000   0.000  -0.000
 -0.000   0.000   0.000   0.000   0.000  -0.000  -0.000   0.000
 -0.000   0.000  -0.000   0.000  -0.000   0.000  -0.000  -0.000
  0.000  -0.000   0.000   0.000   0.000   0.000   0.000  -0.000
  0.000  -0.000  -0.000   0.000   0.000   0.000  -0.000  -0.000
 pseudopotential strength for first ion, spin component:           2
 -5.356  10.033   0.000   0.000  -0.000  -0.000  -0.000   0.000
 10.033   3.334  -0.000  -0.000   0.000   0.000   0.000   0.000
  0.000  -0.000 -16.513   0.000  -0.000   7.243  -0.000   0.000
  0.000  -0.000   0.000 -16.513   0.000  -0.000   7.243  -0.000
 -0.000   0.000  -0.000   0.000 -16.513   0.000  -0.000   7.243
 -0.000   0.000   7.243  -0.000   0.000   6.695   0.000  -0.000
 -0.000   0.000  -0.000   7.243  -0.000   0.000   6.695   0.000
  0.000   0.000   0.000  -0.000   7.243  -0.000   0.000   6.695
 -0.000   0.000  -0.000  -0.000   0.000   0.000   0.000  -0.000
  0.000   0.000   0.000   0.000  -0.000  -0.000  -0.000   0.000
 -0.000   0.000  -0.000   0.000   0.000   0.000  -0.000   0.000
  0.000  -0.000  -0.000   0.000   0.000   0.000   0.000  -0.000
  0.000  -0.000  -0.000   0.000   0.000   0.000  -0.000  -0.000
 -0.000   0.000  -0.000  -0.000   0.000   0.000   0.000  -0.000
  0.000   0.000   0.000   0.000  -0.000  -0.000  -0.000   0.000
 -0.000   0.000  -0.000   0.000   0.000   0.000  -0.000  -0.000
  0.000  -0.000  -0.000   0.000   0.000   0.000  -0.000  -0.000
  0.000  -0.000  -0.000   0.000   0.000   0.000  -0.000  -0.000
 total augmentation occupancy for first ion, spin component:           1
  1.995  -0.037   0.000   0.000   0.000   0.000   0.000   0.000  -0.000  -0.000   0.000  -0.000  -0.000  -0.000   0.000   0.000
 -0.037   1.547   0.000  -0.000   0.000   0.000   0.000  -0.000  -0.000  -0.000   0.000   0.000   0.000  -0.000   0.000   0.000
  0.000   0.000   1.997   0.000  -0.000  -0.041  -0.000   0.000  -0.000   0.000   0.000   0.000   0.000   0.000   0.000  -0.000
  0.000  -0.000   0.000   1.997   0.000  -0.000  -0.041  -0.000   0.000   0.000  -0.000   0.000   0.000   0.000  -0.000   0.000
  0.000   0.000  -0.000   0.000   1.997   0.000  -0.000  -0.041  -0.000   0.000   0.000  -0.000   0.000  -0.000  -0.000   0.000
  0.000   0.000  -0.041  -0.000   0.000   0.107   0.000  -0.000   0.000  -0.000   0.000   0.000  -0.000  -0.000   0.000   0.000
  0.000   0.000  -0.000  -0.041  -0.000   0.000   0.107   0.000   0.000  -0.000   0.000   0.000  -0.000   0.000   0.000   0.000
  0.000   0.000   0.000  -0.000  -0.041  -0.000   0.000   0.107   0.000  -0.000  -0.000   0.000  -0.000   0.000   0.000   0.000
 -0.000  -0.000  -0.000   0.000   0.000   0.000   0.000   0.000   1.257   0.000   0.000   0.000   0.000  -1.712  -0.000  -0.000
  0.000  -0.000   0.000  -0.000   0.000   0.000  -0.000   0.000   0.000   1.257   0.000  -0.000  -0.000  -0.000  -1.712  -0.000
  0.000   0.000  -0.000   0.000  -0.000   0.000   0.000  -0.000   0.000   0.000   1.315   0.000   0.000  -0.000  -0.000  -1.899
  0.000  -0.000   0.000  -0.000  -0.000  -0.000   0.000  -0.000   0.000  -0.000   0.000   1.257   0.000  -0.000   0.000  -0.000
 -0.000   0.000  -0.000  -0.000   0.000   0.000   0.000  -0.000   0.000  -0.000   0.000   0.000   1.315  -0.000   0.000  -0.000
  0.000   0.000   0.000   0.000  -0.000   0.000   0.000  -0.000  -1.712  -0.000  -0.000  -0.000  -0.000   3.043   0.000   0.000
 -0.000   0.000  -0.000   0.000   0.000  -0.000   0.000  -0.000  -0.000  -1.712  -0.000   0.000   0.000   0.000   3.043   0.000
  0.000   0.000  -0.000   0.000   0.000   0.000   0.000  -0.000  -0.000  -0.000  -1.899  -0.000   0.000   0.000   0.000   3.036
  0.000   0.000   0.000   0.000  -0.000  -0.000  -0.000  -0.000  -0.000   0.000  -0.000  -1.712  -0.000   0.000  -0.000   0.000
 -0.000   0.000   0.000  -0.000  -0.000   0.000   0.000  -0.000  -0.000   0.000  -0.000  -0.000  -1.899  -0.000  -0.000   0.000
 total augmentation occupancy for first ion, spin component:           2
  0.000   0.000   0.000  -0.000  -0.000  -0.000   0.000   0.000   0.000   0.000  -0.000  -0.000   0.000  -0.000  -0.000   0.000
  0.000   0.000   0.000   0.000  -0.000   0.000   0.000   0.000  -0.000   0.000   0.000   0.000  -0.000  -0.000  -0.000   0.000
  0.000   0.000   0.000   0.000  -0.000   0.000   0.000  -0.000  -0.000  -0.000  -0.000   0.000   0.000   0.000  -0.000   0.000
 -0.000   0.000   0.000   0.000   0.000   0.000   0.000   0.000   0.000   0.000   0.000   0.000   0.000  -0.000  -0.000   0.000
 -0.000  -0.000  -0.000   0.000   0.000  -0.000   0.000   0.000   0.000  -0.000  -0.000   0.000   0.000  -0.000   0.000  -0.000
 -0.000   0.000   0.000   0.000  -0.000   0.000   0.000  -0.000   0.000  -0.000   0.000   0.000   0.000   0.000   0.000   0.000
  0.000   0.000   0.000   0.000   0.000   0.000   0.000   0.000   0.000  -0.000   0.000   0.000   0.000   0.000   0.000   0.000
  0.000   0.000  -0.000   0.000   0.000  -0.000   0.000   0.000   0.000  -0.000   0.000  -0.000   0.000   0.000   0.000  -0.000
  0.000  -0.000  -0.000  -0.000   0.000   0.000   0.000   0.000  -0.001  -0.000  -0.000  -0.000   0.000   0.001   0.000   0.000
  0.000   0.000   0.000   0.000   0.000   0.000  -0.000   0.000  -0.000  -0.001  -0.000   0.000   0.000   0.000   0.001   0.000
 -0.000   0.000   0.000   0.000   0.000  -0.000   0.000  -0.000  -0.000  -0.000  -0.000  -0.000  -0.000   0.000   0.000   0.001
 -0.000   0.000   0.000   0.000   0.000   0.000   0.000  -0.000  -0.000   0.000  -0.000  -0.001  -0.000   0.000  -0.000   0.000
  0.000  -0.000   0.000   0.000  -0.000   0.000   0.000  -0.000   0.000   0.000  -0.000  -0.000  -0.000  -0.000  -0.000   0.000
 -0.000  -0.000  -0.000   0.000  -0.000   0.000   0.000  -0.000   0.001   0.000   0.000   0.000  -0.000  -0.002  -0.000  -0.000
 -0.000  -0.000   0.000  -0.000  -0.000  -0.000  -0.000   0.000   0.000   0.001   0.000  -0.000  -0.000  -0.000  -0.002  -0.000
  0.000   0.000  -0.000   0.000   0.000   0.000   0.000   0.000   0.000   0.000   0.001   0.000  -0.000  -0.000  -0.000  -0.001
 -0.000   0.000  -0.000   0.000   0.000   0.000   0.000  -0.000   0.000  -0.000   0.000   0.001   0.000  -0.000   0.000  -0.000
 -0.000  -0.000   0.000  -0.000   0.000  -0.000   0.000  -0.000  -0.000  -0.000   0.000   0.000   0.001   0.000   0.000  -0.000


------------------------ aborting loop because EDIFF is reached ----------------------------------------





 total charge

# of ion       s       p       d       tot
------------------------------------------
    1        2.376   6.209   3.866  12.452
    2        2.376   6.209   3.866  12.452
--------------------------------------------------
tot          4.753  12.418   7.733  24.904



 magnetization (x)

# of ion       s       p       d       tot
------------------------------------------
    1        0.000  -0.000  -0.000  -0.000
    2        0.000  -0.000  -0.000  -0.000
--------------------------------------------------
tot          0.000  -0.000  -0.000  -0.000
 
    CHARGE:  cpu time      0.0241: real time      0.0241
    FORLOC:  cpu time      0.0001: real time      0.0010
    FORNL :  cpu time      0.1627: real time      0.1666
    STRESS:  cpu time      0.4813: real time      0.4883
    FORCOR:  cpu time      0.0122: real time      0.0175
    FORHAR:  cpu time      0.0020: real time      0.0033
    MIXING:  cpu time      0.0007: real time      0.0007
    OFIELD:  cpu time      0.0001: real time      0.0019

  FORCE on cell =-STRESS in cart. coord.  units (eV):
  Direction    XX          YY          ZZ          XY          YZ          ZX
  --------------------------------------------------------------------------------------
  Alpha Z   231.92907   231.92907   231.92907
  Ewald   -1080.85636 -1080.85636 -1080.85636     0.00000     0.00000     0.00000
  Hartree   179.86360   179.86360   179.86360    -0.00000    -0.00000    -0.00000
  E(xc)    -134.29730  -134.29730  -134.29730    -0.00000     0.00000     0.00000
  Local     279.74856   279.74856   279.74856     0.00000    -0.00000    -0.00000
  n-local   -57.57832   -46.34790   -41.40736     1.35596    -1.06143    -0.02509
  augment    68.36772    68.36772    68.36772     0.00000     0.00000    -0.00000
  Kinetic   490.87254   502.33423   517.71960     9.21159    -3.03243     1.39574
  Fock        0.00000     0.00000     0.00000     0.00000     0.00000     0.00000
  -------------------------------------------------------------------------------------
  Total      -0.04712    -0.04712    -0.04712     0.00000     0.00000    -0.00000
  in kB      -2.37528    -2.37528    -2.37528     0.00000     0.00000    -0.00000
  external pressure =       -2.38 kB  Pullay stress =        0.00 kB


 VOLUME and BASIS-vectors are now :
 -----------------------------------------------------------------------------
  energy-cutoff  :      520.00
  volume of cell :       31.78
      direct lattice vectors                 reciprocal lattice vectors
     3.167617944  0.000000000  0.000000000     0.315694638  0.000000000  0.000000000
    -0.000000000  3.167617944  0.000000000     0.000000000  0.315694638  0.000000000
     0.000000000  0.000000000  3.167617944    -0.000000000 -0.000000000  0.315694638

  length of vectors
     3.167617944  3.167617944  3.167617944     0.315694638  0.315694638  0.315694638


 FORCES acting on ions
    electron-ion (+dipol)            ewald-force                    non-local-force                 convergence-correction
 -----------------------------------------------------------------------------------------------
   -.799E-14 -.853E-14 -.241E-13   0.675E-14 -.193E-14 -.559E-14   -.133E-25 -.263E-25 -.568E-25   -.575E-14 -.330E-14 -.608E-13
   0.236E-12 0.374E-12 -.342E-11   -.657E-14 0.138E-14 0.862E-14   0.202E-25 -.191E-25 -.514E-25   -.203E-13 0.468E-13 0.508E-13
 -----------------------------------------------------------------------------------------------
   0.228E-12 0.365E-12 -.345E-11   0.184E-15 -.545E-15 0.303E-14   0.687E-26 -.454E-25 -.108E-24   -.261E-13 0.435E-13 -.997E-14
 
 
 POSITION                                       TOTAL-FORCE (eV/Angst)
 -----------------------------------------------------------------------------------
      0.00000      0.00000      0.00000        -0.000000      0.000000     -0.000000
      1.58381      1.58381      1.58381         0.000000     -0.000000      0.000000
 -----------------------------------------------------------------------------------
    total drift:                                0.000000      0.000000     -0.000000


--------------------------------------------------------------------------------------------------------



  FREE ENERGIE OF THE ION-ELECTRON SYSTEM (eV)
  ---------------------------------------------------
  free  energy   TOTEN  =       -21.81512882 eV

  energy  without entropy=      -21.81512882  energy(sigma->0) =      -21.81512882
 


--------------------------------------------------------------------------------------------------------


    POTLOK:  cpu time      0.6107: real time      0.6391


--------------------------------------------------------------------------------------------------------


 stress matrix after NEB project (eV)
     -0.04712     -0.00000     -0.00000
      0.00000     -0.04712     -0.00000
      0.00000      0.00000     -0.04712
  FORCES: max atom, RMS     0.000000    0.000000
  FORCE total and by dimension    0.000000    0.000000
  Stress total and by dimension    0.081614    0.047120


--------------------------------------------------------------------------------------------------------


    WAVPRE:  cpu time      0.5546: real time      0.5722
    FEWALD:  cpu time      0.0004: real time      0.0012
    GENKIN:  cpu time      0.0056: real time      0.0056
    ORTHCH:  cpu time      0.1055: real time      0.1059
     LOOP+:  cpu time     50.6336: real time     51.3336
 -----------------------------------------------------------------------------
|                                                                             |
|           W    W    AA    RRRRR   N    N  II  N    N   GGGG   !!!           |
|           W    W   A  A   R    R  NN   N  II  NN   N  G    G  !!!           |
|           W    W  A    A  R    R  N N  N  II  N N  N  G       !!!           |
|           W WW W  AAAAAA  RRRRR   N  N N  II  N  N N  G  GGG   !            |
|           WW  WW  A    A  R   R   N   NN  II  N   NN  G    G                |
|           W    W  A    A  R    R  N    N  II  N    N   GGGG   !!!           |
|                                                                             |
|     Tetrahedron method does not include variations of the Fermi             |
|     occupations, so forces and stress will be inaccurate. We suggest        |
|     using a different smearing scheme ISMEAR = 1 or 2 for metals in         |
|     relaxations.                                                            |
|                                                                             |
 -----------------------------------------------------------------------------



--------------------------------------- Iteration      2(   1)  ---------------------------------------


    POTLOK:  cpu time      0.0147: real time      0.0148
    SETDIJ:  cpu time      0.6246: real time      0.6259
     EDDAV:  cpu time      8.7445: real time      8.8451
 BZINTS: Fermi energy:   12.404676;   28.000000 electrons
         Band energy:-0.353372E+03;  BLOECHL correction:   -0.064327
       DOS:  cpu time      0.0466: real time      0.0466
    CHARGE:  cpu time      0.0246: real time      0.0249
    MIXING:  cpu time      0.0005: real time      0.0005
    --------------------------------------------
      LOOP:  cpu time      9.4554: real time      9.5579

 eigenvalue-minimisations  :  7552
 total energy-change (2. order) :-0.8008308E-02  (-0.6430318E-02)
 number of electron      27.9998905 magnetization      -0.0000081
 augmentation part        4.8865021 magnetization       0.0000217

 Broyden mixing:
  rms(total) = 0.46224E-01    rms(broyden)= 0.46222E-01
  rms(prec ) = 0.77607E-01
  weight for this iteration     100.00

 Free energy of the ion-electron system (eV)
  ---------------------------------------------------
  alpha Z        PSCENC =       232.45718481
  Ewald energy   TEWEN  =     -3245.02854896
  -Hartree energ DENC   =      -540.02080393
  -exchange      EXHF   =         0.00000000
  -V(xc)+E(xc)   XCENC  =       130.85142252
  PAW double counting   =      3249.05079370    -3220.32003662
  entropy T*S    EENTRO =         0.00000000
  eigenvalues    EBANDS =      -353.37230786
  atomic energy  EATOM  =      3724.55917465
  Solvation  Ediel_sol  =         0.00000000
  ---------------------------------------------------
  free energy    TOTEN  =       -21.82312168 eV

  energy without entropy =      -21.82312168  energy(sigma->0) =      -21.82312168


--------------------------------------------------------------------------------------------------------




--------------------------------------- Iteration      2(   2)  ---------------------------------------


    POTLOK:  cpu time      0.0153: real time      0.0155
    SETDIJ:  cpu time      0.6293: real time      0.6316
    EDDIAG:  cpu time      0.3938: real time      0.3967
  RMM-DIIS:  cpu time      0.2049: real time      0.2053
    ORTHCH:  cpu time      0.1146: real time      0.1162
 BZINTS: Fermi energy:   12.384014;   28.000000 electrons
         Band energy:-0.354355E+03;  BLOECHL correction:   -0.065436
       DOS:  cpu time      0.0462: real time      0.0464
    CHARGE:  cpu time      0.0260: real time      0.0260
    MIXING:  cpu time      0.0004: real time      0.0004
    --------------------------------------------
      LOOP:  cpu time      1.4305: real time      1.4381

 eigenvalue-minimisations  :  5119
 total energy-change (2. order) : 0.4411562E-03  (-0.6595932E-04)
 number of electron      27.9998907 magnetization      -0.0000043
 augmentation part        4.8980329 magnetization      -0.0000218

 Broyden mixing:
  rms(total) = 0.79624E-02    rms(broyden)= 0.79621E-02
  rms(prec ) = 0.18043E-01
  weight for this iteration     100.00

 eigenvalues of (default mixing * dielectric matrix)
  average eigenvalue GAMMA=   1.1166
  1.1166

 Free energy of the ion-electron system (eV)
  ---------------------------------------------------
  alpha Z        PSCENC =       232.45718481
  Ewald energy   TEWEN  =     -3245.02854896
  -Hartree energ DENC   =      -538.91208337
  -exchange      EXHF   =         0.00000000
  -V(xc)+E(xc)   XCENC  =       130.79579465
  PAW double counting   =      3253.20411185    -3224.54356680
  entropy T*S    EENTRO =         0.00000000
  eigenvalues    EBANDS =      -354.35474736
  atomic energy  EATOM  =      3724.55917465
  Solvation  Ediel_sol  =         0.00000000
  ---------------------------------------------------
  free energy    TOTEN  =       -21.82268052 eV

  energy without entropy =      -21.82268052  energy(sigma->0) =      -21.82268052


--------------------------------------------------------------------------------------------------------




--------------------------------------- Iteration      2(   3)  ---------------------------------------


    POTLOK:  cpu time      0.0133: real time      0.0135
    SETDIJ:  cpu time      0.6291: real time      0.6316
    EDDIAG:  cpu time      1.5034: real time      1.5361
  RMM-DIIS:  cpu time      0.1750: real time      0.1861
    ORTHCH:  cpu time      0.2156: real time      0.2325
 BZINTS: Fermi energy:   12.377167;   28.000000 electrons
         Band energy:-0.354673E+03;  BLOECHL correction:   -0.065816
       DOS:  cpu time      0.0447: real time      0.0460
    CHARGE:  cpu time      0.0265: real time      0.0265
    MIXING:  cpu time      0.0004: real time      0.0004
    --------------------------------------------
      LOOP:  cpu time      2.6080: real time      2.6727

 eigenvalue-minimisations  :  4614
 total energy-change (2. order) :-0.4494740E-03  (-0.1642845E-04)
 number of electron      27.9998907 magnetization       0.0000250
 augmentation part        4.9020460 magnetization       0.0000306

 Broyden mixing:
  rms(total) = 0.68085E-02    rms(broyden)= 0.68085E-02
  rms(prec ) = 0.75122E-02
  weight for this iteration     100.00

 eigenvalues of (default mixing * dielectric matrix)
  average eigenvalue GAMMA=   1.1129
  1.1129  1.1129

 Free energy of the ion-electron system (eV)
  ---------------------------------------------------
  alpha Z        PSCENC =       232.45718481
  Ewald energy   TEWEN  =     -3245.02854896
  -Hartree energ DENC   =      -538.58723076
  -exchange      EXHF   =         0.00000000
  -V(xc)+E(xc)   XCENC  =       130.77988456
  PAW double counting   =      3254.48997461    -3225.82047036
  entropy T*S    EENTRO =         0.00000000
  eigenvalues    EBANDS =      -354.67309855
  atomic energy  EATOM  =      3724.55917465
  Solvation  Ediel_sol  =         0.00000000
  ---------------------------------------------------
  free energy    TOTEN  =       -21.82312999 eV

  energy without entropy =      -21.82312999  energy(sigma->0) =      -21.82312999


--------------------------------------------------------------------------------------------------------




--------------------------------------- Iteration      2(   4)  ---------------------------------------


    POTLOK:  cpu time      0.0128: real time      0.0252
    SETDIJ:  cpu time      0.6173: real time      0.6344
    EDDIAG:  cpu time      0.4859: real time      0.4951
  RMM-DIIS:  cpu time      0.1532: real time      0.1536
    ORTHCH:  cpu time      0.0598: real time      0.0614
 BZINTS: Fermi energy:   12.377126;   28.000000 electrons
         Band energy:-0.354666E+03;  BLOECHL correction:   -0.065835
       DOS:  cpu time      0.0455: real time      0.0458
    CHARGE:  cpu time      0.0305: real time      0.0305
    MIXING:  cpu time      0.0005: real time      0.0005
    --------------------------------------------
      LOOP:  cpu time      1.4054: real time      1.4465

 eigenvalue-minimisations  :  2757
 total energy-change (2. order) :-0.1873265E-03  (-0.1536725E-05)
 number of electron      27.9998907 magnetization      -0.0000137
 augmentation part        4.9022096 magnetization      -0.0000335

 Broyden mixing:
  rms(total) = 0.22984E-02    rms(broyden)= 0.22983E-02
  rms(prec ) = 0.24204E-02
  weight for this iteration     100.00

 eigenvalues of (default mixing * dielectric matrix)
  average eigenvalue GAMMA=   1.4785
  2.3763  1.4212  0.6382

 Free energy of the ion-electron system (eV)
  ---------------------------------------------------
  alpha Z        PSCENC =       232.45718481
  Ewald energy   TEWEN  =     -3245.02854896
  -Hartree energ DENC   =      -538.64354876
  -exchange      EXHF   =         0.00000000
  -V(xc)+E(xc)   XCENC  =       130.78296015
  PAW double counting   =      3254.15569270    -3225.44063136
  entropy T*S    EENTRO =         0.00000000
  eigenvalues    EBANDS =      -354.66560055
  atomic energy  EATOM  =      3724.55917465
  Solvation  Ediel_sol  =         0.00000000
  ---------------------------------------------------
  free energy    TOTEN  =       -21.82331732 eV

  energy without entropy =      -21.82331732  energy(sigma->0) =      -21.82331732


--------------------------------------------------------------------------------------------------------




--------------------------------------- Iteration      2(   5)  ---------------------------------------


    POTLOK:  cpu time      0.0122: real time      0.0124
    SETDIJ:  cpu time      0.6267: real time      0.6292
    EDDIAG:  cpu time      0.4596: real time      0.4622
  RMM-DIIS:  cpu time      0.1285: real time      0.1289
    ORTHCH:  cpu time      0.0539: real time      0.0540
 BZINTS: Fermi energy:   12.377009;   28.000000 electrons
         Band energy:-0.354669E+03;  BLOECHL correction:   -0.065846
       DOS:  cpu time      0.0461: real time      0.0461
    --------------------------------------------
      LOOP:  cpu time      1.3269: real time      1.3327

 eigenvalue-minimisations  :  1409
 total energy-change (2. order) :-0.5647287E-04  (-0.9568575E-07)
 number of electron      27.9998907 magnetization      -0.0000137
 augmentation part        4.9022096 magnetization      -0.0000335

 Free energy of the ion-electron system (eV)
  ---------------------------------------------------
  alpha Z        PSCENC =       232.45718481
  Ewald energy   TEWEN  =     -3245.02854896
  -Hartree energ DENC   =      -538.65326237
  -exchange      EXHF   =         0.00000000
  -V(xc)+E(xc)   XCENC  =       130.78350733
  PAW double counting   =      3254.04106609    -3225.31370797
  entropy T*S    EENTRO =         0.00000000
  eigenvalues    EBANDS =      -354.66878738
  atomic energy  EATOM  =      3724.55917465
  Solvation  Ediel_sol  =         0.00000000
  ---------------------------------------------------
  free energy    TOTEN  =       -21.82337379 eV

  energy without entropy =      -21.82337379  energy(sigma->0) =      -21.82337379


--------------------------------------------------------------------------------------------------------




 average (electrostatic) potential at core
  the test charge radii are     1.0818
  (the norm of the test charge is              1.0000)
       1 -69.4752       2 -69.4752
 
 
 
 E-fermi :  12.3770     XC(G=0): -13.3153     alpha+bet :-19.7057

 Fermi energy:        12.3770085159

 spin component 1

 k-point     1 :       0.0000    0.0000    0.0000
  band No.  band energies     occupation 
      1     -48.9470      1.00000
      2     -48.5216      1.00000
      3     -23.1701      1.00000
      4     -23.1701      1.00000
      5     -23.1584      1.00000
      6     -22.2484      1.00000
      7     -22.2484      1.00000
      8     -22.2329      1.00000
      9       5.1763      1.00000
     10       7.0235      1.00000
     11       7.0322      1.00000
     12      11.0095      1.00000
     13      11.0095      1.00000
     14      11.0147      1.00073
     15      13.9689      0.00000
     16      14.0000      0.00000
     17      16.2322      0.00000
     18      16.2464      0.00000
     19      16.2464      0.00000
     20      21.2966      0.00000
     21      21.3261      0.00000
     22      21.3261      0.00000
     23      27.1594      0.00000
     24      27.1855      0.00000
     25      27.1855      0.00000
     26      31.7992      0.00000
     27      32.8779      0.00000
     28      32.8919      0.00000
     29      35.6931      0.00000
     30      38.5279      0.00000
     31      38.5428      0.00000
     32      41.9141      0.00000
     33      41.9766      0.00000
     34      41.9766      0.00000
     35      48.2360      0.00000
     36      48.2360      0.00000
     37      48.2620      0.00000
     38      48.9229      0.00000
     39      48.9598      0.00000
     40      48.9598      0.00000
     41      52.2967      0.00000
     42      54.4941      0.00000
     43      54.4941      0.00000
     44      54.5468      0.00000
     45      57.0918      0.00000
     46      57.0918      0.00000
     47      57.0943      0.00000
     48      58.6358      0.00000
     49      58.6622      0.00000
     50      58.6622      0.00000
     51      60.9847      0.00000
     52      64.4776      0.00000
     53      65.0173      0.00000
     54      65.0173      0.00000
     55      65.0420      0.00000
     56      69.2378      0.00000
     57      69.2378      0.00000
     58      69.3013      0.00000
     59      70.6359      0.00000
     60      70.7049      0.00000
     61      73.3498      0.00000
     62      73.4158      0.00000
     63      74.5857      0.00000
     64      74.6806      0.00000

 k-point     2 :       0.1429    0.0000    0.0000
  band No.  band energies     occupation 
      1     -48.9229      1.00000
      2     -48.5394      1.00000
      3     -23.1717      1.00000
      4     -23.1231      1.00000
      5     -23.1112      1.00000
      6     -22.3444      1.00000
      7     -22.2922      1.00000
      8     -22.2770      1.00000
      9       5.6155      1.00000
     10       7.2651      1.00000
     11       7.3984      1.00000
     12      10.9873      1.00000
     13      10.9923      1.00000
     14      11.2040      1.00073
     15      13.4284     -0.01396
     16      14.1784      0.00000
     17      15.1796      0.00000
     18      15.1866      0.00000
     19      15.8802      0.00000
     20      20.1863      0.00000
     21      22.8460      0.00000
     22      22.8689      0.00000
     23      27.6451      0.00000
     24      27.8946      0.00000
     25      27.9211      0.00000
     26      31.4987      0.00000
     27      32.6409      0.00000
     28      33.7378      0.00000
     29      34.8929      0.00000
     30      36.2981      0.00000
     31      39.3479      0.00000
     32      41.3007      0.00000
     33      41.3522      0.00000
     34      44.6547      0.00000
     35      47.2206      0.00000
     36      47.2573      0.00000
     37      47.3664      0.00000
     38      47.4754      0.00000
     39      47.5215      0.00000
     40      49.2361      0.00000
     41      52.3377      0.00000
     42      52.3575      0.00000
     43      53.4011      0.00000
     44      55.0510      0.00000
     45      56.7998      0.00000
     46      58.2562      0.00000
     47      59.7140      0.00000
     48      59.7164      0.00000
     49      60.7166      0.00000
     50      60.7390      0.00000
     51      62.0060      0.00000
     52      63.3894      0.00000
     53      63.4238      0.00000
     54      64.5818      0.00000
     55      65.2602      0.00000
     56      66.6441      0.00000
     57      69.5389      0.00000
     58      70.1368      0.00000
     59      70.6133      0.00000
     60      71.0711      0.00000
     61      71.1153      0.00000
     62      72.7906      0.00000
     63      73.2773      0.00000
     64      73.2982      0.00000

 k-point     3 :       0.2857    0.0000    0.0000
  band No.  band energies     occupation 
      1     -48.8570      1.00000
      2     -48.5913      1.00000
      3     -23.1502      1.00000
      4     -22.9919      1.00000
      5     -22.9796      1.00000
      6     -22.5825      1.00000
      7     -22.4163      1.00000
      8     -22.4016      1.00000
      9       6.7783      1.00000
     10       7.9585      1.00000
     11       8.2677      1.00000
     12      11.0384      1.00000
     13      11.0428      1.00000
     14      11.7723      1.00269
     15      12.0783      0.56469
     16      13.5242     -0.02616
     17      13.5256      0.00000
     18      14.6984      0.00000
     19      14.9479      0.00000
     20      18.0195      0.00000
     21      25.9241      0.00000
     22      25.9435      0.00000
     23      28.6983      0.00000
     24      29.3083      0.00000
     25      29.8217      0.00000
     26      29.8491      0.00000
     27      30.5984      0.00000
     28      31.9762      0.00000
     29      37.4240      0.00000
     30      37.9254      0.00000
     31      39.0908      0.00000
     32      39.1219      0.00000
     33      41.7506      0.00000
     34      43.6263      0.00000
     35      43.6682      0.00000
     36      45.2825      0.00000
     37      46.6083      0.00000
     38      46.6373      0.00000
     39      46.6615      0.00000
     40      49.4640      0.00000
     41      50.4478      0.00000
     42      50.4725      0.00000
     43      51.8791      0.00000
     44      54.7097      0.00000
     45      56.7162      0.00000
     46      61.4632      0.00000
     47      61.4919      0.00000
     48      61.5425      0.00000
     49      61.7364      0.00000
     50      63.0631      0.00000
     51      63.6838      0.00000
     52      63.7431      0.00000
     53      64.4820      0.00000
     54      64.4858      0.00000
     55      65.6638      0.00000
     56      66.9042      0.00000
     57      67.3895      0.00000
     58      68.2297      0.00000
     59      69.3105      0.00000
     60      69.3163      0.00000
     61      70.4413      0.00000
     62      74.0581      0.00000
     63      74.1259      0.00000
     64      74.2254      0.00000

 k-point     4 :       0.4286    0.0000    0.0000
  band No.  band energies     occupation 
      1     -48.7660      1.00000
      2     -48.6711      1.00000
      3     -23.0525      1.00000
      4     -22.8512      1.00000
      5     -22.8041      1.00000
      6     -22.7910      1.00000
      7     -22.5985      1.00000
      8     -22.5845      1.00000
      9       8.1565      1.00000
     10       8.8117      1.00000
     11       9.0685      1.00000
     12      10.5035      1.00000
     13      11.3903      1.00000
     14      11.3936      1.00000
     15      12.2064      0.86547
     16      12.2079      0.54111
     17      12.6649      0.00000
     18      13.7826      0.00000
     19      15.3325      0.00000
     20      16.2489      0.00000
     21      27.6431      0.00000
     22      27.9258      0.00000
     23      29.3246      0.00000
     24      29.3451      0.00000
     25      29.8892      0.00000
     26      31.0167      0.00000
     27      31.4020      0.00000
     28      31.4285      0.00000
     29      37.1308      0.00000
     30      37.1560      0.00000
     31      39.4180      0.00000
     32      39.4508      0.00000
     33      40.1905      0.00000
     34      42.0226      0.00000
     35      42.7441      0.00000
     36      45.5218      0.00000
     37      46.5038      0.00000
     38      47.3431      0.00000
     39      47.3966      0.00000
     40      48.7521      0.00000
     41      48.7688      0.00000
     42      48.8112      0.00000
     43      49.1485      0.00000
     44      50.2018      0.00000
     45      59.4309      0.00000
     46      61.6112      0.00000
     47      62.4042      0.00000
     48      62.4169      0.00000
     49      62.5501      0.00000
     50      62.8949      0.00000
     51      63.0836      0.00000
     52      64.4278      0.00000
     53      64.4471      0.00000
     54      64.7980      0.00000
     55      66.1356      0.00000
     56      66.1561      0.00000
     57      67.9932      0.00000
     58      68.0108      0.00000
     59      71.3608      0.00000
     60      71.9423      0.00000
     61      74.0326      0.00000
     62      74.5176      0.00000
     63      74.7025      0.00000
     64      74.7255      0.00000

 k-point     5 :       0.1429    0.1429    0.0000
  band No.  band energies     occupation 
      1     -48.9008      1.00000
      2     -48.5550      1.00000
      3     -23.2503      1.00000
      4     -23.0679      1.00000
      5     -23.0061      1.00000
      6     -22.5141      1.00000
      7     -22.3159      1.00000
      8     -22.2504      1.00000
      9       6.0082      1.00000
     10       7.5284      1.00000
     11       7.7175      1.00000
     12      10.5567      1.00000
     13      10.8904      1.00000
     14      11.8256      1.00345
     15      13.5081     -0.01918
     16      13.9031      0.00000
     17      13.9988      0.00000
     18      14.2804      0.00000
     19      16.3787      0.00000
     20      20.9425      0.00000
     21      22.1740      0.00000
     22      23.7126      0.00000
     23      27.6480      0.00000
     24      28.4935      0.00000
     25      28.6040      0.00000
     26      31.6315      0.00000
     27      32.1315      0.00000
     28      34.6046      0.00000
     29      34.9408      0.00000
     30      36.6853      0.00000
     31      36.8630      0.00000
     32      40.2764      0.00000
     33      41.7951      0.00000
     34      45.5939      0.00000
     35      45.6066      0.00000
     36      46.0749      0.00000
     37      47.1060      0.00000
     38      47.4746      0.00000
     39      48.0369      0.00000
     40      50.5829      0.00000
     41      51.3295      0.00000
     42      51.3721      0.00000
     43      54.8627      0.00000
     44      55.5543      0.00000
     45      56.0610      0.00000
     46      58.3307      0.00000
     47      59.3462      0.00000
     48      60.7346      0.00000
     49      60.7906      0.00000
     50      60.8592      0.00000
     51      60.8919      0.00000
     52      63.0053      0.00000
     53      63.8759      0.00000
     54      66.3877      0.00000
     55      66.4832      0.00000
     56      66.9125      0.00000
     57      67.6231      0.00000
     58      68.0210      0.00000
     59      68.1144      0.00000
     60      70.0390      0.00000
     61      70.5319      0.00000
     62      72.2766      0.00000
     63      73.6356      0.00000
     64      74.9857      0.00000

 k-point     6 :       0.2857    0.1429    0.0000
  band No.  band energies     occupation 
      1     -48.8404      1.00000
      2     -48.6008      1.00000
      3     -23.2903      1.00000
      4     -22.9475      1.00000
      5     -22.8340      1.00000
      6     -22.7878      1.00000
      7     -22.4264      1.00000
      8     -22.3071      1.00000
      9       6.9965      1.00000
     10       8.0863      1.00000
     11       8.6015      1.00000
     12      10.3160      1.00000
     13      10.7620      1.00000
     14      12.3466      0.99700
     15      12.7149     -0.02049
     16      12.7815     -0.00628
     17      12.9901      0.00000
     18      14.4955      0.00000
     19      15.9731      0.00000
     20      18.8613      0.00000
     21      24.3426      0.00000
     22      26.0678      0.00000
     23      27.9036      0.00000
     24      28.8508      0.00000
     25      29.8304      0.00000
     26      30.4792      0.00000
     27      31.7623      0.00000
     28      32.7894      0.00000
     29      37.3325      0.00000
     30      37.6681      0.00000
     31      37.9640      0.00000
     32      38.2164      0.00000
     33      41.0382      0.00000
     34      42.9089      0.00000
     35      44.3630      0.00000
     36      45.0449      0.00000
     37      45.7016      0.00000
     38      47.1438      0.00000
     39      49.0184      0.00000
     40      49.4513      0.00000
     41      50.4690      0.00000
     42      52.4826      0.00000
     43      54.1407      0.00000
     44      54.6837      0.00000
     45      54.8920      0.00000
     46      57.1905      0.00000
     47      60.4516      0.00000
     48      60.8524      0.00000
     49      61.8538      0.00000
     50      62.4059      0.00000
     51      63.3642      0.00000
     52      63.7922      0.00000
     53      64.3902      0.00000
     54      64.5783      0.00000
     55      65.6017      0.00000
     56      66.2455      0.00000
     57      66.2524      0.00000
     58      68.1694      0.00000
     59      69.7915      0.00000
     60      70.0349      0.00000
     61      71.7669      0.00000
     62      71.8026      0.00000
     63      72.9000      0.00000
     64      77.2556      0.00000

 k-point     7 :       0.4286    0.1429    0.0000
  band No.  band energies     occupation 
      1     -48.7575      1.00000
      2     -48.6719      1.00000
      3     -23.2324      1.00000
      4     -23.0546      1.00000
      5     -22.7760      1.00000
      6     -22.6388      1.00000
      7     -22.5899      1.00000
      8     -22.4501      1.00000
      9       8.0547      1.00000
     10       8.5422      1.00000
     11       9.4588      1.00000
     12      10.3503      1.00000
     13      10.4877      1.00000
     14      11.1637      1.00000
     15      12.3412      0.29684
     16      12.4366      0.04648
     17      13.7788      0.00000
     18      14.9416      0.00000
     19      15.2496      0.00000
     20      16.6057      0.00000
     21      26.1246      0.00000
     22      26.9106      0.00000
     23      28.8857      0.00000
     24      28.9362      0.00000
     25      29.1697      0.00000
     26      31.6743      0.00000
     27      31.6968      0.00000
     28      32.6892      0.00000
     29      36.0352      0.00000
     30      37.2341      0.00000
     31      38.2736      0.00000
     32      39.5910      0.00000
     33      41.8015      0.00000
     34      42.2155      0.00000
     35      42.3179      0.00000
     36      44.0411      0.00000
     37      46.5559      0.00000
     38      47.0757      0.00000
     39      47.4183      0.00000
     40      48.5795      0.00000
     41      49.8245      0.00000
     42      50.5713      0.00000
     43      52.4486      0.00000
     44      53.5128      0.00000
     45      56.1685      0.00000
     46      57.1122      0.00000
     47      58.5930      0.00000
     48      59.2621      0.00000
     49      60.7955      0.00000
     50      62.1861      0.00000
     51      64.0249      0.00000
     52      65.8833      0.00000
     53      65.8911      0.00000
     54      66.0696      0.00000
     55      66.7136      0.00000
     56      67.5914      0.00000
     57      69.1656      0.00000
     58      69.9987      0.00000
     59      70.9382      0.00000
     60      71.9483      0.00000
     61      72.7648      0.00000
     62      72.7847      0.00000
     63      75.3318      0.00000
     64      76.3989      0.00000

 k-point     8 :       0.2857    0.2857    0.0000
  band No.  band energies     occupation 
      1     -48.7956      1.00000
      2     -48.6295      1.00000
      3     -23.4266      1.00000
      4     -23.0856      1.00000
      5     -22.8593      1.00000
      6     -22.6256      1.00000
      7     -22.4981      1.00000
      8     -22.2552      1.00000
      9       7.3408      1.00000
     10       8.0679      1.00000
     11       9.6756      1.00000
     12       9.6855      1.00000
     13      10.9335      1.00106
     14      11.0431      1.01046
     15      12.5120      0.00077
     16      13.5944      0.00000
     17      14.0228      0.00000
     18      14.2073      0.00000
     19      16.6885      0.00000
     20      19.1658      0.00000
     21      23.1059      0.00000
     22      26.5923      0.00000
     23      26.9296      0.00000
     24      27.7059      0.00000
     25      28.4871      0.00000
     26      32.1387      0.00000
     27      32.3098      0.00000
     28      34.8866      0.00000
     29      35.1095      0.00000
     30      36.7728      0.00000
     31      38.5231      0.00000
     32      38.7421      0.00000
     33      39.7039      0.00000
     34      41.9772      0.00000
     35      46.0141      0.00000
     36      46.0952      0.00000
     37      46.4096      0.00000
     38      46.8182      0.00000
     39      47.2216      0.00000
     40      49.2730      0.00000
     41      50.2412      0.00000
     42      53.1437      0.00000
     43      54.0350      0.00000
     44      54.1530      0.00000
     45      55.0105      0.00000
     46      59.0291      0.00000
     47      59.0923      0.00000
     48      60.0688      0.00000
     49      61.2661      0.00000
     50      61.3394      0.00000
     51      61.4031      0.00000
     52      61.5951      0.00000
     53      62.9949      0.00000
     54      64.4084      0.00000
     55      65.4031      0.00000
     56      65.4747      0.00000
     57      67.0347      0.00000
     58      67.6001      0.00000
     59      69.2569      0.00000
     60      71.9218      0.00000
     61      75.5749      0.00000
     62      76.2667      0.00000
     63      76.4635      0.00000
     64      76.9900      0.00000

 k-point     9 :       0.4286    0.2857    0.0000
  band No.  band energies     occupation 
      1     -48.7358      1.00000
      2     -48.6764      1.00000
      3     -23.4514      1.00000
      4     -23.3311      1.00000
      5     -22.7367      1.00000
      6     -22.6076      1.00000
      7     -22.4407      1.00000
      8     -22.3073      1.00000
      9       7.5564      1.00000
     10       7.8224      1.00000
     11       9.5396      1.00000
     12       9.9584      1.00000
     13      10.8298      1.01912
     14      11.4708      1.01111
     15      12.9762     -0.00580
     16      13.5454      0.00000
     17      14.9580      0.00000
     18      15.3050      0.00000
     19      16.3368      0.00000
     20      16.9818      0.00000
     21      24.2676      0.00000
     22      25.4658      0.00000
     23      26.5074      0.00000
     24      26.8117      0.00000
     25      28.9158      0.00000
     26      31.6484      0.00000
     27      33.0229      0.00000
     28      34.7791      0.00000
     29      35.2838      0.00000
     30      37.8894      0.00000
     31      37.9943      0.00000
     32      39.3237      0.00000
     33      39.6682      0.00000
     34      41.7231      0.00000
     35      44.7798      0.00000
     36      45.7267      0.00000
     37      47.4144      0.00000
     38      47.5561      0.00000
     39      47.7473      0.00000
     40      48.4041      0.00000
     41      50.9840      0.00000
     42      51.0528      0.00000
     43      52.5674      0.00000
     44      53.6335      0.00000
     45      53.8469      0.00000
     46      56.8899      0.00000
     47      58.8235      0.00000
     48      58.8743      0.00000
     49      61.1649      0.00000
     50      61.1710      0.00000
     51      61.5857      0.00000
     52      63.0221      0.00000
     53      63.9155      0.00000
     54      64.4718      0.00000
     55      64.9932      0.00000
     56      67.3380      0.00000
     57      68.8994      0.00000
     58      71.2699      0.00000
     59      71.6634      0.00000
     60      71.8053      0.00000
     61      73.4237      0.00000
     62      74.8633      0.00000
     63      75.2306      0.00000
     64      76.7601      0.00000

 k-point    10 :       0.4286    0.4286    0.0000
  band No.  band energies     occupation 
      1     -48.7098      1.00000
      2     -48.6886      1.00000
      3     -23.5643      1.00000
      4     -23.5219      1.00000
      5     -22.6865      1.00000
      6     -22.6404      1.00000
      7     -22.3073      1.00000
      8     -22.2592      1.00000
      9       7.1993      1.00000
     10       7.2922      1.00000
     11       9.0899      1.00000
     12       9.2309      1.00000
     13      12.5676      0.66431
     14      13.2250      0.14831
     15      13.6474      0.00000
     16      14.1038      0.00000
     17      14.5503      0.00000
     18      16.0410      0.00000
     19      16.5104      0.00000
     20      16.9506      0.00000
     21      23.6757      0.00000
     22      24.4312      0.00000
     23      24.6061      0.00000
     24      24.9652      0.00000
     25      29.1663      0.00000
     26      30.2796      0.00000
     27      33.9939      0.00000
     28      35.0181      0.00000
     29      36.7010      0.00000
     30      38.0001      0.00000
     31      38.9539      0.00000
     32      39.4546      0.00000
     33      39.9379      0.00000
     34      42.9929      0.00000
     35      44.4158      0.00000
     36      44.7545      0.00000
     37      45.1882      0.00000
     38      46.8806      0.00000
     39      47.8874      0.00000
     40      47.9579      0.00000
     41      51.3932      0.00000
     42      52.8295      0.00000
     43      53.6423      0.00000
     44      54.2354      0.00000
     45      56.3451      0.00000
     46      56.4356      0.00000
     47      56.6830      0.00000
     48      57.8733      0.00000
     49      60.4728      0.00000
     50      60.9069      0.00000
     51      61.3155      0.00000
     52      61.9438      0.00000
     53      62.2031      0.00000
     54      63.6045      0.00000
     55      66.2619      0.00000
     56      66.4734      0.00000
     57      66.4971      0.00000
     58      66.7873      0.00000
     59      74.0323      0.00000
     60      74.0544      0.00000
     61      77.5237      0.00000
     62      77.7346      0.00000
     63      77.9791      0.00000
     64      79.3181      0.00000

 k-point    11 :       0.1429    0.1429    0.1429
  band No.  band energies     occupation 
      1     -48.8805      1.00000
      2     -48.5687      1.00000
      3     -23.1998      1.00000
      4     -23.1916      1.00000
      5     -22.8615      1.00000
      6     -22.6461      1.00000
      7     -22.2985      1.00000
      8     -22.2877      1.00000
      9       6.3861      1.00000
     10       7.9025      1.00000
     11       7.9108      1.00000
     12      10.4399      1.00000
     13      10.4442      1.00000
     14      12.4225      0.98578
     15      12.5022      0.01760
     16      13.7419      0.00000
     17      13.7666      0.00000
     18      15.3469      0.00000
     19      15.3606      0.00000
     20      22.3854      0.00000
     21      22.3992      0.00000
     22      22.6133      0.00000
     23      28.0733      0.00000
     24      28.6576      0.00000
     25      28.6642      0.00000
     26      31.9480      0.00000
     27      31.9590      0.00000
     28      34.6441      0.00000
     29      36.1197      0.00000
     30      36.1236      0.00000
     31      36.6837      0.00000
     32      37.7208      0.00000
     33      42.9600      0.00000
     34      43.8360      0.00000
     35      44.9890      0.00000
     36      44.9927      0.00000
     37      48.7645      0.00000
     38      48.7812      0.00000
     39      49.0693      0.00000
     40      49.0983      0.00000
     41      51.5036      0.00000
     42      51.5219      0.00000
     43      55.0376      0.00000
     44      55.2823      0.00000
     45      56.2762      0.00000
     46      58.4399      0.00000
     47      58.4776      0.00000
     48      60.2822      0.00000
     49      60.3013      0.00000
     50      60.6021      0.00000
     51      62.9885      0.00000
     52      63.0410      0.00000
     53      63.9033      0.00000
     54      63.9283      0.00000
     55      64.1488      0.00000
     56      64.1920      0.00000
     57      67.8919      0.00000
     58      70.6953      0.00000
     59      70.7413      0.00000
     60      71.5720      0.00000
     61      71.5851      0.00000
     62      73.7860      0.00000
     63      73.8101      0.00000
     64      74.2449      0.00000

 k-point    12 :       0.2857    0.1429    0.1429
  band No.  band energies     occupation 
      1     -48.8251      1.00000
      2     -48.6090      1.00000
      3     -23.2905      1.00000
      4     -23.0519      1.00000
      5     -22.9005      1.00000
      6     -22.6885      1.00000
      7     -22.4266      1.00000
      8     -22.3075      1.00000
      9       7.2966      1.00000
     10       8.4299      1.00000
     11       8.7273      1.00000
     12      10.1791      1.00000
     13      10.1914      1.00000
     14      11.1228      1.00283
     15      13.1190     -0.02683
     16      13.6016     -0.00670
     17      13.8307      0.00000
     18      14.3765      0.00000
     19      15.4684      0.00000
     20      19.9437      0.00000
     21      23.8946      0.00000
     22      25.1140      0.00000
     23      28.1438      0.00000
     24      28.3035      0.00000
     25      29.9835      0.00000
     26      30.6842      0.00000
     27      31.5720      0.00000
     28      34.1380      0.00000
     29      34.8965      0.00000
     30      36.3889      0.00000
     31      38.8506      0.00000
     32      39.9516      0.00000
     33      41.7814      0.00000
     34      41.8619      0.00000
     35      42.3538      0.00000
     36      44.8934      0.00000
     37      45.5638      0.00000
     38      48.6774      0.00000
     39      50.0926      0.00000
     40      50.2797      0.00000
     41      51.4562      0.00000
     42      52.9111      0.00000
     43      53.4426      0.00000
     44      54.1184      0.00000
     45      55.7149      0.00000
     46      58.4458      0.00000
     47      58.6314      0.00000
     48      58.8505      0.00000
     49      59.8342      0.00000
     50      60.9960      0.00000
     51      61.3398      0.00000
     52      63.4218      0.00000
     53      63.9513      0.00000
     54      64.1058      0.00000
     55      66.2343      0.00000
     56      67.3311      0.00000
     57      68.3083      0.00000
     58      68.6360      0.00000
     59      70.5741      0.00000
     60      71.0926      0.00000
     61      72.9834      0.00000
     62      73.4864      0.00000
     63      74.3694      0.00000
     64      75.8757      0.00000

 k-point    13 :       0.4286    0.1429    0.1429
  band No.  band energies     occupation 
      1     -48.7496      1.00000
      2     -48.6724      1.00000
      3     -23.2790      1.00000
      4     -23.1389      1.00000
      5     -22.8486      1.00000
      6     -22.6252      1.00000
      7     -22.5252      1.00000
      8     -22.3908      1.00000
      9       8.1751      1.00000
     10       8.8084      1.00000
     11       9.1538      1.00000
     12       9.7972      1.00000
     13      10.5775      1.00000
     14      10.8514      1.00000
     15      12.5920     -0.01729
     16      12.8047     -0.01883
     17      14.5010      0.00000
     18      14.9073      0.00000
     19      15.4389      0.00000
     20      17.4392      0.00000
     21      25.3646      0.00000
     22      26.4796      0.00000
     23      27.5326      0.00000
     24      28.3516      0.00000
     25      30.2556      0.00000
     26      31.4630      0.00000
     27      31.5106      0.00000
     28      32.1330      0.00000
     29      35.4762      0.00000
     30      37.0567      0.00000
     31      39.0861      0.00000
     32      40.8906      0.00000
     33      42.0438      0.00000
     34      42.1873      0.00000
     35      42.2660      0.00000
     36      43.4767      0.00000
     37      43.7876      0.00000
     38      47.3406      0.00000
     39      48.5810      0.00000
     40      51.4359      0.00000
     41      51.4719      0.00000
     42      52.5367      0.00000
     43      52.9387      0.00000
     44      53.1640      0.00000
     45      54.0940      0.00000
     46      55.4002      0.00000
     47      57.7696      0.00000
     48      58.7881      0.00000
     49      60.5377      0.00000
     50      60.6287      0.00000
     51      62.2432      0.00000
     52      62.9978      0.00000
     53      65.7590      0.00000
     54      65.8273      0.00000
     55      68.9526      0.00000
     56      70.3066      0.00000
     57      70.3115      0.00000
     58      71.0610      0.00000
     59      71.5954      0.00000
     60      71.7035      0.00000
     61      72.1844      0.00000
     62      73.3259      0.00000
     63      74.8837      0.00000
     64      75.1717      0.00000

 k-point    14 :       0.2857    0.2857    0.1429
  band No.  band energies     occupation 
      1     -48.7838      1.00000
      2     -48.6341      1.00000
      3     -23.3684      1.00000
      4     -23.1278      1.00000
      5     -23.0002      1.00000
      6     -22.5279      1.00000
      7     -22.4909      1.00000
      8     -22.3125      1.00000
      9       7.7815      1.00000
     10       8.4928      1.00000
     11       9.5864      1.00000
     12       9.6954      1.00000
     13      10.0802      1.00092
     14      10.3387      1.00712
     15      13.4483     -0.00070
     16      13.7074      0.00000
     17      14.2146      0.00000
     18      15.0406      0.00000
     19      15.6401      0.00000
     20      20.5807      0.00000
     21      22.8041      0.00000
     22      25.2605      0.00000
     23      26.9892      0.00000
     24      27.5806      0.00000
     25      30.0271      0.00000
     26      30.9582      0.00000
     27      31.7844      0.00000
     28      32.2032      0.00000
     29      35.6158      0.00000
     30      37.4170      0.00000
     31      38.1876      0.00000
     32      40.2208      0.00000
     33      41.4873      0.00000
     34      42.3050      0.00000
     35      42.8322      0.00000
     36      45.3595      0.00000
     37      45.8214      0.00000
     38      46.0216      0.00000
     39      50.3786      0.00000
     40      51.1686      0.00000
     41      51.2614      0.00000
     42      52.8770      0.00000
     43      53.1004      0.00000
     44      54.5353      0.00000
     45      56.4201      0.00000
     46      56.6273      0.00000
     47      57.1992      0.00000
     48      58.8396      0.00000
     49      59.5830      0.00000
     50      60.8597      0.00000
     51      61.0262      0.00000
     52      62.2399      0.00000
     53      63.3904      0.00000
     54      64.9159      0.00000
     55      65.6747      0.00000
     56      68.0642      0.00000
     57      68.0806      0.00000
     58      69.5058      0.00000
     59      70.9949      0.00000
     60      72.3610      0.00000
     61      73.0366      0.00000
     62      73.6286      0.00000
     63      74.4951      0.00000
     64      76.1550      0.00000

 k-point    15 :       0.4286    0.2857    0.1429
  band No.  band energies     occupation 
      1     -48.7292      1.00000
      2     -48.6757      1.00000
      3     -23.4088      1.00000
      4     -23.3239      1.00000
      5     -22.8325      1.00000
      6     -22.6440      1.00000
      7     -22.4087      1.00000
      8     -22.3379      1.00000
      9       7.9369      1.00000
     10       8.1673      1.00000
     11       9.4274      1.00000
     12       9.5831      1.00000
     13      10.8386      1.00933
     14      11.0069      1.01669
     15      13.3298     -0.00343
     16      13.5467      0.00000
     17      14.7002      0.00000
     18      15.2801      0.00000
     19      16.5750      0.00000
     20      18.5414      0.00000
     21      23.8760      0.00000
     22      25.4012      0.00000
     23      26.1443      0.00000
     24      26.5129      0.00000
     25      29.2413      0.00000
     26      30.1745      0.00000
     27      32.8640      0.00000
     28      32.8954      0.00000
     29      36.0360      0.00000
     30      36.5180      0.00000
     31      39.1187      0.00000
     32      40.5137      0.00000
     33      40.6625      0.00000
     34      42.9017      0.00000
     35      43.9771      0.00000
     36      44.4007      0.00000
     37      45.2633      0.00000
     38      47.8196      0.00000
     39      48.9735      0.00000
     40      50.2297      0.00000
     41      50.8086      0.00000
     42      51.8830      0.00000
     43      52.2168      0.00000
     44      53.3956      0.00000
     45      55.3498      0.00000
     46      55.9480      0.00000
     47      57.1643      0.00000
     48      58.7028      0.00000
     49      60.2399      0.00000
     50      60.8761      0.00000
     51      61.7430      0.00000
     52      61.8549      0.00000
     53      64.2919      0.00000
     54      66.3426      0.00000
     55      67.6726      0.00000
     56      67.7160      0.00000
     57      69.8791      0.00000
     58      69.9740      0.00000
     59      71.6835      0.00000
     60      71.9742      0.00000
     61      73.4606      0.00000
     62      74.0591      0.00000
     63      75.1863      0.00000
     64      75.4212      0.00000

 k-point    16 :       0.4286    0.4286    0.1429
  band No.  band energies     occupation 
      1     -48.7051      1.00000
      2     -48.6860      1.00000
      3     -23.5003      1.00000
      4     -23.4710      1.00000
      5     -22.7530      1.00000
      6     -22.6800      1.00000
      7     -22.3445      1.00000
      8     -22.3240      1.00000
      9       7.6236      1.00000
     10       7.6794      1.00000
     11       9.0695      1.00000
     12       9.1864      1.00000
     13      12.1498      0.98494
     14      12.3744      0.80200
     15      13.8605      0.00000
     16      14.0943      0.00000
     17      14.5790      0.00000
     18      15.1394      0.00000
     19      17.7385      0.00000
     20      18.5427      0.00000
     21      23.2644      0.00000
     22      24.0779      0.00000
     23      24.9954      0.00000
     24      25.1040      0.00000
     25      28.5501      0.00000
     26      28.9839      0.00000
     27      34.3495      0.00000
     28      35.1787      0.00000
     29      35.5793      0.00000
     30      36.1434      0.00000
     31      39.1427      0.00000
     32      39.7537      0.00000
     33      41.1430      0.00000
     34      42.0442      0.00000
     35      44.1597      0.00000
     36      44.5580      0.00000
     37      47.9158      0.00000
     38      48.1142      0.00000
     39      48.5812      0.00000
     40      49.4136      0.00000
     41      50.2455      0.00000
     42      51.4153      0.00000
     43      51.4947      0.00000
     44      53.4007      0.00000
     45      54.7093      0.00000
     46      57.1364      0.00000
     47      57.1612      0.00000
     48      57.9102      0.00000
     49      58.4717      0.00000
     50      60.8018      0.00000
     51      62.4122      0.00000
     52      62.6610      0.00000
     53      65.8002      0.00000
     54      66.1887      0.00000
     55      66.2975      0.00000
     56      68.3824      0.00000
     57      68.9751      0.00000
     58      70.0287      0.00000
     59      70.6267      0.00000
     60      73.3019      0.00000
     61      73.3483      0.00000
     62      74.7483      0.00000
     63      75.2868      0.00000
     64      76.2269      0.00000

 k-point    17 :       0.2857    0.2857    0.2857
  band No.  band energies     occupation 
      1     -48.7527      1.00000
      2     -48.6490      1.00000
      3     -23.2299      1.00000
      4     -23.2052      1.00000
      5     -23.1958      1.00000
      6     -22.4738      1.00000
      7     -22.4627      1.00000
      8     -22.4317      1.00000
      9       8.8262      1.00000
     10       8.9820      1.00000
     11       9.4279      1.00000
     12       9.4307      1.00000
     13       9.6878      1.00000
     14       9.6909      1.00003
     15      14.1529      0.00000
     16      14.1661      0.00000
     17      14.4612      0.00000
     18      14.4709      0.00000
     19      16.7287      0.00000
     20      22.4638      0.00000
     21      22.7671      0.00000
     22      22.7714      0.00000
     23      27.1132      0.00000
     24      27.1164      0.00000
     25      28.2087      0.00000
     26      30.7550      0.00000
     27      31.8099      0.00000
     28      32.4732      0.00000
     29      32.4868      0.00000
     30      38.3986      0.00000
     31      40.7349      0.00000
     32      40.7595      0.00000
     33      42.4633      0.00000
     34      42.9399      0.00000
     35      42.9406      0.00000
     36      44.3031      0.00000
     37      44.3325      0.00000
     38      45.8068      0.00000
     39      48.6029      0.00000
     40      50.9286      0.00000
     41      50.9612      0.00000
     42      53.1793      0.00000
     43      53.1936      0.00000
     44      55.7900      0.00000
     45      56.1351      0.00000
     46      56.1731      0.00000
     47      58.0210      0.00000
     48      58.8545      0.00000
     49      58.9014      0.00000
     50      60.4325      0.00000
     51      61.8304      0.00000
     52      61.8529      0.00000
     53      65.7723      0.00000
     54      66.0955      0.00000
     55      66.1080      0.00000
     56      66.2575      0.00000
     57      67.0051      0.00000
     58      70.7263      0.00000
     59      71.2998      0.00000
     60      71.3002      0.00000
     61      71.6279      0.00000
     62      75.2939      0.00000
     63      75.2959      0.00000
     64      77.3479      0.00000

 k-point    18 :       0.4286    0.2857    0.2857
  band No.  band energies     occupation 
      1     -48.7128      1.00000
      2     -48.6757      1.00000
      3     -23.3219      1.00000
      4     -23.3212      1.00000
      5     -22.9618      1.00000
      6     -22.7002      1.00000
      7     -22.4271      1.00000
      8     -22.4036      1.00000
      9       8.5176      1.00000
     10       8.5869      1.00000
     11       9.4133      1.00000
     12       9.5595      1.00000
     13      10.3142      1.00000
     14      10.6134      1.00000
     15      13.9688      0.00000
     16      13.9984      0.00000
     17      14.6280      0.00000
     18      14.7587      0.00000
     19      18.3654      0.00000
     20      20.2780      0.00000
     21      23.0680      0.00000
     22      24.6778      0.00000
     23      24.8087      0.00000
     24      26.0984      0.00000
     25      27.7171      0.00000
     26      29.1361      0.00000
     27      32.4401      0.00000
     28      32.9724      0.00000
     29      34.8518      0.00000
     30      37.0161      0.00000
     31      39.9331      0.00000
     32      41.2034      0.00000
     33      41.4079      0.00000
     34      42.0388      0.00000
     35      44.6888      0.00000
     36      45.0320      0.00000
     37      46.2591      0.00000
     38      47.5775      0.00000
     39      47.7817      0.00000
     40      48.2735      0.00000
     41      48.9339      0.00000
     42      50.6269      0.00000
     43      52.8369      0.00000
     44      55.0546      0.00000
     45      58.0149      0.00000
     46      58.3251      0.00000
     47      58.4264      0.00000
     48      59.3326      0.00000
     49      59.6908      0.00000
     50      60.1980      0.00000
     51      60.9021      0.00000
     52      61.6761      0.00000
     53      64.5241      0.00000
     54      66.5784      0.00000
     55      67.1197      0.00000
     56      68.0889      0.00000
     57      68.4571      0.00000
     58      69.1366      0.00000
     59      70.5975      0.00000
     60      72.9043      0.00000
     61      74.3229      0.00000
     62      75.3286      0.00000
     63      76.4096      0.00000
     64      76.6368      0.00000

 k-point    19 :       0.4286    0.4286    0.2857
  band No.  band energies     occupation 
      1     -48.6941      1.00000
      2     -48.6809      1.00000
      3     -23.3374      1.00000
      4     -23.3204      1.00000
      5     -22.9013      1.00000
      6     -22.7544      1.00000
      7     -22.5058      1.00000
      8     -22.4603      1.00000
      9       8.4778      1.00000
     10       8.6800      1.00000
     11       9.1150      1.00000
     12       9.3803      1.00000
     13      11.0008      1.00000
     14      11.1258      1.00000
     15      14.3156      0.00000
     16      14.3778      0.00000
     17      14.6338      0.00000
     18      14.7192      0.00000
     19      19.7914      0.00000
     20      20.7552      0.00000
     21      22.4415      0.00000
     22      23.3580      0.00000
     23      24.5233      0.00000
     24      25.4967      0.00000
     25      26.3578      0.00000
     26      27.3730      0.00000
     27      34.0878      0.00000
     28      34.6986      0.00000
     29      35.2680      0.00000
     30      36.8324      0.00000
     31      39.6826      0.00000
     32      40.0000      0.00000
     33      40.3601      0.00000
     34      40.6126      0.00000
     35      44.3700      0.00000
     36      45.2067      0.00000
     37      45.8793      0.00000
     38      46.4897      0.00000
     39      48.7525      0.00000
     40      49.7139      0.00000
     41      50.5862      0.00000
     42      51.9171      0.00000
     43      52.6646      0.00000
     44      54.6211      0.00000
     45      55.7128      0.00000
     46      56.5267      0.00000
     47      57.5927      0.00000
     48      59.1069      0.00000
     49      60.1351      0.00000
     50      63.2766      0.00000
     51      63.7877      0.00000
     52      64.0234      0.00000
     53      65.0584      0.00000
     54      65.5972      0.00000
     55      66.9288      0.00000
     56      67.1099      0.00000
     57      69.4877      0.00000
     58      70.3366      0.00000
     59      70.5993      0.00000
     60      70.6801      0.00000
     61      73.3700      0.00000
     62      74.4478      0.00000
     63      74.8492      0.00000
     64      75.9812      0.00000

 k-point    20 :       0.4286    0.4286    0.4286
  band No.  band energies     occupation 
      1     -48.6834      1.00000
      2     -48.6787      1.00000
      3     -23.1812      1.00000
      4     -23.0593      1.00000
      5     -23.0488      1.00000
      6     -22.7684      1.00000
      7     -22.7570      1.00000
      8     -22.6286      1.00000
      9       8.9667      1.00000
     10       9.4195      1.00000
     11       9.4228      1.00000
     12      10.1006      1.00000
     13      10.1080      1.00000
     14      10.2302      1.00000
     15      14.6604      0.00000
     16      14.6632      0.00000
     17      14.6645      0.00000
     18      14.6688      0.00000
     19      21.4034      0.00000
     20      21.9699      0.00000
     21      22.8144      0.00000
     22      22.9480      0.00000
     23      22.9522      0.00000
     24      24.7646      0.00000
     25      24.7773      0.00000
     26      25.9454      0.00000
     27      35.1892      0.00000
     28      36.0436      0.00000
     29      36.0641      0.00000
     30      38.5684      0.00000
     31      39.0676      0.00000
     32      39.0739      0.00000
     33      40.5974      0.00000
     34      40.6135      0.00000
     35      41.2755      0.00000
     36      42.3691      0.00000
     37      42.8106      0.00000
     38      42.8269      0.00000
     39      52.6422      0.00000
     40      52.6596      0.00000
     41      52.8795      0.00000
     42      53.5186      0.00000
     43      55.3814      0.00000
     44      55.3825      0.00000
     45      56.6432      0.00000
     46      58.6333      0.00000
     47      58.6539      0.00000
     48      59.6530      0.00000
     49      59.6622      0.00000
     50      60.4523      0.00000
     51      62.4803      0.00000
     52      62.6998      0.00000
     53      62.7017      0.00000
     54      63.4466      0.00000
     55      66.1481      0.00000
     56      66.1772      0.00000
     57      70.2747      0.00000
     58      72.2174      0.00000
     59      72.2498      0.00000
     60      72.3649      0.00000
     61      72.3978      0.00000
     62      74.3895      0.00000
     63      74.3977      0.00000
     64      77.2889      0.00000
 Fermi energy:        12.3770085159

 spin component 2

 k-point     1 :       0.0000    0.0000    0.0000
  band No.  band energies     occupation 
      1     -48.9470      1.00000
      2     -48.5216      1.00000
      3     -23.1701      1.00000
      4     -23.1701      1.00000
      5     -23.1585      1.00000
      6     -22.2484      1.00000
      7     -22.2484      1.00000
      8     -22.2329      1.00000
      9       5.1763      1.00000
     10       7.0236      1.00000
     11       7.0322      1.00000
     12      11.0095      1.00000
     13      11.0095      1.00000
     14      11.0147      1.00073
     15      13.9689      0.00000
     16      14.0000      0.00000
     17      16.2322      0.00000
     18      16.2464      0.00000
     19      16.2464      0.00000
     20      21.2966      0.00000
     21      21.3261      0.00000
     22      21.3261      0.00000
     23      27.1594      0.00000
     24      27.1855      0.00000
     25      27.1855      0.00000
     26      31.7993      0.00000
     27      32.8779      0.00000
     28      32.8919      0.00000
     29      35.6931      0.00000
     30      38.5279      0.00000
     31      38.5428      0.00000
     32      41.9141      0.00000
     33      41.9767      0.00000
     34      41.9767      0.00000
     35      48.2360      0.00000
     36      48.2360      0.00000
     37      48.2620      0.00000
     38      48.9230      0.00000
     39      48.9598      0.00000
     40      48.9598      0.00000
     41      52.2967      0.00000
     42      54.4940      0.00000
     43      54.4940      0.00000
     44      54.5468      0.00000
     45      57.0918      0.00000
     46      57.0918      0.00000
     47      57.0943      0.00000
     48      58.6359      0.00000
     49      58.6622      0.00000
     50      58.6622      0.00000
     51      60.9848      0.00000
     52      64.4776      0.00000
     53      65.0173      0.00000
     54      65.0173      0.00000
     55      65.0420      0.00000
     56      69.2378      0.00000
     57      69.2378      0.00000
     58      69.3013      0.00000
     59      70.6360      0.00000
     60      70.7049      0.00000
     61      73.3498      0.00000
     62      73.4158      0.00000
     63      74.5856      0.00000
     64      74.6806      0.00000

 k-point     2 :       0.1429    0.0000    0.0000
  band No.  band energies     occupation 
      1     -48.9229      1.00000
      2     -48.5395      1.00000
      3     -23.1717      1.00000
      4     -23.1231      1.00000
      5     -23.1113      1.00000
      6     -22.3444      1.00000
      7     -22.2922      1.00000
      8     -22.2770      1.00000
      9       5.6155      1.00000
     10       7.2651      1.00000
     11       7.3984      1.00000
     12      10.9873      1.00000
     13      10.9923      1.00000
     14      11.2040      1.00073
     15      13.4284     -0.01396
     16      14.1784      0.00000
     17      15.1796      0.00000
     18      15.1865      0.00000
     19      15.8802      0.00000
     20      20.1863      0.00000
     21      22.8459      0.00000
     22      22.8689      0.00000
     23      27.6451      0.00000
     24      27.8946      0.00000
     25      27.9211      0.00000
     26      31.4987      0.00000
     27      32.6408      0.00000
     28      33.7378      0.00000
     29      34.8929      0.00000
     30      36.2981      0.00000
     31      39.3479      0.00000
     32      41.3007      0.00000
     33      41.3522      0.00000
     34      44.6547      0.00000
     35      47.2206      0.00000
     36      47.2573      0.00000
     37      47.3664      0.00000
     38      47.4755      0.00000
     39      47.5216      0.00000
     40      49.2362      0.00000
     41      52.3378      0.00000
     42      52.3575      0.00000
     43      53.4012      0.00000
     44      55.0510      0.00000
     45      56.7998      0.00000
     46      58.2562      0.00000
     47      59.7140      0.00000
     48      59.7164      0.00000
     49      60.7166      0.00000
     50      60.7390      0.00000
     51      62.0060      0.00000
     52      63.3893      0.00000
     53      63.4238      0.00000
     54      64.5818      0.00000
     55      65.2602      0.00000
     56      66.6441      0.00000
     57      69.5389      0.00000
     58      70.1368      0.00000
     59      70.6133      0.00000
     60      71.0711      0.00000
     61      71.1153      0.00000
     62      72.7907      0.00000
     63      73.2773      0.00000
     64      73.2983      0.00000

 k-point     3 :       0.2857    0.0000    0.0000
  band No.  band energies     occupation 
      1     -48.8571      1.00000
      2     -48.5913      1.00000
      3     -23.1502      1.00000
      4     -22.9919      1.00000
      5     -22.9796      1.00000
      6     -22.5826      1.00000
      7     -22.4163      1.00000
      8     -22.4016      1.00000
      9       6.7783      1.00000
     10       7.9585      1.00000
     11       8.2677      1.00000
     12      11.0384      1.00000
     13      11.0428      1.00000
     14      11.7723      1.00269
     15      12.0783      0.56466
     16      13.5242     -0.02616
     17      13.5256      0.00000
     18      14.6984      0.00000
     19      14.9479      0.00000
     20      18.0195      0.00000
     21      25.9241      0.00000
     22      25.9435      0.00000
     23      28.6983      0.00000
     24      29.3083      0.00000
     25      29.8217      0.00000
     26      29.8491      0.00000
     27      30.5984      0.00000
     28      31.9761      0.00000
     29      37.4240      0.00000
     30      37.9254      0.00000
     31      39.0908      0.00000
     32      39.1218      0.00000
     33      41.7506      0.00000
     34      43.6263      0.00000
     35      43.6682      0.00000
     36      45.2825      0.00000
     37      46.6083      0.00000
     38      46.6373      0.00000
     39      46.6615      0.00000
     40      49.4640      0.00000
     41      50.4478      0.00000
     42      50.4726      0.00000
     43      51.8791      0.00000
     44      54.7098      0.00000
     45      56.7162      0.00000
     46      61.4632      0.00000
     47      61.4919      0.00000
     48      61.5425      0.00000
     49      61.7364      0.00000
     50      63.0631      0.00000
     51      63.6838      0.00000
     52      63.7431      0.00000
     53      64.4820      0.00000
     54      64.4858      0.00000
     55      65.6638      0.00000
     56      66.9042      0.00000
     57      67.3895      0.00000
     58      68.2298      0.00000
     59      69.3105      0.00000
     60      69.3163      0.00000
     61      70.4413      0.00000
     62      74.0581      0.00000
     63      74.1259      0.00000
     64      74.2253      0.00000

 k-point     4 :       0.4286    0.0000    0.0000
  band No.  band energies     occupation 
      1     -48.7661      1.00000
      2     -48.6711      1.00000
      3     -23.0525      1.00000
      4     -22.8512      1.00000
      5     -22.8041      1.00000
      6     -22.7910      1.00000
      7     -22.5985      1.00000
      8     -22.5846      1.00000
      9       8.1565      1.00000
     10       8.8117      1.00000
     11       9.0685      1.00000
     12      10.5035      1.00000
     13      11.3903      1.00000
     14      11.3936      1.00000
     15      12.2064      0.86547
     16      12.2079      0.54111
     17      12.6649      0.00000
     18      13.7826      0.00000
     19      15.3325      0.00000
     20      16.2489      0.00000
     21      27.6432      0.00000
     22      27.9258      0.00000
     23      29.3246      0.00000
     24      29.3451      0.00000
     25      29.8892      0.00000
     26      31.0167      0.00000
     27      31.4020      0.00000
     28      31.4285      0.00000
     29      37.1308      0.00000
     30      37.1560      0.00000
     31      39.4180      0.00000
     32      39.4508      0.00000
     33      40.1904      0.00000
     34      42.0226      0.00000
     35      42.7441      0.00000
     36      45.5218      0.00000
     37      46.5038      0.00000
     38      47.3431      0.00000
     39      47.3967      0.00000
     40      48.7521      0.00000
     41      48.7688      0.00000
     42      48.8112      0.00000
     43      49.1485      0.00000
     44      50.2018      0.00000
     45      59.4309      0.00000
     46      61.6112      0.00000
     47      62.4042      0.00000
     48      62.4169      0.00000
     49      62.5501      0.00000
     50      62.8949      0.00000
     51      63.0836      0.00000
     52      64.4278      0.00000
     53      64.4471      0.00000
     54      64.7980      0.00000
     55      66.1356      0.00000
     56      66.1561      0.00000
     57      67.9932      0.00000
     58      68.0108      0.00000
     59      71.3608      0.00000
     60      71.9423      0.00000
     61      74.0327      0.00000
     62      74.5176      0.00000
     63      74.7025      0.00000
     64      74.7255      0.00000

 k-point     5 :       0.1429    0.1429    0.0000
  band No.  band energies     occupation 
      1     -48.9008      1.00000
      2     -48.5551      1.00000
      3     -23.2503      1.00000
      4     -23.0679      1.00000
      5     -23.0061      1.00000
      6     -22.5141      1.00000
      7     -22.3159      1.00000
      8     -22.2504      1.00000
      9       6.0082      1.00000
     10       7.5284      1.00000
     11       7.7175      1.00000
     12      10.5567      1.00000
     13      10.8904      1.00000
     14      11.8256      1.00345
     15      13.5081     -0.01918
     16      13.9031      0.00000
     17      13.9988      0.00000
     18      14.2804      0.00000
     19      16.3787      0.00000
     20      20.9425      0.00000
     21      22.1740      0.00000
     22      23.7125      0.00000
     23      27.6480      0.00000
     24      28.4934      0.00000
     25      28.6040      0.00000
     26      31.6315      0.00000
     27      32.1315      0.00000
     28      34.6046      0.00000
     29      34.9408      0.00000
     30      36.6853      0.00000
     31      36.8630      0.00000
     32      40.2764      0.00000
     33      41.7951      0.00000
     34      45.5939      0.00000
     35      45.6066      0.00000
     36      46.0749      0.00000
     37      47.1061      0.00000
     38      47.4746      0.00000
     39      48.0369      0.00000
     40      50.5829      0.00000
     41      51.3295      0.00000
     42      51.3721      0.00000
     43      54.8627      0.00000
     44      55.5543      0.00000
     45      56.0611      0.00000
     46      58.3307      0.00000
     47      59.3462      0.00000
     48      60.7346      0.00000
     49      60.7906      0.00000
     50      60.8592      0.00000
     51      60.8919      0.00000
     52      63.0053      0.00000
     53      63.8758      0.00000
     54      66.3877      0.00000
     55      66.4833      0.00000
     56      66.9125      0.00000
     57      67.6231      0.00000
     58      68.0210      0.00000
     59      68.1145      0.00000
     60      70.0390      0.00000
     61      70.5319      0.00000
     62      72.2767      0.00000
     63      73.6356      0.00000
     64      74.9857      0.00000

 k-point     6 :       0.2857    0.1429    0.0000
  band No.  band energies     occupation 
      1     -48.8404      1.00000
      2     -48.6008      1.00000
      3     -23.2903      1.00000
      4     -22.9475      1.00000
      5     -22.8341      1.00000
      6     -22.7878      1.00000
      7     -22.4264      1.00000
      8     -22.3072      1.00000
      9       6.9965      1.00000
     10       8.0863      1.00000
     11       8.6015      1.00000
     12      10.3160      1.00000
     13      10.7620      1.00000
     14      12.3465      0.99700
     15      12.7149     -0.02049
     16      12.7815     -0.00628
     17      12.9901      0.00000
     18      14.4955      0.00000
     19      15.9731      0.00000
     20      18.8613      0.00000
     21      24.3426      0.00000
     22      26.0678      0.00000
     23      27.9036      0.00000
     24      28.8508      0.00000
     25      29.8304      0.00000
     26      30.4792      0.00000
     27      31.7623      0.00000
     28      32.7894      0.00000
     29      37.3325      0.00000
     30      37.6681      0.00000
     31      37.9640      0.00000
     32      38.2164      0.00000
     33      41.0381      0.00000
     34      42.9089      0.00000
     35      44.3630      0.00000
     36      45.0449      0.00000
     37      45.7016      0.00000
     38      47.1438      0.00000
     39      49.0184      0.00000
     40      49.4513      0.00000
     41      50.4690      0.00000
     42      52.4826      0.00000
     43      54.1408      0.00000
     44      54.6838      0.00000
     45      54.8920      0.00000
     46      57.1905      0.00000
     47      60.4516      0.00000
     48      60.8524      0.00000
     49      61.8538      0.00000
     50      62.4059      0.00000
     51      63.3642      0.00000
     52      63.7923      0.00000
     53      64.3902      0.00000
     54      64.5783      0.00000
     55      65.6017      0.00000
     56      66.2455      0.00000
     57      66.2524      0.00000
     58      68.1694      0.00000
     59      69.7915      0.00000
     60      70.0349      0.00000
     61      71.7669      0.00000
     62      71.8026      0.00000
     63      72.9000      0.00000
     64      77.2556      0.00000

 k-point     7 :       0.4286    0.1429    0.0000
  band No.  band energies     occupation 
      1     -48.7576      1.00000
      2     -48.6720      1.00000
      3     -23.2324      1.00000
      4     -23.0546      1.00000
      5     -22.7761      1.00000
      6     -22.6388      1.00000
      7     -22.5899      1.00000
      8     -22.4501      1.00000
      9       8.0547      1.00000
     10       8.5422      1.00000
     11       9.4588      1.00000
     12      10.3503      1.00000
     13      10.4877      1.00000
     14      11.1637      1.00000
     15      12.3412      0.29682
     16      12.4366      0.04648
     17      13.7788      0.00000
     18      14.9416      0.00000
     19      15.2496      0.00000
     20      16.6057      0.00000
     21      26.1246      0.00000
     22      26.9106      0.00000
     23      28.8857      0.00000
     24      28.9361      0.00000
     25      29.1697      0.00000
     26      31.6743      0.00000
     27      31.6968      0.00000
     28      32.6892      0.00000
     29      36.0352      0.00000
     30      37.2340      0.00000
     31      38.2736      0.00000
     32      39.5910      0.00000
     33      41.8015      0.00000
     34      42.2155      0.00000
     35      42.3179      0.00000
     36      44.0411      0.00000
     37      46.5559      0.00000
     38      47.0757      0.00000
     39      47.4183      0.00000
     40      48.5795      0.00000
     41      49.8245      0.00000
     42      50.5714      0.00000
     43      52.4486      0.00000
     44      53.5128      0.00000
     45      56.1685      0.00000
     46      57.1122      0.00000
     47      58.5930      0.00000
     48      59.2621      0.00000
     49      60.7955      0.00000
     50      62.1861      0.00000
     51      64.0249      0.00000
     52      65.8833      0.00000
     53      65.8911      0.00000
     54      66.0696      0.00000
     55      66.7136      0.00000
     56      67.5914      0.00000
     57      69.1656      0.00000
     58      69.9987      0.00000
     59      70.9382      0.00000
     60      71.9483      0.00000
     61      72.7648      0.00000
     62      72.7848      0.00000
     63      75.3318      0.00000
     64      76.3990      0.00000

 k-point     8 :       0.2857    0.2857    0.0000
  band No.  band energies     occupation 
      1     -48.7956      1.00000
      2     -48.6296      1.00000
      3     -23.4266      1.00000
      4     -23.0856      1.00000
      5     -22.8594      1.00000
      6     -22.6257      1.00000
      7     -22.4981      1.00000
      8     -22.2552      1.00000
      9       7.3408      1.00000
     10       8.0680      1.00000
     11       9.6756      1.00000
     12       9.6855      1.00000
     13      10.9335      1.00106
     14      11.0431      1.01046
     15      12.5120      0.00076
     16      13.5944      0.00000
     17      14.0228      0.00000
     18      14.2073      0.00000
     19      16.6885      0.00000
     20      19.1658      0.00000
     21      23.1059      0.00000
     22      26.5923      0.00000
     23      26.9296      0.00000
     24      27.7058      0.00000
     25      28.4871      0.00000
     26      32.1387      0.00000
     27      32.3098      0.00000
     28      34.8866      0.00000
     29      35.1095      0.00000
     30      36.7728      0.00000
     31      38.5231      0.00000
     32      38.7421      0.00000
     33      39.7039      0.00000
     34      41.9772      0.00000
     35      46.0141      0.00000
     36      46.0952      0.00000
     37      46.4096      0.00000
     38      46.8182      0.00000
     39      47.2215      0.00000
     40      49.2730      0.00000
     41      50.2412      0.00000
     42      53.1438      0.00000
     43      54.0350      0.00000
     44      54.1531      0.00000
     45      55.0105      0.00000
     46      59.0291      0.00000
     47      59.0923      0.00000
     48      60.0688      0.00000
     49      61.2661      0.00000
     50      61.3394      0.00000
     51      61.4031      0.00000
     52      61.5951      0.00000
     53      62.9949      0.00000
     54      64.4084      0.00000
     55      65.4031      0.00000
     56      65.4747      0.00000
     57      67.0347      0.00000
     58      67.6001      0.00000
     59      69.2569      0.00000
     60      71.9218      0.00000
     61      75.5749      0.00000
     62      76.2667      0.00000
     63      76.4635      0.00000
     64      76.9900      0.00000

 k-point     9 :       0.4286    0.2857    0.0000
  band No.  band energies     occupation 
      1     -48.7358      1.00000
      2     -48.6765      1.00000
      3     -23.4514      1.00000
      4     -23.3311      1.00000
      5     -22.7367      1.00000
      6     -22.6076      1.00000
      7     -22.4407      1.00000
      8     -22.3073      1.00000
      9       7.5564      1.00000
     10       7.8224      1.00000
     11       9.5396      1.00000
     12       9.9584      1.00000
     13      10.8298      1.01912
     14      11.4708      1.01111
     15      12.9763     -0.00580
     16      13.5455      0.00000
     17      14.9580      0.00000
     18      15.3050      0.00000
     19      16.3368      0.00000
     20      16.9818      0.00000
     21      24.2676      0.00000
     22      25.4659      0.00000
     23      26.5074      0.00000
     24      26.8117      0.00000
     25      28.9158      0.00000
     26      31.6484      0.00000
     27      33.0229      0.00000
     28      34.7791      0.00000
     29      35.2838      0.00000
     30      37.8893      0.00000
     31      37.9943      0.00000
     32      39.3237      0.00000
     33      39.6682      0.00000
     34      41.7231      0.00000
     35      44.7798      0.00000
     36      45.7267      0.00000
     37      47.4144      0.00000
     38      47.5561      0.00000
     39      47.7474      0.00000
     40      48.4041      0.00000
     41      50.9841      0.00000
     42      51.0528      0.00000
     43      52.5674      0.00000
     44      53.6335      0.00000
     45      53.8469      0.00000
     46      56.8899      0.00000
     47      58.8235      0.00000
     48      58.8743      0.00000
     49      61.1649      0.00000
     50      61.1711      0.00000
     51      61.5857      0.00000
     52      63.0221      0.00000
     53      63.9155      0.00000
     54      64.4719      0.00000
     55      64.9932      0.00000
     56      67.3380      0.00000
     57      68.8995      0.00000
     58      71.2699      0.00000
     59      71.6634      0.00000
     60      71.8053      0.00000
     61      73.4237      0.00000
     62      74.8633      0.00000
     63      75.2306      0.00000
     64      76.7601      0.00000

 k-point    10 :       0.4286    0.4286    0.0000
  band No.  band energies     occupation 
      1     -48.7098      1.00000
      2     -48.6886      1.00000
      3     -23.5643      1.00000
      4     -23.5220      1.00000
      5     -22.6866      1.00000
      6     -22.6404      1.00000
      7     -22.3073      1.00000
      8     -22.2592      1.00000
      9       7.1993      1.00000
     10       7.2922      1.00000
     11       9.0899      1.00000
     12       9.2309      1.00000
     13      12.5676      0.66431
     14      13.2250      0.14832
     15      13.6474      0.00000
     16      14.1038      0.00000
     17      14.5503      0.00000
     18      16.0410      0.00000
     19      16.5104      0.00000
     20      16.9506      0.00000
     21      23.6757      0.00000
     22      24.4312      0.00000
     23      24.6061      0.00000
     24      24.9652      0.00000
     25      29.1663      0.00000
     26      30.2796      0.00000
     27      33.9939      0.00000
     28      35.0181      0.00000
     29      36.7010      0.00000
     30      38.0000      0.00000
     31      38.9539      0.00000
     32      39.4546      0.00000
     33      39.9379      0.00000
     34      42.9929      0.00000
     35      44.4158      0.00000
     36      44.7545      0.00000
     37      45.1882      0.00000
     38      46.8806      0.00000
     39      47.8874      0.00000
     40      47.9580      0.00000
     41      51.3932      0.00000
     42      52.8295      0.00000
     43      53.6424      0.00000
     44      54.2354      0.00000
     45      56.3451      0.00000
     46      56.4356      0.00000
     47      56.6831      0.00000
     48      57.8733      0.00000
     49      60.4728      0.00000
     50      60.9069      0.00000
     51      61.3155      0.00000
     52      61.9438      0.00000
     53      62.2030      0.00000
     54      63.6045      0.00000
     55      66.2619      0.00000
     56      66.4734      0.00000
     57      66.4971      0.00000
     58      66.7873      0.00000
     59      74.0323      0.00000
     60      74.0544      0.00000
     61      77.5237      0.00000
     62      77.7346      0.00000
     63      77.9791      0.00000
     64      79.3182      0.00000

 k-point    11 :       0.1429    0.1429    0.1429
  band No.  band energies     occupation 
      1     -48.8805      1.00000
      2     -48.5688      1.00000
      3     -23.1998      1.00000
      4     -23.1916      1.00000
      5     -22.8615      1.00000
      6     -22.6461      1.00000
      7     -22.2985      1.00000
      8     -22.2878      1.00000
      9       6.3861      1.00000
     10       7.9025      1.00000
     11       7.9108      1.00000
     12      10.4399      1.00000
     13      10.4442      1.00000
     14      12.4225      0.98578
     15      12.5022      0.01760
     16      13.7419      0.00000
     17      13.7666      0.00000
     18      15.3469      0.00000
     19      15.3606      0.00000
     20      22.3853      0.00000
     21      22.3991      0.00000
     22      22.6133      0.00000
     23      28.0732      0.00000
     24      28.6576      0.00000
     25      28.6641      0.00000
     26      31.9479      0.00000
     27      31.9590      0.00000
     28      34.6441      0.00000
     29      36.1197      0.00000
     30      36.1236      0.00000
     31      36.6837      0.00000
     32      37.7208      0.00000
     33      42.9600      0.00000
     34      43.8360      0.00000
     35      44.9890      0.00000
     36      44.9927      0.00000
     37      48.7645      0.00000
     38      48.7812      0.00000
     39      49.0693      0.00000
     40      49.0983      0.00000
     41      51.5036      0.00000
     42      51.5220      0.00000
     43      55.0376      0.00000
     44      55.2824      0.00000
     45      56.2763      0.00000
     46      58.4399      0.00000
     47      58.4776      0.00000
     48      60.2822      0.00000
     49      60.3014      0.00000
     50      60.6021      0.00000
     51      62.9885      0.00000
     52      63.0410      0.00000
     53      63.9033      0.00000
     54      63.9283      0.00000
     55      64.1488      0.00000
     56      64.1920      0.00000
     57      67.8919      0.00000
     58      70.6953      0.00000
     59      70.7413      0.00000
     60      71.5720      0.00000
     61      71.5851      0.00000
     62      73.7860      0.00000
     63      73.8101      0.00000
     64      74.2449      0.00000

 k-point    12 :       0.2857    0.1429    0.1429
  band No.  band energies     occupation 
      1     -48.8251      1.00000
      2     -48.6091      1.00000
      3     -23.2905      1.00000
      4     -23.0519      1.00000
      5     -22.9005      1.00000
      6     -22.6885      1.00000
      7     -22.4266      1.00000
      8     -22.3076      1.00000
      9       7.2966      1.00000
     10       8.4299      1.00000
     11       8.7273      1.00000
     12      10.1791      1.00000
     13      10.1914      1.00000
     14      11.1228      1.00283
     15      13.1191     -0.02683
     16      13.6016     -0.00670
     17      13.8307      0.00000
     18      14.3765      0.00000
     19      15.4684      0.00000
     20      19.9436      0.00000
     21      23.8946      0.00000
     22      25.1140      0.00000
     23      28.1438      0.00000
     24      28.3035      0.00000
     25      29.9835      0.00000
     26      30.6842      0.00000
     27      31.5720      0.00000
     28      34.1380      0.00000
     29      34.8965      0.00000
     30      36.3889      0.00000
     31      38.8506      0.00000
     32      39.9516      0.00000
     33      41.7814      0.00000
     34      41.8619      0.00000
     35      42.3538      0.00000
     36      44.8934      0.00000
     37      45.5638      0.00000
     38      48.6775      0.00000
     39      50.0926      0.00000
     40      50.2797      0.00000
     41      51.4562      0.00000
     42      52.9111      0.00000
     43      53.4426      0.00000
     44      54.1185      0.00000
     45      55.7149      0.00000
     46      58.4458      0.00000
     47      58.6315      0.00000
     48      58.8505      0.00000
     49      59.8342      0.00000
     50      60.9960      0.00000
     51      61.3398      0.00000
     52      63.4218      0.00000
     53      63.9513      0.00000
     54      64.1058      0.00000
     55      66.2344      0.00000
     56      67.3311      0.00000
     57      68.3083      0.00000
     58      68.6360      0.00000
     59      70.5741      0.00000
     60      71.0926      0.00000
     61      72.9834      0.00000
     62      73.4864      0.00000
     63      74.3694      0.00000
     64      75.8757      0.00000

 k-point    13 :       0.4286    0.1429    0.1429
  band No.  band energies     occupation 
      1     -48.7496      1.00000
      2     -48.6724      1.00000
      3     -23.2790      1.00000
      4     -23.1389      1.00000
      5     -22.8486      1.00000
      6     -22.6252      1.00000
      7     -22.5252      1.00000
      8     -22.3909      1.00000
      9       8.1751      1.00000
     10       8.8085      1.00000
     11       9.1538      1.00000
     12       9.7972      1.00000
     13      10.5775      1.00000
     14      10.8514      1.00000
     15      12.5920     -0.01730
     16      12.8047     -0.01883
     17      14.5010      0.00000
     18      14.9073      0.00000
     19      15.4389      0.00000
     20      17.4392      0.00000
     21      25.3646      0.00000
     22      26.4796      0.00000
     23      27.5326      0.00000
     24      28.3516      0.00000
     25      30.2556      0.00000
     26      31.4630      0.00000
     27      31.5105      0.00000
     28      32.1330      0.00000
     29      35.4762      0.00000
     30      37.0567      0.00000
     31      39.0861      0.00000
     32      40.8906      0.00000
     33      42.0438      0.00000
     34      42.1873      0.00000
     35      42.2660      0.00000
     36      43.4767      0.00000
     37      43.7876      0.00000
     38      47.3406      0.00000
     39      48.5810      0.00000
     40      51.4360      0.00000
     41      51.4720      0.00000
     42      52.5367      0.00000
     43      52.9387      0.00000
     44      53.1640      0.00000
     45      54.0940      0.00000
     46      55.4002      0.00000
     47      57.7696      0.00000
     48      58.7881      0.00000
     49      60.5377      0.00000
     50      60.6288      0.00000
     51      62.2433      0.00000
     52      62.9978      0.00000
     53      65.7590      0.00000
     54      65.8273      0.00000
     55      68.9526      0.00000
     56      70.3066      0.00000
     57      70.3116      0.00000
     58      71.0610      0.00000
     59      71.5954      0.00000
     60      71.7035      0.00000
     61      72.1844      0.00000
     62      73.3259      0.00000
     63      74.8837      0.00000
     64      75.1717      0.00000

 k-point    14 :       0.2857    0.2857    0.1429
  band No.  band energies     occupation 
      1     -48.7839      1.00000
      2     -48.6341      1.00000
      3     -23.3684      1.00000
      4     -23.1278      1.00000
      5     -23.0002      1.00000
      6     -22.5279      1.00000
      7     -22.4909      1.00000
      8     -22.3126      1.00000
      9       7.7815      1.00000
     10       8.4928      1.00000
     11       9.5864      1.00000
     12       9.6954      1.00000
     13      10.0802      1.00092
     14      10.3387      1.00712
     15      13.4483     -0.00070
     16      13.7075      0.00000
     17      14.2147      0.00000
     18      15.0406      0.00000
     19      15.6401      0.00000
     20      20.5807      0.00000
     21      22.8041      0.00000
     22      25.2605      0.00000
     23      26.9892      0.00000
     24      27.5806      0.00000
     25      30.0270      0.00000
     26      30.9582      0.00000
     27      31.7844      0.00000
     28      32.2032      0.00000
     29      35.6158      0.00000
     30      37.4170      0.00000
     31      38.1876      0.00000
     32      40.2208      0.00000
     33      41.4873      0.00000
     34      42.3050      0.00000
     35      42.8322      0.00000
     36      45.3594      0.00000
     37      45.8214      0.00000
     38      46.0216      0.00000
     39      50.3787      0.00000
     40      51.1686      0.00000
     41      51.2614      0.00000
     42      52.8771      0.00000
     43      53.1004      0.00000
     44      54.5354      0.00000
     45      56.4201      0.00000
     46      56.6274      0.00000
     47      57.1992      0.00000
     48      58.8396      0.00000
     49      59.5831      0.00000
     50      60.8597      0.00000
     51      61.0262      0.00000
     52      62.2399      0.00000
     53      63.3904      0.00000
     54      64.9159      0.00000
     55      65.6747      0.00000
     56      68.0642      0.00000
     57      68.0807      0.00000
     58      69.5058      0.00000
     59      70.9949      0.00000
     60      72.3610      0.00000
     61      73.0366      0.00000
     62      73.6286      0.00000
     63      74.4951      0.00000
     64      76.1550      0.00000

 k-point    15 :       0.4286    0.2857    0.1429
  band No.  band energies     occupation 
      1     -48.7293      1.00000
      2     -48.6757      1.00000
      3     -23.4088      1.00000
      4     -23.3240      1.00000
      5     -22.8325      1.00000
      6     -22.6440      1.00000
      7     -22.4087      1.00000
      8     -22.3379      1.00000
      9       7.9369      1.00000
     10       8.1673      1.00000
     11       9.4274      1.00000
     12       9.5831      1.00000
     13      10.8386      1.00933
     14      11.0069      1.01669
     15      13.3298     -0.00343
     16      13.5467      0.00000
     17      14.7002      0.00000
     18      15.2801      0.00000
     19      16.5750      0.00000
     20      18.5414      0.00000
     21      23.8760      0.00000
     22      25.4012      0.00000
     23      26.1443      0.00000
     24      26.5129      0.00000
     25      29.2413      0.00000
     26      30.1745      0.00000
     27      32.8640      0.00000
     28      32.8954      0.00000
     29      36.0360      0.00000
     30      36.5180      0.00000
     31      39.1187      0.00000
     32      40.5137      0.00000
     33      40.6625      0.00000
     34      42.9017      0.00000
     35      43.9771      0.00000
     36      44.4007      0.00000
     37      45.2633      0.00000
     38      47.8196      0.00000
     39      48.9735      0.00000
     40      50.2297      0.00000
     41      50.8086      0.00000
     42      51.8830      0.00000
     43      52.2168      0.00000
     44      53.3956      0.00000
     45      55.3498      0.00000
     46      55.9480      0.00000
     47      57.1643      0.00000
     48      58.7028      0.00000
     49      60.2399      0.00000
     50      60.8761      0.00000
     51      61.7430      0.00000
     52      61.8549      0.00000
     53      64.2919      0.00000
     54      66.3426      0.00000
     55      67.6726      0.00000
     56      67.7161      0.00000
     57      69.8791      0.00000
     58      69.9740      0.00000
     59      71.6835      0.00000
     60      71.9742      0.00000
     61      73.4606      0.00000
     62      74.0591      0.00000
     63      75.1863      0.00000
     64      75.4213      0.00000

 k-point    16 :       0.4286    0.4286    0.1429
  band No.  band energies     occupation 
      1     -48.7052      1.00000
      2     -48.6861      1.00000
      3     -23.5003      1.00000
      4     -23.4710      1.00000
      5     -22.7530      1.00000
      6     -22.6800      1.00000
      7     -22.3445      1.00000
      8     -22.3240      1.00000
      9       7.6237      1.00000
     10       7.6794      1.00000
     11       9.0695      1.00000
     12       9.1864      1.00000
     13      12.1498      0.98494
     14      12.3743      0.80201
     15      13.8605      0.00000
     16      14.0943      0.00000
     17      14.5790      0.00000
     18      15.1394      0.00000
     19      17.7385      0.00000
     20      18.5427      0.00000
     21      23.2644      0.00000
     22      24.0779      0.00000
     23      24.9954      0.00000
     24      25.1040      0.00000
     25      28.5501      0.00000
     26      28.9839      0.00000
     27      34.3495      0.00000
     28      35.1787      0.00000
     29      35.5793      0.00000
     30      36.1433      0.00000
     31      39.1427      0.00000
     32      39.7537      0.00000
     33      41.1430      0.00000
     34      42.0442      0.00000
     35      44.1597      0.00000
     36      44.5580      0.00000
     37      47.9158      0.00000
     38      48.1143      0.00000
     39      48.5812      0.00000
     40      49.4136      0.00000
     41      50.2455      0.00000
     42      51.4154      0.00000
     43      51.4947      0.00000
     44      53.4007      0.00000
     45      54.7093      0.00000
     46      57.1363      0.00000
     47      57.1612      0.00000
     48      57.9102      0.00000
     49      58.4717      0.00000
     50      60.8018      0.00000
     51      62.4122      0.00000
     52      62.6610      0.00000
     53      65.8002      0.00000
     54      66.1887      0.00000
     55      66.2975      0.00000
     56      68.3824      0.00000
     57      68.9750      0.00000
     58      70.0287      0.00000
     59      70.6267      0.00000
     60      73.3019      0.00000
     61      73.3483      0.00000
     62      74.7483      0.00000
     63      75.2869      0.00000
     64      76.2269      0.00000

 k-point    17 :       0.2857    0.2857    0.2857
  band No.  band energies     occupation 
      1     -48.7527      1.00000
      2     -48.6490      1.00000
      3     -23.2299      1.00000
      4     -23.2052      1.00000
      5     -23.1958      1.00000
      6     -22.4739      1.00000
      7     -22.4627      1.00000
      8     -22.4317      1.00000
      9       8.8262      1.00000
     10       8.9820      1.00000
     11       9.4279      1.00000
     12       9.4307      1.00000
     13       9.6878      1.00000
     14       9.6910      1.00003
     15      14.1529      0.00000
     16      14.1661      0.00000
     17      14.4612      0.00000
     18      14.4709      0.00000
     19      16.7287      0.00000
     20      22.4638      0.00000
     21      22.7671      0.00000
     22      22.7713      0.00000
     23      27.1132      0.00000
     24      27.1164      0.00000
     25      28.2087      0.00000
     26      30.7550      0.00000
     27      31.8099      0.00000
     28      32.4732      0.00000
     29      32.4868      0.00000
     30      38.3986      0.00000
     31      40.7349      0.00000
     32      40.7595      0.00000
     33      42.4633      0.00000
     34      42.9399      0.00000
     35      42.9406      0.00000
     36      44.3031      0.00000
     37      44.3325      0.00000
     38      45.8068      0.00000
     39      48.6029      0.00000
     40      50.9286      0.00000
     41      50.9612      0.00000
     42      53.1793      0.00000
     43      53.1936      0.00000
     44      55.7900      0.00000
     45      56.1351      0.00000
     46      56.1731      0.00000
     47      58.0210      0.00000
     48      58.8545      0.00000
     49      58.9014      0.00000
     50      60.4325      0.00000
     51      61.8304      0.00000
     52      61.8529      0.00000
     53      65.7723      0.00000
     54      66.0955      0.00000
     55      66.1080      0.00000
     56      66.2575      0.00000
     57      67.0051      0.00000
     58      70.7263      0.00000
     59      71.2998      0.00000
     60      71.3002      0.00000
     61      71.6280      0.00000
     62      75.2939      0.00000
     63      75.2960      0.00000
     64      77.3480      0.00000

 k-point    18 :       0.4286    0.2857    0.2857
  band No.  band energies     occupation 
      1     -48.7128      1.00000
      2     -48.6757      1.00000
      3     -23.3220      1.00000
      4     -23.3212      1.00000
      5     -22.9618      1.00000
      6     -22.7002      1.00000
      7     -22.4271      1.00000
      8     -22.4036      1.00000
      9       8.5176      1.00000
     10       8.5869      1.00000
     11       9.4133      1.00000
     12       9.5595      1.00000
     13      10.3142      1.00000
     14      10.6134      1.00000
     15      13.9688      0.00000
     16      13.9984      0.00000
     17      14.6281      0.00000
     18      14.7587      0.00000
     19      18.3654      0.00000
     20      20.2780      0.00000
     21      23.0680      0.00000
     22      24.6778      0.00000
     23      24.8087      0.00000
     24      26.0984      0.00000
     25      27.7171      0.00000
     26      29.1361      0.00000
     27      32.4401      0.00000
     28      32.9724      0.00000
     29      34.8518      0.00000
     30      37.0161      0.00000
     31      39.9331      0.00000
     32      41.2034      0.00000
     33      41.4079      0.00000
     34      42.0388      0.00000
     35      44.6888      0.00000
     36      45.0320      0.00000
     37      46.2591      0.00000
     38      47.5775      0.00000
     39      47.7817      0.00000
     40      48.2735      0.00000
     41      48.9339      0.00000
     42      50.6269      0.00000
     43      52.8369      0.00000
     44      55.0546      0.00000
     45      58.0149      0.00000
     46      58.3251      0.00000
     47      58.4264      0.00000
     48      59.3326      0.00000
     49      59.6908      0.00000
     50      60.1980      0.00000
     51      60.9021      0.00000
     52      61.6761      0.00000
     53      64.5242      0.00000
     54      66.5784      0.00000
     55      67.1197      0.00000
     56      68.0889      0.00000
     57      68.4572      0.00000
     58      69.1366      0.00000
     59      70.5976      0.00000
     60      72.9043      0.00000
     61      74.3229      0.00000
     62      75.3287      0.00000
     63      76.4096      0.00000
     64      76.6368      0.00000

 k-point    19 :       0.4286    0.4286    0.2857
  band No.  band energies     occupation 
      1     -48.6942      1.00000
      2     -48.6809      1.00000
      3     -23.3374      1.00000
      4     -23.3204      1.00000
      5     -22.9014      1.00000
      6     -22.7544      1.00000
      7     -22.5058      1.00000
      8     -22.4603      1.00000
      9       8.4778      1.00000
     10       8.6799      1.00000
     11       9.1150      1.00000
     12       9.3803      1.00000
     13      11.0008      1.00000
     14      11.1258      1.00000
     15      14.3156      0.00000
     16      14.3778      0.00000
     17      14.6338      0.00000
     18      14.7192      0.00000
     19      19.7914      0.00000
     20      20.7552      0.00000
     21      22.4415      0.00000
     22      23.3580      0.00000
     23      24.5233      0.00000
     24      25.4967      0.00000
     25      26.3578      0.00000
     26      27.3730      0.00000
     27      34.0878      0.00000
     28      34.6985      0.00000
     29      35.2680      0.00000
     30      36.8324      0.00000
     31      39.6826      0.00000
     32      40.0000      0.00000
     33      40.3601      0.00000
     34      40.6126      0.00000
     35      44.3700      0.00000
     36      45.2067      0.00000
     37      45.8793      0.00000
     38      46.4897      0.00000
     39      48.7525      0.00000
     40      49.7139      0.00000
     41      50.5862      0.00000
     42      51.9171      0.00000
     43      52.6646      0.00000
     44      54.6211      0.00000
     45      55.7128      0.00000
     46      56.5267      0.00000
     47      57.5928      0.00000
     48      59.1069      0.00000
     49      60.1351      0.00000
     50      63.2766      0.00000
     51      63.7877      0.00000
     52      64.0234      0.00000
     53      65.0584      0.00000
     54      65.5973      0.00000
     55      66.9288      0.00000
     56      67.1099      0.00000
     57      69.4877      0.00000
     58      70.3366      0.00000
     59      70.5993      0.00000
     60      70.6801      0.00000
     61      73.3700      0.00000
     62      74.4478      0.00000
     63      74.8493      0.00000
     64      75.9812      0.00000

 k-point    20 :       0.4286    0.4286    0.4286
  band No.  band energies     occupation 
      1     -48.6835      1.00000
      2     -48.6787      1.00000
      3     -23.1812      1.00000
      4     -23.0593      1.00000
      5     -23.0488      1.00000
      6     -22.7684      1.00000
      7     -22.7570      1.00000
      8     -22.6286      1.00000
      9       8.9667      1.00000
     10       9.4195      1.00000
     11       9.4228      1.00000
     12      10.1006      1.00000
     13      10.1080      1.00000
     14      10.2302      1.00000
     15      14.6604      0.00000
     16      14.6632      0.00000
     17      14.6645      0.00000
     18      14.6688      0.00000
     19      21.4034      0.00000
     20      21.9699      0.00000
     21      22.8144      0.00000
     22      22.9480      0.00000
     23      22.9522      0.00000
     24      24.7646      0.00000
     25      24.7773      0.00000
     26      25.9454      0.00000
     27      35.1892      0.00000
     28      36.0436      0.00000
     29      36.0641      0.00000
     30      38.5685      0.00000
     31      39.0676      0.00000
     32      39.0739      0.00000
     33      40.5974      0.00000
     34      40.6135      0.00000
     35      41.2755      0.00000
     36      42.3691      0.00000
     37      42.8106      0.00000
     38      42.8269      0.00000
     39      52.6422      0.00000
     40      52.6596      0.00000
     41      52.8795      0.00000
     42      53.5186      0.00000
     43      55.3814      0.00000
     44      55.3825      0.00000
     45      56.6432      0.00000
     46      58.6333      0.00000
     47      58.6540      0.00000
     48      59.6530      0.00000
     49      59.6622      0.00000
     50      60.4523      0.00000
     51      62.4803      0.00000
     52      62.6998      0.00000
     53      62.7017      0.00000
     54      63.4466      0.00000
     55      66.1481      0.00000
     56      66.1772      0.00000
     57      70.2747      0.00000
     58      72.2174      0.00000
     59      72.2498      0.00000
     60      72.3650      0.00000
     61      72.3978      0.00000
     62      74.3895      0.00000
     63      74.3977      0.00000
     64      77.2889      0.00000


--------------------------------------------------------------------------------------------------------


 soft charge-density along one line, spin component           1
         0         1         2         3         4         5         6         7         8         9
 total charge-density along one line
 
 soft charge-density along one line, spin component           2
         0         1         2         3         4         5         6         7         8         9
 total charge-density along one line
 
 pseudopotential strength for first ion, spin component:           1
 -5.359  10.025   0.000   0.000   0.000  -0.000  -0.000  -0.000
 10.025   3.335  -0.000  -0.000  -0.000   0.000   0.000   0.000
  0.000  -0.000 -16.505   0.000   0.000   7.235  -0.000  -0.000
  0.000  -0.000   0.000 -16.501  -0.000  -0.000   7.230   0.000
  0.000  -0.000   0.000  -0.000 -16.505  -0.000   0.000   7.235
 -0.000   0.000   7.235  -0.000  -0.000   6.700   0.000  -0.000
 -0.000   0.000  -0.000   7.230   0.000   0.000   6.702  -0.000
 -0.000   0.000  -0.000   0.000   7.235  -0.000  -0.000   6.700
  0.000  -0.000  -0.000   0.000   0.000  -0.000  -0.000  -0.000
  0.000  -0.000   0.000   0.000   0.000  -0.000  -0.000  -0.000
  0.003  -0.001  -0.000   0.000   0.000   0.000  -0.000   0.000
 -0.000   0.000   0.000  -0.000   0.000  -0.000   0.000  -0.000
  0.000  -0.000  -0.000   0.000  -0.000   0.000  -0.000  -0.000
  0.000  -0.000  -0.000   0.000   0.000   0.000  -0.000  -0.000
  0.000  -0.000   0.000   0.000   0.000  -0.000  -0.000  -0.000
  0.003  -0.002  -0.000   0.000   0.000   0.000  -0.000   0.000
 -0.000   0.000   0.000   0.000   0.000  -0.000  -0.000  -0.000
  0.000  -0.000  -0.000   0.000   0.000   0.000  -0.000  -0.000
 pseudopotential strength for first ion, spin component:           2
 -5.359  10.025   0.000   0.000   0.000  -0.000  -0.000  -0.000
 10.025   3.335  -0.000  -0.000  -0.000   0.000   0.000   0.000
  0.000  -0.000 -16.505   0.000   0.000   7.235  -0.000  -0.000
  0.000  -0.000   0.000 -16.501  -0.000  -0.000   7.230   0.000
  0.000  -0.000   0.000  -0.000 -16.505  -0.000   0.000   7.235
 -0.000   0.000   7.235  -0.000  -0.000   6.700   0.000   0.000
 -0.000   0.000  -0.000   7.230   0.000   0.000   6.702  -0.000
 -0.000   0.000  -0.000   0.000   7.235   0.000  -0.000   6.700
  0.000  -0.000  -0.000   0.000   0.000  -0.000  -0.000  -0.000
  0.000  -0.000   0.000   0.000   0.000  -0.000  -0.000  -0.000
  0.003  -0.001  -0.000   0.000   0.000   0.000  -0.000   0.000
 -0.000   0.000   0.000   0.000   0.000  -0.000   0.000  -0.000
  0.000  -0.000  -0.000   0.000  -0.000   0.000  -0.000  -0.000
  0.000  -0.000  -0.000   0.000   0.000   0.000  -0.000  -0.000
  0.000  -0.000   0.000   0.000   0.000  -0.000  -0.000  -0.000
  0.003  -0.002  -0.000   0.000  -0.000   0.000  -0.000   0.000
 -0.000   0.000   0.000   0.000   0.000  -0.000  -0.000  -0.000
  0.000  -0.000  -0.000   0.000   0.000   0.000  -0.000  -0.000
 total augmentation occupancy for first ion, spin component:           1
  1.995  -0.037   0.000   0.000   0.000   0.000  -0.000   0.000  -0.000  -0.000   0.000  -0.000   0.000   0.000  -0.000  -0.000
 -0.037   1.549   0.000   0.000   0.000   0.000   0.000   0.000  -0.000   0.000   0.000  -0.000   0.000   0.000   0.000  -0.000
  0.000   0.000   1.995   0.000  -0.000  -0.041  -0.000   0.000  -0.000   0.000   0.000   0.000   0.000  -0.000  -0.000  -0.000
  0.000   0.000   0.000   2.000   0.000  -0.000  -0.041  -0.000  -0.000  -0.000  -0.000  -0.000  -0.000   0.000  -0.000   0.000
  0.000   0.000  -0.000   0.000   1.995   0.000  -0.000  -0.041  -0.000   0.000   0.000   0.000   0.000  -0.000  -0.000   0.000
  0.000   0.000  -0.041  -0.000   0.000   0.107   0.000  -0.000  -0.000   0.000  -0.000  -0.000   0.000  -0.000   0.000  -0.000
 -0.000   0.000  -0.000  -0.041  -0.000   0.000   0.107   0.000  -0.000   0.000   0.000   0.000  -0.000  -0.000   0.000  -0.000
  0.000   0.000   0.000  -0.000  -0.041  -0.000   0.000   0.107   0.000   0.000   0.000  -0.000  -0.000   0.000  -0.000  -0.000
 -0.000  -0.000   0.000   0.000   0.000   0.000  -0.000  -0.000   1.270   0.000   0.000   0.000   0.000  -1.731  -0.000  -0.000
  0.000   0.000  -0.000   0.000   0.000   0.000   0.000   0.000   0.000   1.273   0.000  -0.000  -0.000  -0.000  -1.735  -0.000
  0.000   0.000   0.000   0.000   0.000   0.000  -0.000   0.000   0.000   0.000   1.330   0.000   0.000  -0.000  -0.000  -1.917
 -0.000  -0.000  -0.000   0.000   0.000  -0.000   0.000   0.000   0.000  -0.000   0.000   1.273   0.000  -0.000   0.000  -0.000
  0.000   0.000  -0.000  -0.000  -0.000  -0.000   0.000  -0.000   0.000  -0.000   0.000   0.000   1.325  -0.000   0.000  -0.000
  0.000   0.000  -0.000   0.000   0.000   0.000  -0.000   0.000  -1.731  -0.000  -0.000  -0.000  -0.000   3.068   0.000   0.000
  0.000   0.000  -0.000   0.000   0.000  -0.000   0.000  -0.000  -0.000  -1.735  -0.000   0.000   0.000   0.000   3.075   0.000
 -0.000  -0.000  -0.000   0.000  -0.000   0.000  -0.000   0.000  -0.000  -0.000  -1.917  -0.000  -0.000   0.000   0.000   3.058
  0.000   0.000   0.000   0.000  -0.000   0.000  -0.000  -0.000  -0.000   0.000  -0.000  -1.735  -0.000   0.000  -0.000   0.000
 -0.000  -0.000   0.000  -0.000   0.000  -0.000  -0.000   0.000  -0.000   0.000  -0.000  -0.000  -1.911  -0.000  -0.000   0.000
 total augmentation occupancy for first ion, spin component:           2
  0.000   0.000   0.000   0.000   0.000   0.000   0.000  -0.000  -0.000   0.000   0.000   0.000   0.000  -0.000  -0.000  -0.000
  0.000   0.000   0.000   0.000   0.000   0.000   0.000   0.000   0.000  -0.000   0.000  -0.000   0.000   0.000  -0.000  -0.000
  0.000   0.000   0.000   0.000  -0.000   0.000   0.000  -0.000   0.000  -0.000   0.000   0.000   0.000   0.000   0.000   0.000
  0.000   0.000   0.000   0.000   0.000   0.000   0.000   0.000  -0.000   0.000   0.000  -0.000   0.000   0.000   0.000   0.000
  0.000   0.000  -0.000   0.000   0.000  -0.000   0.000   0.000   0.000  -0.000  -0.000  -0.000   0.000   0.000   0.000   0.000
  0.000   0.000   0.000   0.000  -0.000  -0.000  -0.000   0.000   0.000  -0.000  -0.000  -0.000   0.000  -0.000   0.000   0.000
 -0.000  -0.000   0.000   0.000   0.000  -0.000  -0.000  -0.000   0.000  -0.000  -0.000  -0.000   0.000   0.000   0.000   0.000
 -0.000   0.000  -0.000   0.000   0.000   0.000  -0.000  -0.000   0.000   0.000  -0.000   0.000  -0.000  -0.000   0.000   0.000
 -0.000   0.000   0.000   0.000  -0.000  -0.000   0.000  -0.000   0.000   0.000   0.000   0.000   0.000  -0.000  -0.000  -0.000
  0.000  -0.000   0.000   0.000   0.000  -0.000  -0.000   0.000   0.000   0.000   0.000  -0.000  -0.000  -0.000  -0.000  -0.000
  0.000   0.000  -0.000   0.000  -0.000   0.000  -0.000   0.000   0.000   0.000   0.000   0.000   0.000  -0.000  -0.000  -0.000
 -0.000  -0.000  -0.000   0.000   0.000  -0.000   0.000   0.000   0.000  -0.000   0.000   0.000   0.000  -0.000   0.000  -0.000
  0.000   0.000   0.000   0.000   0.000   0.000   0.000   0.000   0.000  -0.000   0.000   0.000   0.000   0.000   0.000  -0.000
  0.000   0.000  -0.000  -0.000   0.000  -0.000  -0.000  -0.000  -0.000  -0.000  -0.000  -0.000   0.000   0.000   0.000   0.000
 -0.000  -0.000   0.000   0.000   0.000  -0.000  -0.000  -0.000  -0.000  -0.000  -0.000   0.000   0.000   0.000   0.000   0.000
 -0.000  -0.000   0.000   0.000   0.000   0.000  -0.000   0.000  -0.000  -0.000  -0.000  -0.000  -0.000   0.000   0.000   0.000
  0.000  -0.000   0.000   0.000   0.000   0.000  -0.000   0.000  -0.000   0.000  -0.000  -0.000  -0.000   0.000  -0.000   0.000
 -0.000  -0.000   0.000  -0.000   0.000   0.000   0.000   0.000  -0.000   0.000  -0.000  -0.000  -0.000  -0.000  -0.000   0.000


------------------------ aborting loop because EDIFF is reached ----------------------------------------





 total charge

# of ion       s       p       d       tot
------------------------------------------
    1        2.377   6.210   3.870  12.457
    2        2.377   6.210   3.870  12.457
--------------------------------------------------
tot          4.754  12.419   7.740  24.913



 magnetization (x)

# of ion       s       p       d       tot
------------------------------------------
    1       -0.000   0.000   0.000   0.000
    2       -0.000   0.000   0.000   0.000
--------------------------------------------------
tot         -0.000   0.000   0.000   0.000
 
    CHARGE:  cpu time      0.0256: real time      0.0256
    FORLOC:  cpu time      0.0000: real time      0.0000
    FORNL :  cpu time      0.1584: real time      0.1605
    STRESS:  cpu time      0.5172: real time      0.5212
    FORCOR:  cpu time      0.0918: real time      0.0920
    FORHAR:  cpu time      0.0247: real time      0.0247
    MIXING:  cpu time      0.0003: real time      0.0003
    OFIELD:  cpu time      0.0000: real time      0.0000

  FORCE on cell =-STRESS in cart. coord.  units (eV):
  Direction    XX          YY          ZZ          XY          YZ          ZX
  --------------------------------------------------------------------------------------
  Alpha Z   232.45718   232.45718   232.45718
  Ewald   -1081.60946 -1081.60946 -1081.80938    -0.00000    -0.00000    -0.00000
  Hartree   179.45206   179.45206   179.74496    -0.00000    -0.00000    -0.00000
  E(xc)    -134.32481  -134.32481  -134.31649    -0.00000     0.00000     0.00000
  Local     280.68950   280.68950   279.65445     0.00000     0.00000    -0.00000
  n-local   -57.54697   -46.25853   -41.36099     1.36080    -1.06918    -0.02857
  augment    68.32387    68.32387    68.47244     0.00000     0.00000     0.00000
  Kinetic   490.98949   502.25844   517.98592     9.23614    -3.04178     1.39687
  Fock        0.00000     0.00000     0.00000     0.00000     0.00000     0.00000
  -------------------------------------------------------------------------------------
  Total       0.06662     0.06662     0.06677     0.00000    -0.00000    -0.00000
  in kB       3.36599     3.36599     3.37366     0.00000    -0.00000    -0.00000
  external pressure =        3.37 kB  Pullay stress =        0.00 kB


 VOLUME and BASIS-vectors are now :
 -----------------------------------------------------------------------------
  energy-cutoff  :      520.00
  volume of cell :       31.71
      direct lattice vectors                 reciprocal lattice vectors
     3.164017656 -0.000000000  0.000000000     0.316053862  0.000000000  0.000000000
    -0.000000000  3.164017656  0.000000000     0.000000000  0.316053862  0.000000000
     0.000000000  0.000000000  3.167617944    -0.000000000 -0.000000000  0.315694638

  length of vectors
     3.164017656  3.164017656  3.167617944     0.316053862  0.316053862  0.315694638


 FORCES acting on ions
    electron-ion (+dipol)            ewald-force                    non-local-force                 convergence-correction
 -----------------------------------------------------------------------------------------------
   -.902E-14 -.366E-14 -.258E-13   0.460E-14 0.128E-14 -.833E-14   -.159E-26 -.503E-26 0.391E-26   0.178E-13 0.174E-13 -.129E-13
   0.233E-12 0.383E-12 -.342E-11   -.215E-14 -.134E-14 0.869E-14   -.651E-26 -.224E-25 -.138E-26   -.108E-13 0.306E-13 -.200E-13
 -----------------------------------------------------------------------------------------------
   0.224E-12 0.379E-12 -.345E-11   0.245E-14 -.594E-16 0.360E-15   -.810E-26 -.274E-25 0.254E-26   0.702E-14 0.480E-13 -.328E-13
 
 
 POSITION                                       TOTAL-FORCE (eV/Angst)
 -----------------------------------------------------------------------------------
     -0.00000      0.00000     -0.00000        -0.000000      0.000000      0.000000
      1.58201      1.58201      1.58381         0.000000     -0.000000     -0.000000
 -----------------------------------------------------------------------------------
    total drift:                                0.000000      0.000000     -0.000000


--------------------------------------------------------------------------------------------------------



  FREE ENERGIE OF THE ION-ELECTRON SYSTEM (eV)
  ---------------------------------------------------
  free  energy   TOTEN  =       -21.82337379 eV

  energy  without entropy=      -21.82337379  energy(sigma->0) =      -21.82337379
 
 d Force = 0.0000000E+00[ 0.000E+00, 0.000E+00]  d Energy = 0.8244969E-02-0.824E-02
 d Force = 0.0000000E+00[ 0.000E+00, 0.000E+00]  d Ewald  = 0.2459238E+01-0.246E+01


--------------------------------------------------------------------------------------------------------


    POTLOK:  cpu time      0.7007: real time      0.7043


--------------------------------------------------------------------------------------------------------


 stress matrix after NEB project (eV)
      0.06662      0.00000     -0.00000
      0.00000      0.06662      0.00000
     -0.00000     -0.00000      0.06677
  FORCES: max atom, RMS     0.000000    0.000000
  FORCE total and by dimension    0.000000    0.000000
  Stress total and by dimension    0.115479    0.066773
 Steepest descent step on ions:
 trial-energy change:   -0.008245  1 .order    0.000022   -0.000107    0.000151
  (g-gl).g = 0.107E-03      g.g   = 0.107E-03  gl.gl    = 0.000E+00
 g(Force)  = 0.287E-59   g(Stress)= 0.107E-03 ortho     = 0.000E+00
 gamma     =   0.00000
 trial     =   1.00000
 opt step  =   0.41427  (harmonic =   0.41427) maximal distance =0.00000000
 next E    =   -21.815151   (d E  =  -0.00002)


--------------------------------------------------------------------------------------------------------


    WAVPRE:  cpu time      0.0021: real time      0.0097
    FEWALD:  cpu time      0.0002: real time      0.0002
    GENKIN:  cpu time      0.0056: real time      0.0056
    ORTHCH:  cpu time      0.1011: real time      0.1042
     LOOP+:  cpu time     18.5194: real time     18.7649
 -----------------------------------------------------------------------------
|                                                                             |
|           W    W    AA    RRRRR   N    N  II  N    N   GGGG   !!!           |
|           W    W   A  A   R    R  NN   N  II  NN   N  G    G  !!!           |
|           W    W  A    A  R    R  N N  N  II  N N  N  G       !!!           |
|           W WW W  AAAAAA  RRRRR   N  N N  II  N  N N  G  GGG   !            |
|           WW  WW  A    A  R   R   N   NN  II  N   NN  G    G                |
|           W    W  A    A  R    R  N    N  II  N    N   GGGG   !!!           |
|                                                                             |
|     Tetrahedron method does not include variations of the Fermi             |
|     occupations, so forces and stress will be inaccurate. We suggest        |
|     using a different smearing scheme ISMEAR = 1 or 2 for metals in         |
|     relaxations.                                                            |
|                                                                             |
 -----------------------------------------------------------------------------



--------------------------------------- Iteration      3(   1)  ---------------------------------------


    POTLOK:  cpu time      0.0120: real time      0.0121
    SETDIJ:  cpu time      0.6142: real time      0.6320
     EDDAV:  cpu time     10.8182: real time     10.9141
 BZINTS: Fermi energy:   12.338303;   28.000000 electrons
         Band energy:-0.355985E+03;  BLOECHL correction:   -0.067493
       DOS:  cpu time      0.0470: real time      0.0470
    CHARGE:  cpu time      0.0248: real time      0.0248
    MIXING:  cpu time      0.0003: real time      0.0003
    --------------------------------------------
      LOOP:  cpu time     11.5165: real time     11.6304

 eigenvalue-minimisations  :  8576
 total energy-change (2. order) : 0.1827475E-02  (-0.2238116E-02)
 number of electron      27.9999524 magnetization      -0.0000020
 augmentation part        4.9116267 magnetization       0.0000016

 Broyden mixing:
  rms(total) = 0.27173E-01    rms(broyden)= 0.27173E-01
  rms(prec ) = 0.45621E-01
  weight for this iteration     100.00

 Free energy of the ion-electron system (eV)
  ---------------------------------------------------
  alpha Z        PSCENC =       232.14763316
  Ewald energy   TEWEN  =     -3243.58755773
  -Hartree energ DENC   =      -538.41192678
  -exchange      EXHF   =         0.00000000
  -V(xc)+E(xc)   XCENC  =       130.72788817
  PAW double counting   =      3254.01041920    -3225.28236383
  entropy T*S    EENTRO =         0.00000000
  eigenvalues    EBANDS =      -355.98475669
  atomic energy  EATOM  =      3724.55917465
  Solvation  Ediel_sol  =         0.00000000
  ---------------------------------------------------
  free energy    TOTEN  =       -21.82148985 eV

  energy without entropy =      -21.82148985  energy(sigma->0) =      -21.82148985


--------------------------------------------------------------------------------------------------------




--------------------------------------- Iteration      3(   2)  ---------------------------------------


    POTLOK:  cpu time      0.0125: real time      0.0237
    SETDIJ:  cpu time      0.6147: real time      0.6300
    EDDIAG:  cpu time      0.4337: real time      0.4493
  RMM-DIIS:  cpu time      0.1984: real time      0.2039
    ORTHCH:  cpu time      0.0546: real time      0.0565
 BZINTS: Fermi energy:   12.350523;   28.000000 electrons
         Band energy:-0.355406E+03;  BLOECHL correction:   -0.065787
       DOS:  cpu time      0.0454: real time      0.0459
    CHARGE:  cpu time      0.0233: real time      0.0248
    MIXING:  cpu time      0.0004: real time      0.0004
    --------------------------------------------
      LOOP:  cpu time      1.3829: real time      1.4344

 eigenvalue-minimisations  :  5009
 total energy-change (2. order) : 0.2453958E-02  (-0.2193755E-04)
 number of electron      27.9999524 magnetization       0.0000014
 augmentation part        4.9048401 magnetization       0.0000003

 Broyden mixing:
  rms(total) = 0.46964E-02    rms(broyden)= 0.46962E-02
  rms(prec ) = 0.10509E-01
  weight for this iteration     100.00

 eigenvalues of (default mixing * dielectric matrix)
  average eigenvalue GAMMA=   1.1374
  1.1374

 Free energy of the ion-electron system (eV)
  ---------------------------------------------------
  alpha Z        PSCENC =       232.14763316
  Ewald energy   TEWEN  =     -3243.58755773
  -Hartree energ DENC   =      -539.06444934
  -exchange      EXHF   =         0.00000000
  -V(xc)+E(xc)   XCENC  =       130.76064800
  PAW double counting   =      3251.55186483    -3222.78008838
  entropy T*S    EENTRO =         0.00000000
  eigenvalues    EBANDS =      -355.40626106
  atomic energy  EATOM  =      3724.55917465
  Solvation  Ediel_sol  =         0.00000000
  ---------------------------------------------------
  free energy    TOTEN  =       -21.81903589 eV

  energy without entropy =      -21.81903589  energy(sigma->0) =      -21.81903589


--------------------------------------------------------------------------------------------------------




--------------------------------------- Iteration      3(   3)  ---------------------------------------


    POTLOK:  cpu time      0.0128: real time      0.0139
    SETDIJ:  cpu time      0.6510: real time      0.6610
    EDDIAG:  cpu time      0.4970: real time      0.4982
  RMM-DIIS:  cpu time      0.1698: real time      0.1702
    ORTHCH:  cpu time      0.0553: real time      0.0555
 BZINTS: Fermi energy:   12.354531;   28.000000 electrons
         Band energy:-0.355220E+03;  BLOECHL correction:   -0.065565
       DOS:  cpu time      0.0456: real time      0.0456
    CHARGE:  cpu time      0.0257: real time      0.0258
    MIXING:  cpu time      0.0004: real time      0.0004
    --------------------------------------------
      LOOP:  cpu time      1.4577: real time      1.4706

 eigenvalue-minimisations  :  3017
 total energy-change (2. order) : 0.3706286E-03  (-0.5613175E-05)
 number of electron      27.9999524 magnetization      -0.0000038
 augmentation part        4.9024638 magnetization      -0.0000028

 Broyden mixing:
  rms(total) = 0.36929E-02    rms(broyden)= 0.36928E-02
  rms(prec ) = 0.40992E-02
  weight for this iteration     100.00

 eigenvalues of (default mixing * dielectric matrix)
  average eigenvalue GAMMA=   1.8301
  1.4645  2.1957

 Free energy of the ion-electron system (eV)
  ---------------------------------------------------
  alpha Z        PSCENC =       232.14763316
  Ewald energy   TEWEN  =     -3243.58755773
  -Hartree energ DENC   =      -539.25507463
  -exchange      EXHF   =         0.00000000
  -V(xc)+E(xc)   XCENC  =       130.77000475
  PAW double counting   =      3250.70659931    -3221.93906529
  entropy T*S    EENTRO =         0.00000000
  eigenvalues    EBANDS =      -355.22037948
  atomic energy  EATOM  =      3724.55917465
  Solvation  Ediel_sol  =         0.00000000
  ---------------------------------------------------
  free energy    TOTEN  =       -21.81866526 eV

  energy without entropy =      -21.81866526  energy(sigma->0) =      -21.81866526


--------------------------------------------------------------------------------------------------------




--------------------------------------- Iteration      3(   4)  ---------------------------------------


    POTLOK:  cpu time      0.0133: real time      0.0136
    SETDIJ:  cpu time      0.6285: real time      0.6314
    EDDIAG:  cpu time      0.3960: real time      0.3973
  RMM-DIIS:  cpu time      0.1149: real time      0.1154
    ORTHCH:  cpu time      0.0561: real time      0.0564
 BZINTS: Fermi energy:   12.354505;   28.000000 electrons
         Band energy:-0.355229E+03;  BLOECHL correction:   -0.065553
       DOS:  cpu time      0.0458: real time      0.0460
    CHARGE:  cpu time      0.0256: real time      0.0256
    MIXING:  cpu time      0.0011: real time      0.0011
    --------------------------------------------
      LOOP:  cpu time      1.2815: real time      1.2867

 eigenvalue-minimisations  :  2504
 total energy-change (2. order) : 0.1164927E-03  (-0.4572729E-06)
 number of electron      27.9999524 magnetization       0.0000012
 augmentation part        4.9024388 magnetization      -0.0000019

 Broyden mixing:
  rms(total) = 0.21943E-03    rms(broyden)= 0.21911E-03
  rms(prec ) = 0.43644E-03
  weight for this iteration     100.00

 eigenvalues of (default mixing * dielectric matrix)
  average eigenvalue GAMMA=   1.5660
  2.4815  0.8312  1.3853

 Free energy of the ion-electron system (eV)
  ---------------------------------------------------
  alpha Z        PSCENC =       232.14763316
  Ewald energy   TEWEN  =     -3243.58755773
  -Hartree energ DENC   =      -539.21357317
  -exchange      EXHF   =         0.00000000
  -V(xc)+E(xc)   XCENC  =       130.76777819
  PAW double counting   =      3250.83257544    -3222.09599953
  entropy T*S    EENTRO =         0.00000000
  eigenvalues    EBANDS =      -355.22857978
  atomic energy  EATOM  =      3724.55917465
  Solvation  Ediel_sol  =         0.00000000
  ---------------------------------------------------
  free energy    TOTEN  =       -21.81854877 eV

  energy without entropy =      -21.81854877  energy(sigma->0) =      -21.81854877


--------------------------------------------------------------------------------------------------------




--------------------------------------- Iteration      3(   5)  ---------------------------------------


    POTLOK:  cpu time      0.0141: real time      0.0144
    SETDIJ:  cpu time      0.6348: real time      0.6359
    EDDIAG:  cpu time      0.3874: real time      0.3885
  RMM-DIIS:  cpu time      0.1082: real time      0.1086
    ORTHCH:  cpu time      0.0573: real time      0.0576
 BZINTS: Fermi energy:   12.354654;   28.000000 electrons
         Band energy:-0.355222E+03;  BLOECHL correction:   -0.065543
       DOS:  cpu time      0.0441: real time      0.0441
    --------------------------------------------
      LOOP:  cpu time      1.2459: real time      1.2490

 eigenvalue-minimisations  :  1016
 total energy-change (2. order) : 0.2134615E-04  (-0.4978102E-07)
 number of electron      27.9999524 magnetization       0.0000012
 augmentation part        4.9024388 magnetization      -0.0000019

 Free energy of the ion-electron system (eV)
  ---------------------------------------------------
  alpha Z        PSCENC =       232.14763316
  Ewald energy   TEWEN  =     -3243.58755773
  -Hartree energ DENC   =      -539.21802109
  -exchange      EXHF   =         0.00000000
  -V(xc)+E(xc)   XCENC  =       130.76798854
  PAW double counting   =      3250.84959689    -3222.11552375
  entropy T*S    EENTRO =         0.00000000
  eigenvalues    EBANDS =      -355.22181809
  atomic energy  EATOM  =      3724.55917465
  Solvation  Ediel_sol  =         0.00000000
  ---------------------------------------------------
  free energy    TOTEN  =       -21.81852742 eV

  energy without entropy =      -21.81852742  energy(sigma->0) =      -21.81852742


--------------------------------------------------------------------------------------------------------




 average (electrostatic) potential at core
  the test charge radii are     1.0818
  (the norm of the test charge is              1.0000)
       1 -69.4983       2 -69.4983
 
 
 
 E-fermi :  12.3547     XC(G=0): -13.3079     alpha+bet :-19.6794

 Fermi energy:        12.3546543995

 spin component 1

 k-point     1 :       0.0000    0.0000    0.0000
  band No.  band energies     occupation 
      1     -48.9681      1.00000
      2     -48.5450      1.00000
      3     -23.1883      1.00000
      4     -23.1883      1.00000
      5     -23.1835      1.00000
      6     -22.2695      1.00000
      7     -22.2695      1.00000
      8     -22.2631      1.00000
      9       5.1596      1.00000
     10       7.0149      1.00000
     11       7.0185      1.00000
     12      10.9917      1.00000
     13      10.9917      1.00000
     14      10.9938      1.00076
     15      13.9544      0.00000
     16      13.9672      0.00000
     17      16.2089      0.00000
     18      16.2148      0.00000
     19      16.2148      0.00000
     20      21.2767      0.00000
     21      21.2890      0.00000
     22      21.2890      0.00000
     23      27.1463      0.00000
     24      27.1571      0.00000
     25      27.1571      0.00000
     26      31.7513      0.00000
     27      32.8354      0.00000
     28      32.8412      0.00000
     29      35.6625      0.00000
     30      38.4910      0.00000
     31      38.4971      0.00000
     32      41.8879      0.00000
     33      41.9137      0.00000
     34      41.9137      0.00000
     35      48.1784      0.00000
     36      48.1784      0.00000
     37      48.1892      0.00000
     38      48.8848      0.00000
     39      48.9000      0.00000
     40      48.9000      0.00000
     41      52.2422      0.00000
     42      54.4492      0.00000
     43      54.4492      0.00000
     44      54.4710      0.00000
     45      57.0393      0.00000
     46      57.0393      0.00000
     47      57.0403      0.00000
     48      58.5787      0.00000
     49      58.5897      0.00000
     50      58.5897      0.00000
     51      60.9140      0.00000
     52      64.4147      0.00000
     53      64.9615      0.00000
     54      64.9615      0.00000
     55      64.9718      0.00000
     56      69.1909      0.00000
     57      69.1909      0.00000
     58      69.2172      0.00000
     59      70.5956      0.00000
     60      70.6240      0.00000
     61      73.2921      0.00000
     62      73.3193      0.00000
     63      74.5571      0.00000
     64      74.5964      0.00000

 k-point     2 :       0.1429    0.0000    0.0000
  band No.  band energies     occupation 
      1     -48.9442      1.00000
      2     -48.5628      1.00000
      3     -23.1897      1.00000
      4     -23.1414      1.00000
      5     -23.1365      1.00000
      6     -22.3651      1.00000
      7     -22.3132      1.00000
      8     -22.3069      1.00000
      9       5.5979      1.00000
     10       7.2523      1.00000
     11       7.3871      1.00000
     12      10.9699      1.00000
     13      10.9720      1.00000
     14      11.1857      1.00077
     15      13.4020     -0.01402
     16      14.1580      0.00000
     17      15.1572      0.00000
     18      15.1600      0.00000
     19      15.8498      0.00000
     20      20.1498      0.00000
     21      22.8205      0.00000
     22      22.8300      0.00000
     23      27.6152      0.00000
     24      27.8796      0.00000
     25      27.8905      0.00000
     26      31.4573      0.00000
     27      32.5971      0.00000
     28      33.6847      0.00000
     29      34.8504      0.00000
     30      36.2659      0.00000
     31      39.3074      0.00000
     32      41.2673      0.00000
     33      41.2886      0.00000
     34      44.5983      0.00000
     35      47.1753      0.00000
     36      47.1905      0.00000
     37      47.3113      0.00000
     38      47.4387      0.00000
     39      47.4578      0.00000
     40      49.1766      0.00000
     41      52.2900      0.00000
     42      52.2982      0.00000
     43      53.3380      0.00000
     44      55.0050      0.00000
     45      56.7446      0.00000
     46      58.1822      0.00000
     47      59.6600      0.00000
     48      59.6609      0.00000
     49      60.6530      0.00000
     50      60.6623      0.00000
     51      61.9373      0.00000
     52      63.3420      0.00000
     53      63.3561      0.00000
     54      64.5241      0.00000
     55      65.1930      0.00000
     56      66.5729      0.00000
     57      69.4916      0.00000
     58      70.0650      0.00000
     59      70.5495      0.00000
     60      71.0209      0.00000
     61      71.0391      0.00000
     62      72.7348      0.00000
     63      73.2147      0.00000
     64      73.2234      0.00000

 k-point     3 :       0.2857    0.0000    0.0000
  band No.  band energies     occupation 
      1     -48.8787      1.00000
      2     -48.6144      1.00000
      3     -23.1679      1.00000
      4     -23.0107      1.00000
      5     -23.0056      1.00000
      6     -22.6020      1.00000
      7     -22.4369      1.00000
      8     -22.4309      1.00000
      9       6.7589      1.00000
     10       7.9444      1.00000
     11       8.2530      1.00000
     12      11.0218      1.00000
     13      11.0236      1.00000
     14      11.7527      1.00292
     15      12.0554      0.56577
     16      13.5037     -0.02567
     17      13.5043      0.00000
     18      14.6747      0.00000
     19      14.9203      0.00000
     20      17.9845      0.00000
     21      25.8920      0.00000
     22      25.9000      0.00000
     23      28.6653      0.00000
     24      29.2742      0.00000
     25      29.8012      0.00000
     26      29.8125      0.00000
     27      30.5638      0.00000
     28      31.9344      0.00000
     29      37.3676      0.00000
     30      37.8896      0.00000
     31      39.0481      0.00000
     32      39.0610      0.00000
     33      41.7061      0.00000
     34      43.5907      0.00000
     35      43.6080      0.00000
     36      45.2323      0.00000
     37      46.5787      0.00000
     38      46.5857      0.00000
     39      46.6007      0.00000
     40      49.4052      0.00000
     41      50.4062      0.00000
     42      50.4165      0.00000
     43      51.8070      0.00000
     44      54.6482      0.00000
     45      56.6667      0.00000
     46      61.4262      0.00000
     47      61.4381      0.00000
     48      61.4651      0.00000
     49      61.6865      0.00000
     50      63.0063      0.00000
     51      63.6401      0.00000
     52      63.6646      0.00000
     53      64.4098      0.00000
     54      64.4114      0.00000
     55      65.5910      0.00000
     56      66.8401      0.00000
     57      67.3305      0.00000
     58      68.1466      0.00000
     59      69.2494      0.00000
     60      69.2518      0.00000
     61      70.3928      0.00000
     62      74.0129      0.00000
     63      74.0409      0.00000
     64      74.1637      0.00000

 k-point     4 :       0.4286    0.0000    0.0000
  band No.  band energies     occupation 
      1     -48.7882      1.00000
      2     -48.6938      1.00000
      3     -23.0701      1.00000
      4     -22.8695      1.00000
      5     -22.8234      1.00000
      6     -22.8180      1.00000
      7     -22.6185      1.00000
      8     -22.6128      1.00000
      9       8.1360      1.00000
     10       8.7932      1.00000
     11       9.0521      1.00000
     12      10.4842      1.00000
     13      11.3736      1.00000
     14      11.3750      1.00000
     15      12.1882      0.85874
     16      12.1889      0.53300
     17      12.6433      0.00000
     18      13.7582      0.00000
     19      15.3039      0.00000
     20      16.2161      0.00000
     21      27.6151      0.00000
     22      27.8977      0.00000
     23      29.2878      0.00000
     24      29.2963      0.00000
     25      29.8531      0.00000
     26      30.9776      0.00000
     27      31.3701      0.00000
     28      31.3810      0.00000
     29      37.0942      0.00000
     30      37.1046      0.00000
     31      39.3852      0.00000
     32      39.3988      0.00000
     33      40.1502      0.00000
     34      41.9621      0.00000
     35      42.6990      0.00000
     36      45.4709      0.00000
     37      46.4464      0.00000
     38      47.3153      0.00000
     39      47.3375      0.00000
     40      48.6881      0.00000
     41      48.7357      0.00000
     42      48.7533      0.00000
     43      49.0907      0.00000
     44      50.1437      0.00000
     45      59.3752      0.00000
     46      61.5639      0.00000
     47      62.3615      0.00000
     48      62.3667      0.00000
     49      62.4974      0.00000
     50      62.8304      0.00000
     51      63.0306      0.00000
     52      64.3806      0.00000
     53      64.3886      0.00000
     54      64.7436      0.00000
     55      66.0803      0.00000
     56      66.0888      0.00000
     57      67.9311      0.00000
     58      67.9385      0.00000
     59      71.2623      0.00000
     60      71.8917      0.00000
     61      73.9793      0.00000
     62      74.4196      0.00000
     63      74.6334      0.00000
     64      74.6429      0.00000

 k-point     5 :       0.1429    0.1429    0.0000
  band No.  band energies     occupation 
      1     -48.9222      1.00000
      2     -48.5783      1.00000
      3     -23.2680      1.00000
      4     -23.0934      1.00000
      5     -23.0246      1.00000
      6     -22.5341      1.00000
      7     -22.3456      1.00000
      8     -22.2714      1.00000
      9       5.9899      1.00000
     10       7.5131      1.00000
     11       7.7070      1.00000
     12      10.5407      1.00000
     13      10.8708      1.00000
     14      11.8058      1.00374
     15      13.4769     -0.01911
     16      13.8802      0.00000
     17      13.9829      0.00000
     18      14.2586      0.00000
     19      16.3468      0.00000
     20      20.9044      0.00000
     21      22.1358      0.00000
     22      23.6858      0.00000
     23      27.6180      0.00000
     24      28.4598      0.00000
     25      28.5872      0.00000
     26      31.5954      0.00000
     27      32.0870      0.00000
     28      34.5491      0.00000
     29      34.9010      0.00000
     30      36.6358      0.00000
     31      36.8294      0.00000
     32      40.2369      0.00000
     33      41.7467      0.00000
     34      45.5360      0.00000
     35      45.5502      0.00000
     36      46.0405      0.00000
     37      47.0699      0.00000
     38      47.4048      0.00000
     39      47.9796      0.00000
     40      50.5373      0.00000
     41      51.2744      0.00000
     42      51.3040      0.00000
     43      54.8106      0.00000
     44      55.4867      0.00000
     45      56.0009      0.00000
     46      58.2562      0.00000
     47      59.2967      0.00000
     48      60.6687      0.00000
     49      60.7101      0.00000
     50      60.8107      0.00000
     51      60.8299      0.00000
     52      62.9403      0.00000
     53      63.8298      0.00000
     54      66.3306      0.00000
     55      66.4093      0.00000
     56      66.8385      0.00000
     57      67.5639      0.00000
     58      67.9854      0.00000
     59      68.0702      0.00000
     60      69.9665      0.00000
     61      70.4380      0.00000
     62      72.2194      0.00000
     63      73.5898      0.00000
     64      74.9140      0.00000

 k-point     6 :       0.2857    0.1429    0.0000
  band No.  band energies     occupation 
      1     -48.8622      1.00000
      2     -48.6238      1.00000
      3     -23.3076      1.00000
      4     -22.9737      1.00000
      5     -22.8530      1.00000
      6     -22.8066      1.00000
      7     -22.4555      1.00000
      8     -22.3279      1.00000
      9       6.9770      1.00000
     10       8.0695      1.00000
     11       8.5884      1.00000
     12      10.3012      1.00000
     13      10.7433      1.00000
     14      12.3278      0.99672
     15      12.6932     -0.02081
     16      12.7560     -0.00617
     17      12.9695      0.00000
     18      14.4728      0.00000
     19      15.9427      0.00000
     20      18.8251      0.00000
     21      24.3011      0.00000
     22      26.0369      0.00000
     23      27.8719      0.00000
     24      28.8122      0.00000
     25      29.7965      0.00000
     26      30.4574      0.00000
     27      31.7212      0.00000
     28      32.7531      0.00000
     29      37.2818      0.00000
     30      37.6257      0.00000
     31      37.9073      0.00000
     32      38.1794      0.00000
     33      40.9871      0.00000
     34      42.8540      0.00000
     35      44.3263      0.00000
     36      45.0001      0.00000
     37      45.6665      0.00000
     38      47.0980      0.00000
     39      48.9671      0.00000
     40      49.4093      0.00000
     41      50.3967      0.00000
     42      52.4127      0.00000
     43      54.0678      0.00000
     44      54.6347      0.00000
     45      54.8273      0.00000
     46      57.1375      0.00000
     47      60.3836      0.00000
     48      60.7988      0.00000
     49      61.7893      0.00000
     50      62.3612      0.00000
     51      63.2969      0.00000
     52      63.7107      0.00000
     53      64.3530      0.00000
     54      64.5351      0.00000
     55      65.5521      0.00000
     56      66.1701      0.00000
     57      66.1881      0.00000
     58      68.1011      0.00000
     59      69.7211      0.00000
     60      69.9899      0.00000
     61      71.7138      0.00000
     62      71.7144      0.00000
     63      72.8421      0.00000
     64      77.2010      0.00000

 k-point     7 :       0.4286    0.1429    0.0000
  band No.  band energies     occupation 
      1     -48.7798      1.00000
      2     -48.6946      1.00000
      3     -23.2496      1.00000
      4     -23.0724      1.00000
      5     -22.8032      1.00000
      6     -22.6584      1.00000
      7     -22.6181      1.00000
      8     -22.4703      1.00000
      9       8.0350      1.00000
     10       8.5230      1.00000
     11       9.4438      1.00000
     12      10.3328      1.00000
     13      10.4730      1.00000
     14      11.1477      1.00000
     15      12.3177      0.29870
     16      12.4151      0.04496
     17      13.7546      0.00000
     18      14.9144      0.00000
     19      15.2216      0.00000
     20      16.5728      0.00000
     21      26.0877      0.00000
     22      26.8790      0.00000
     23      28.8470      0.00000
     24      28.8990      0.00000
     25      29.1344      0.00000
     26      31.6336      0.00000
     27      31.6632      0.00000
     28      32.6461      0.00000
     29      36.0012      0.00000
     30      37.1880      0.00000
     31      38.2388      0.00000
     32      39.5428      0.00000
     33      41.7452      0.00000
     34      42.1665      0.00000
     35      42.2772      0.00000
     36      43.9949      0.00000
     37      46.5045      0.00000
     38      47.0202      0.00000
     39      47.3884      0.00000
     40      48.5449      0.00000
     41      49.7550      0.00000
     42      50.5086      0.00000
     43      52.3789      0.00000
     44      53.4457      0.00000
     45      56.1178      0.00000
     46      57.0541      0.00000
     47      58.5353      0.00000
     48      59.2049      0.00000
     49      60.7627      0.00000
     50      62.1514      0.00000
     51      63.9802      0.00000
     52      65.8418      0.00000
     53      65.8425      0.00000
     54      66.0189      0.00000
     55      66.6506      0.00000
     56      67.5232      0.00000
     57      69.0769      0.00000
     58      69.9160      0.00000
     59      70.8776      0.00000
     60      71.8558      0.00000
     61      72.6864      0.00000
     62      72.7192      0.00000
     63      75.2555      0.00000
     64      76.3031      0.00000

 k-point     8 :       0.2857    0.2857    0.0000
  band No.  band energies     occupation 
      1     -48.8176      1.00000
      2     -48.6525      1.00000
      3     -23.4433      1.00000
      4     -23.1033      1.00000
      5     -22.8861      1.00000
      6     -22.6452      1.00000
      7     -22.5269      1.00000
      8     -22.2759      1.00000
      9       7.3227      1.00000
     10       8.0512      1.00000
     11       9.6602      1.00000
     12       9.6726      1.00000
     13      10.9182      1.00106
     14      11.0221      1.01059
     15      12.4900      0.00080
     16      13.5636      0.00000
     17      13.9978      0.00000
     18      14.1877      0.00000
     19      16.6557      0.00000
     20      19.1292      0.00000
     21      23.0649      0.00000
     22      26.5634      0.00000
     23      26.8998      0.00000
     24      27.6620      0.00000
     25      28.4547      0.00000
     26      32.1001      0.00000
     27      32.2843      0.00000
     28      34.8468      0.00000
     29      35.0743      0.00000
     30      36.7301      0.00000
     31      38.4725      0.00000
     32      38.7027      0.00000
     33      39.6528      0.00000
     34      41.9229      0.00000
     35      45.9760      0.00000
     36      46.0479      0.00000
     37      46.3825      0.00000
     38      46.7751      0.00000
     39      47.1666      0.00000
     40      49.2231      0.00000
     41      50.1812      0.00000
     42      53.0982      0.00000
     43      53.9615      0.00000
     44      54.0911      0.00000
     45      54.9363      0.00000
     46      58.9677      0.00000
     47      59.0291      0.00000
     48      59.9925      0.00000
     49      61.1962      0.00000
     50      61.2762      0.00000
     51      61.3740      0.00000
     52      61.5348      0.00000
     53      62.9479      0.00000
     54      64.3608      0.00000
     55      65.3627      0.00000
     56      65.3866      0.00000
     57      66.9915      0.00000
     58      67.5431      0.00000
     59      69.1715      0.00000
     60      71.8742      0.00000
     61      75.5008      0.00000
     62      76.1953      0.00000
     63      76.4021      0.00000
     64      76.9005      0.00000

 k-point     9 :       0.4286    0.2857    0.0000
  band No.  band energies     occupation 
      1     -48.7582      1.00000
      2     -48.6991      1.00000
      3     -23.4678      1.00000
      4     -23.3479      1.00000
      5     -22.7641      1.00000
      6     -22.6358      1.00000
      7     -22.4607      1.00000
      8     -22.3278      1.00000
      9       7.5402      1.00000
     10       7.8065      1.00000
     11       9.5274      1.00000
     12       9.9453      1.00000
     13      10.8113      1.01907
     14      11.4492      1.01122
     15      12.9503     -0.00593
     16      13.5165      0.00000
     17      14.9321      0.00000
     18      15.2766      0.00000
     19      16.3053      0.00000
     20      16.9493      0.00000
     21      24.2263      0.00000
     22      25.4332      0.00000
     23      26.4689      0.00000
     24      26.7812      0.00000
     25      28.8839      0.00000
     26      31.6132      0.00000
     27      32.9834      0.00000
     28      34.7372      0.00000
     29      35.2519      0.00000
     30      37.8488      0.00000
     31      37.9565      0.00000
     32      39.2811      0.00000
     33      39.6263      0.00000
     34      41.6735      0.00000
     35      44.7364      0.00000
     36      45.6783      0.00000
     37      47.3824      0.00000
     38      47.4951      0.00000
     39      47.7100      0.00000
     40      48.3469      0.00000
     41      50.9213      0.00000
     42      50.9961      0.00000
     43      52.5035      0.00000
     44      53.5870      0.00000
     45      53.7781      0.00000
     46      56.8362      0.00000
     47      58.7831      0.00000
     48      58.8298      0.00000
     49      61.0894      0.00000
     50      61.0980      0.00000
     51      61.5581      0.00000
     52      62.9902      0.00000
     53      63.8473      0.00000
     54      64.3934      0.00000
     55      64.9270      0.00000
     56      67.2652      0.00000
     57      68.8424      0.00000
     58      71.1726      0.00000
     59      71.5880      0.00000
     60      71.7202      0.00000
     61      73.3688      0.00000
     62      74.7922      0.00000
     63      75.1689      0.00000
     64      76.7050      0.00000

 k-point    10 :       0.4286    0.4286    0.0000
  band No.  band energies     occupation 
      1     -48.7323      1.00000
      2     -48.7112      1.00000
      3     -23.5802      1.00000
      4     -23.5380      1.00000
      5     -22.7143      1.00000
      6     -22.6684      1.00000
      7     -22.3277      1.00000
      8     -22.2797      1.00000
      9       7.1852      1.00000
     10       7.2780      1.00000
     11       9.0788      1.00000
     12       9.2196      1.00000
     13      12.5450      0.66486
     14      13.1974      0.15076
     15      13.6171      0.00000
     16      14.0723      0.00000
     17      14.5265      0.00000
     18      16.0113      0.00000
     19      16.4783      0.00000
     20      16.9170      0.00000
     21      23.6322      0.00000
     22      24.3862      0.00000
     23      24.5833      0.00000
     24      24.9406      0.00000
     25      29.1365      0.00000
     26      30.2481      0.00000
     27      33.9536      0.00000
     28      34.9757      0.00000
     29      36.6635      0.00000
     30      37.9589      0.00000
     31      38.9153      0.00000
     32      39.4156      0.00000
     33      39.8967      0.00000
     34      42.9469      0.00000
     35      44.3657      0.00000
     36      44.7132      0.00000
     37      45.1431      0.00000
     38      46.8291      0.00000
     39      47.8540      0.00000
     40      47.9211      0.00000
     41      51.3304      0.00000
     42      52.7612      0.00000
     43      53.5870      0.00000
     44      54.1845      0.00000
     45      56.2704      0.00000
     46      56.3796      0.00000
     47      56.6301      0.00000
     48      57.7992      0.00000
     49      60.4513      0.00000
     50      60.8727      0.00000
     51      61.2620      0.00000
     52      61.8909      0.00000
     53      62.1660      0.00000
     54      63.5355      0.00000
     55      66.1771      0.00000
     56      66.3815      0.00000
     57      66.4027      0.00000
     58      66.7070      0.00000
     59      73.9571      0.00000
     60      73.9609      0.00000
     61      77.4544      0.00000
     62      77.6746      0.00000
     63      77.8930      0.00000
     64      79.2597      0.00000

 k-point    11 :       0.1429    0.1429    0.1429
  band No.  band energies     occupation 
      1     -48.9020      1.00000
      2     -48.5919      1.00000
      3     -23.2176      1.00000
      4     -23.2142      1.00000
      5     -22.8832      1.00000
      6     -22.6684      1.00000
      7     -22.3193      1.00000
      8     -22.3149      1.00000
      9       6.3679      1.00000
     10       7.8919      1.00000
     11       7.8954      1.00000
     12      10.4235      1.00000
     13      10.4253      1.00000
     14      12.4011      0.98461
     15      12.4805      0.01759
     16      13.7260      0.00000
     17      13.7362      0.00000
     18      15.3240      0.00000
     19      15.3297      0.00000
     20      22.3543      0.00000
     21      22.3600      0.00000
     22      22.5779      0.00000
     23      28.0492      0.00000
     24      28.6298      0.00000
     25      28.6325      0.00000
     26      31.9108      0.00000
     27      31.9154      0.00000
     28      34.5979      0.00000
     29      36.0839      0.00000
     30      36.0855      0.00000
     31      36.6328      0.00000
     32      37.6820      0.00000
     33      42.9155      0.00000
     34      43.7864      0.00000
     35      44.9315      0.00000
     36      44.9330      0.00000
     37      48.7195      0.00000
     38      48.7263      0.00000
     39      49.0226      0.00000
     40      49.0346      0.00000
     41      51.4562      0.00000
     42      51.4637      0.00000
     43      54.9875      0.00000
     44      55.2281      0.00000
     45      56.2159      0.00000
     46      58.3975      0.00000
     47      58.4131      0.00000
     48      60.2168      0.00000
     49      60.2246      0.00000
     50      60.5340      0.00000
     51      62.9428      0.00000
     52      62.9644      0.00000
     53      63.8344      0.00000
     54      63.8715      0.00000
     55      64.1009      0.00000
     56      64.1188      0.00000
     57      67.8165      0.00000
     58      70.6449      0.00000
     59      70.6642      0.00000
     60      71.5000      0.00000
     61      71.5183      0.00000
     62      73.7243      0.00000
     63      73.7343      0.00000
     64      74.1821      0.00000

 k-point    12 :       0.2857    0.1429    0.1429
  band No.  band energies     occupation 
      1     -48.8469      1.00000
      2     -48.6320      1.00000
      3     -23.3089      1.00000
      4     -23.0740      1.00000
      5     -22.9208      1.00000
      6     -22.7108      1.00000
      7     -22.4513      1.00000
      8     -22.3309      1.00000
      9       7.2775      1.00000
     10       8.4147      1.00000
     11       8.7122      1.00000
     12      10.1620      1.00000
     13      10.1745      1.00000
     14      11.1043      1.00307
     15      13.0947     -0.02674
     16      13.5779     -0.00657
     17      13.8091      0.00000
     18      14.3536      0.00000
     19      15.4391      0.00000
     20      19.9072      0.00000
     21      23.8597      0.00000
     22      25.0755      0.00000
     23      28.1107      0.00000
     24      28.2726      0.00000
     25      29.9528      0.00000
     26      30.6496      0.00000
     27      31.5350      0.00000
     28      34.0972      0.00000
     29      34.8583      0.00000
     30      36.3445      0.00000
     31      38.8070      0.00000
     32      39.9036      0.00000
     33      41.7421      0.00000
     34      41.8097      0.00000
     35      42.3055      0.00000
     36      44.8431      0.00000
     37      45.5086      0.00000
     38      48.6328      0.00000
     39      50.0442      0.00000
     40      50.2281      0.00000
     41      51.3964      0.00000
     42      52.8530      0.00000
     43      53.3921      0.00000
     44      54.0694      0.00000
     45      55.6431      0.00000
     46      58.3869      0.00000
     47      58.5793      0.00000
     48      58.8021      0.00000
     49      59.7752      0.00000
     50      60.9461      0.00000
     51      61.2762      0.00000
     52      63.3435      0.00000
     53      63.8878      0.00000
     54      64.0354      0.00000
     55      66.1778      0.00000
     56      67.2614      0.00000
     57      68.2341      0.00000
     58      68.5704      0.00000
     59      70.5103      0.00000
     60      71.0251      0.00000
     61      72.9239      0.00000
     62      73.4237      0.00000
     63      74.3099      0.00000
     64      75.8166      0.00000

 k-point    13 :       0.4286    0.1429    0.1429
  band No.  band energies     occupation 
      1     -48.7719      1.00000
      2     -48.6951      1.00000
      3     -23.2972      1.00000
      4     -23.1578      1.00000
      5     -22.8715      1.00000
      6     -22.6491      1.00000
      7     -22.5481      1.00000
      8     -22.4141      1.00000
      9       8.1573      1.00000
     10       8.7917      1.00000
     11       9.1373      1.00000
     12       9.7802      1.00000
     13      10.5588      1.00000
     14      10.8327      1.00000
     15      12.5706     -0.01786
     16      12.7845     -0.01889
     17      14.4748      0.00000
     18      14.8794      0.00000
     19      15.4116      0.00000
     20      17.4069      0.00000
     21      25.3305      0.00000
     22      26.4476      0.00000
     23      27.4919      0.00000
     24      28.3158      0.00000
     25      30.2212      0.00000
     26      31.4265      0.00000
     27      31.4739      0.00000
     28      32.0920      0.00000
     29      35.4400      0.00000
     30      37.0151      0.00000
     31      39.0407      0.00000
     32      40.8458      0.00000
     33      42.0004      0.00000
     34      42.1451      0.00000
     35      42.2129      0.00000
     36      43.4295      0.00000
     37      43.7383      0.00000
     38      47.2898      0.00000
     39      48.5259      0.00000
     40      51.3676      0.00000
     41      51.4217      0.00000
     42      52.4935      0.00000
     43      52.8833      0.00000
     44      53.1110      0.00000
     45      54.0352      0.00000
     46      55.3500      0.00000
     47      57.7208      0.00000
     48      58.7413      0.00000
     49      60.4856      0.00000
     50      60.5809      0.00000
     51      62.1815      0.00000
     52      62.9451      0.00000
     53      65.6882      0.00000
     54      65.7589      0.00000
     55      68.8974      0.00000
     56      70.2359      0.00000
     57      70.2397      0.00000
     58      70.9840      0.00000
     59      71.5327      0.00000
     60      71.6164      0.00000
     61      72.1121      0.00000
     62      73.2575      0.00000
     63      74.8153      0.00000
     64      75.1000      0.00000

 k-point    14 :       0.2857    0.2857    0.1429
  band No.  band energies     occupation 
      1     -48.8059      1.00000
      2     -48.6570      1.00000
      3     -23.3852      1.00000
      4     -23.1463      1.00000
      5     -23.0245      1.00000
      6     -22.5499      1.00000
      7     -22.5188      1.00000
      8     -22.3331      1.00000
      9       7.7632      1.00000
     10       8.4762      1.00000
     11       9.5727      1.00000
     12       9.6798      1.00000
     13      10.0636      1.00091
     14      10.3188      1.00708
     15      13.4267     -0.00074
     16      13.6775      0.00000
     17      14.1949      0.00000
     18      15.0137      0.00000
     19      15.6088      0.00000
     20      20.5431      0.00000
     21      22.7645      0.00000
     22      25.2283      0.00000
     23      26.9600      0.00000
     24      27.5383      0.00000
     25      29.9954      0.00000
     26      30.9298      0.00000
     27      31.7457      0.00000
     28      32.1648      0.00000
     29      35.5760      0.00000
     30      37.3847      0.00000
     31      38.1439      0.00000
     32      40.1719      0.00000
     33      41.4447      0.00000
     34      42.2640      0.00000
     35      42.7742      0.00000
     36      45.3044      0.00000
     37      45.7707      0.00000
     38      45.9783      0.00000
     39      50.3358      0.00000
     40      51.1302      0.00000
     41      51.2047      0.00000
     42      52.8390      0.00000
     43      53.0348      0.00000
     44      54.4840      0.00000
     45      56.3501      0.00000
     46      56.5810      0.00000
     47      57.1227      0.00000
     48      58.7856      0.00000
     49      59.5113      0.00000
     50      60.8023      0.00000
     51      60.9639      0.00000
     52      62.1825      0.00000
     53      63.3174      0.00000
     54      64.8528      0.00000
     55      65.5901      0.00000
     56      67.9990      0.00000
     57      68.0203      0.00000
     58      69.4461      0.00000
     59      70.9644      0.00000
     60      72.2961      0.00000
     61      72.9567      0.00000
     62      73.5759      0.00000
     63      74.4297      0.00000
     64      76.0879      0.00000

 k-point    15 :       0.4286    0.2857    0.1429
  band No.  band energies     occupation 
      1     -48.7516      1.00000
      2     -48.6984      1.00000
      3     -23.4255      1.00000
      4     -23.3412      1.00000
      5     -22.8581      1.00000
      6     -22.6710      1.00000
      7     -22.4304      1.00000
      8     -22.3589      1.00000
      9       7.9211      1.00000
     10       8.1521      1.00000
     11       9.4137      1.00000
     12       9.5680      1.00000
     13      10.8197      1.00930
     14      10.9853      1.01669
     15      13.3047     -0.00352
     16      13.5195      0.00000
     17      14.6741      0.00000
     18      15.2505      0.00000
     19      16.5454      0.00000
     20      18.5076      0.00000
     21      23.8367      0.00000
     22      25.3652      0.00000
     23      26.1118      0.00000
     24      26.4783      0.00000
     25      29.2095      0.00000
     26      30.1398      0.00000
     27      32.8294      0.00000
     28      32.8569      0.00000
     29      35.9978      0.00000
     30      36.4772      0.00000
     31      39.0788      0.00000
     32      40.4725      0.00000
     33      40.6236      0.00000
     34      42.8554      0.00000
     35      43.9287      0.00000
     36      44.3504      0.00000
     37      45.2141      0.00000
     38      47.7682      0.00000
     39      48.9198      0.00000
     40      50.1751      0.00000
     41      50.7528      0.00000
     42      51.8446      0.00000
     43      52.1851      0.00000
     44      53.3329      0.00000
     45      55.2917      0.00000
     46      55.9056      0.00000
     47      57.1159      0.00000
     48      58.6378      0.00000
     49      60.1716      0.00000
     50      60.8019      0.00000
     51      61.6687      0.00000
     52      61.7817      0.00000
     53      64.2342      0.00000
     54      66.2731      0.00000
     55      67.6151      0.00000
     56      67.6546      0.00000
     57      69.8155      0.00000
     58      69.9365      0.00000
     59      71.6240      0.00000
     60      71.8855      0.00000
     61      73.3915      0.00000
     62      73.9774      0.00000
     63      75.1022      0.00000
     64      75.3537      0.00000

 k-point    16 :       0.4286    0.4286    0.1429
  band No.  band energies     occupation 
      1     -48.7277      1.00000
      2     -48.7087      1.00000
      3     -23.5164      1.00000
      4     -23.4872      1.00000
      5     -22.7802      1.00000
      6     -22.7079      1.00000
      7     -22.3652      1.00000
      8     -22.3443      1.00000
      9       7.6094      1.00000
     10       7.6655      1.00000
     11       9.0573      1.00000
     12       9.1737      1.00000
     13      12.1265      0.98519
     14      12.3482      0.80435
     15      13.8306      0.00000
     16      14.0627      0.00000
     17      14.5552      0.00000
     18      15.1114      0.00000
     19      17.7058      0.00000
     20      18.5086      0.00000
     21      23.2221      0.00000
     22      24.0340      0.00000
     23      24.9726      0.00000
     24      25.0792      0.00000
     25      28.5186      0.00000
     26      28.9515      0.00000
     27      34.3091      0.00000
     28      35.1413      0.00000
     29      35.5363      0.00000
     30      36.1041      0.00000
     31      39.1068      0.00000
     32      39.7151      0.00000
     33      41.0991      0.00000
     34      41.9989      0.00000
     35      44.1169      0.00000
     36      44.5137      0.00000
     37      47.8692      0.00000
     38      48.0648      0.00000
     39      48.5309      0.00000
     40      49.3670      0.00000
     41      50.1855      0.00000
     42      51.3891      0.00000
     43      51.4649      0.00000
     44      53.3378      0.00000
     45      54.6572      0.00000
     46      57.0693      0.00000
     47      57.0998      0.00000
     48      57.8431      0.00000
     49      58.4033      0.00000
     50      60.7322      0.00000
     51      62.3461      0.00000
     52      62.5944      0.00000
     53      65.7149      0.00000
     54      66.1181      0.00000
     55      66.2072      0.00000
     56      68.3098      0.00000
     57      68.9526      0.00000
     58      69.9925      0.00000
     59      70.5576      0.00000
     60      73.2350      0.00000
     61      73.2596      0.00000
     62      74.6882      0.00000
     63      75.2263      0.00000
     64      76.1298      0.00000

 k-point    17 :       0.2857    0.2857    0.2857
  band No.  band energies     occupation 
      1     -48.7749      1.00000
      2     -48.6718      1.00000
      3     -23.2498      1.00000
      4     -23.2225      1.00000
      5     -23.2186      1.00000
      6     -22.4937      1.00000
      7     -22.4891      1.00000
      8     -22.4552      1.00000
      9       8.8062      1.00000
     10       8.9665      1.00000
     11       9.4126      1.00000
     12       9.4137      1.00000
     13       9.6715      1.00000
     14       9.6728      1.00003
     15      14.1325      0.00000
     16      14.1379      0.00000
     17      14.4388      0.00000
     18      14.4428      0.00000
     19      16.6990      0.00000
     20      22.4286      0.00000
     21      22.7308      0.00000
     22      22.7327      0.00000
     23      27.0803      0.00000
     24      27.0816      0.00000
     25      28.1661      0.00000
     26      30.7285      0.00000
     27      31.7711      0.00000
     28      32.4431      0.00000
     29      32.4487      0.00000
     30      38.3629      0.00000
     31      40.6997      0.00000
     32      40.7098      0.00000
     33      42.4181      0.00000
     34      42.8917      0.00000
     35      42.8920      0.00000
     36      44.2713      0.00000
     37      44.2834      0.00000
     38      45.7480      0.00000
     39      48.5599      0.00000
     40      50.8883      0.00000
     41      50.9018      0.00000
     42      53.1268      0.00000
     43      53.1327      0.00000
     44      55.7284      0.00000
     45      56.0911      0.00000
     46      56.1068      0.00000
     47      57.9620      0.00000
     48      58.8068      0.00000
     49      58.8262      0.00000
     50      60.3775      0.00000
     51      61.7632      0.00000
     52      61.7726      0.00000
     53      65.7031      0.00000
     54      66.0349      0.00000
     55      66.0399      0.00000
     56      66.1965      0.00000
     57      66.9311      0.00000
     58      70.6501      0.00000
     59      71.2322      0.00000
     60      71.2324      0.00000
     61      71.5527      0.00000
     62      75.2242      0.00000
     63      75.2251      0.00000
     64      77.2872      0.00000

 k-point    18 :       0.4286    0.2857    0.2857
  band No.  band energies     occupation 
      1     -48.7352      1.00000
      2     -48.6983      1.00000
      3     -23.3407      1.00000
      4     -23.3395      1.00000
      5     -22.9843      1.00000
      6     -22.7239      1.00000
      7     -22.4496      1.00000
      8     -22.4267      1.00000
      9       8.5033      1.00000
     10       8.5719      1.00000
     11       9.3969      1.00000
     12       9.5425      1.00000
     13      10.2929      1.00000
     14      10.5928      1.00000
     15      13.9450      0.00000
     16      13.9733      0.00000
     17      14.6019      0.00000
     18      14.7310      0.00000
     19      18.3335      0.00000
     20      20.2429      0.00000
     21      23.0337      0.00000
     22      24.6405      0.00000
     23      24.7726      0.00000
     24      26.0626      0.00000
     25      27.6835      0.00000
     26      29.1021      0.00000
     27      32.4086      0.00000
     28      32.9390      0.00000
     29      34.8129      0.00000
     30      36.9779      0.00000
     31      39.8886      0.00000
     32      41.1587      0.00000
     33      41.3663      0.00000
     34      41.9985      0.00000
     35      44.6458      0.00000
     36      44.9908      0.00000
     37      46.2073      0.00000
     38      47.5244      0.00000
     39      47.7433      0.00000
     40      48.2267      0.00000
     41      48.8936      0.00000
     42      50.5702      0.00000
     43      52.7780      0.00000
     44      54.9859      0.00000
     45      57.9497      0.00000
     46      58.2735      0.00000
     47      58.3600      0.00000
     48      59.2760      0.00000
     49      59.6213      0.00000
     50      60.1423      0.00000
     51      60.8337      0.00000
     52      61.6217      0.00000
     53      64.4655      0.00000
     54      66.5174      0.00000
     55      67.0589      0.00000
     56      68.0116      0.00000
     57      68.3902      0.00000
     58      69.0549      0.00000
     59      70.5324      0.00000
     60      72.8255      0.00000
     61      74.2372      0.00000
     62      75.2409      0.00000
     63      76.3329      0.00000
     64      76.5592      0.00000

 k-point    19 :       0.4286    0.4286    0.2857
  band No.  band energies     occupation 
      1     -48.7167      1.00000
      2     -48.7036      1.00000
      3     -23.3547      1.00000
      4     -23.3370      1.00000
      5     -22.9271      1.00000
      6     -22.7817      1.00000
      7     -22.5253      1.00000
      8     -22.4817      1.00000
      9       8.4641      1.00000
     10       8.6657      1.00000
     11       9.1001      1.00000
     12       9.3643      1.00000
     13      10.9767      1.00000
     14      11.1026      1.00000
     15      14.2869      0.00000
     16      14.3478      0.00000
     17      14.6099      0.00000
     18      14.6937      0.00000
     19      19.7572      0.00000
     20      20.7204      0.00000
     21      22.4020      0.00000
     22      23.3175      0.00000
     23      24.4937      0.00000
     24      25.4711      0.00000
     25      26.3231      0.00000
     26      27.3407      0.00000
     27      34.0540      0.00000
     28      34.6638      0.00000
     29      35.2271      0.00000
     30      36.7897      0.00000
     31      39.6459      0.00000
     32      39.9545      0.00000
     33      40.3205      0.00000
     34      40.5678      0.00000
     35      44.3245      0.00000
     36      45.1638      0.00000
     37      45.8596      0.00000
     38      46.4673      0.00000
     39      48.7023      0.00000
     40      49.6561      0.00000
     41      50.5273      0.00000
     42      51.8669      0.00000
     43      52.6087      0.00000
     44      54.5544      0.00000
     45      55.6526      0.00000
     46      56.4593      0.00000
     47      57.5142      0.00000
     48      59.0425      0.00000
     49      60.0777      0.00000
     50      63.2151      0.00000
     51      63.7230      0.00000
     52      63.9480      0.00000
     53      64.9859      0.00000
     54      65.5399      0.00000
     55      66.8635      0.00000
     56      67.0487      0.00000
     57      69.4281      0.00000
     58      70.2559      0.00000
     59      70.5283      0.00000
     60      70.6088      0.00000
     61      73.2909      0.00000
     62      74.3786      0.00000
     63      74.7778      0.00000
     64      75.8891      0.00000

 k-point    20 :       0.4286    0.4286    0.4286
  band No.  band energies     occupation 
      1     -48.7060      1.00000
      2     -48.7013      1.00000
      3     -23.2012      1.00000
      4     -23.0768      1.00000
      5     -23.0724      1.00000
      6     -22.7870      1.00000
      7     -22.7823      1.00000
      8     -22.6511      1.00000
      9       8.9505      1.00000
     10       9.4033      1.00000
     11       9.4047      1.00000
     12      10.0838      1.00000
     13      10.0868      1.00000
     14      10.2103      1.00000
     15      14.6360      0.00000
     16      14.6376      0.00000
     17      14.6392      0.00000
     18      14.6415      0.00000
     19      21.3677      0.00000
     20      21.9343      0.00000
     21      22.7788      0.00000
     22      22.9138      0.00000
     23      22.9155      0.00000
     24      24.7334      0.00000
     25      24.7386      0.00000
     26      25.9099      0.00000
     27      35.1587      0.00000
     28      36.0158      0.00000
     29      36.0243      0.00000
     30      38.5318      0.00000
     31      39.0313      0.00000
     32      39.0339      0.00000
     33      40.5643      0.00000
     34      40.5708      0.00000
     35      41.2390      0.00000
     36      42.3237      0.00000
     37      42.7740      0.00000
     38      42.7808      0.00000
     39      52.5921      0.00000
     40      52.5993      0.00000
     41      52.8200      0.00000
     42      53.4591      0.00000
     43      55.3222      0.00000
     44      55.3228      0.00000
     45      56.5786      0.00000
     46      58.5801      0.00000
     47      58.5887      0.00000
     48      59.5893      0.00000
     49      59.5932      0.00000
     50      60.3967      0.00000
     51      62.4244      0.00000
     52      62.6366      0.00000
     53      62.6369      0.00000
     54      63.3753      0.00000
     55      66.0866      0.00000
     56      66.0986      0.00000
     57      70.2020      0.00000
     58      72.1560      0.00000
     59      72.1693      0.00000
     60      72.3028      0.00000
     61      72.3163      0.00000
     62      74.3138      0.00000
     63      74.3172      0.00000
     64      77.2094      0.00000
 Fermi energy:        12.3546543995

 spin component 2

 k-point     1 :       0.0000    0.0000    0.0000
  band No.  band energies     occupation 
      1     -48.9681      1.00000
      2     -48.5450      1.00000
      3     -23.1883      1.00000
      4     -23.1883      1.00000
      5     -23.1835      1.00000
      6     -22.2695      1.00000
      7     -22.2695      1.00000
      8     -22.2631      1.00000
      9       5.1596      1.00000
     10       7.0149      1.00000
     11       7.0185      1.00000
     12      10.9917      1.00000
     13      10.9917      1.00000
     14      10.9938      1.00076
     15      13.9544      0.00000
     16      13.9672      0.00000
     17      16.2089      0.00000
     18      16.2148      0.00000
     19      16.2148      0.00000
     20      21.2767      0.00000
     21      21.2890      0.00000
     22      21.2890      0.00000
     23      27.1463      0.00000
     24      27.1571      0.00000
     25      27.1571      0.00000
     26      31.7513      0.00000
     27      32.8354      0.00000
     28      32.8412      0.00000
     29      35.6625      0.00000
     30      38.4910      0.00000
     31      38.4971      0.00000
     32      41.8879      0.00000
     33      41.9137      0.00000
     34      41.9137      0.00000
     35      48.1784      0.00000
     36      48.1784      0.00000
     37      48.1892      0.00000
     38      48.8848      0.00000
     39      48.9000      0.00000
     40      48.9000      0.00000
     41      52.2422      0.00000
     42      54.4492      0.00000
     43      54.4492      0.00000
     44      54.4710      0.00000
     45      57.0393      0.00000
     46      57.0393      0.00000
     47      57.0403      0.00000
     48      58.5787      0.00000
     49      58.5897      0.00000
     50      58.5897      0.00000
     51      60.9140      0.00000
     52      64.4147      0.00000
     53      64.9615      0.00000
     54      64.9615      0.00000
     55      64.9718      0.00000
     56      69.1909      0.00000
     57      69.1909      0.00000
     58      69.2172      0.00000
     59      70.5956      0.00000
     60      70.6240      0.00000
     61      73.2921      0.00000
     62      73.3193      0.00000
     63      74.5571      0.00000
     64      74.5964      0.00000

 k-point     2 :       0.1429    0.0000    0.0000
  band No.  band energies     occupation 
      1     -48.9442      1.00000
      2     -48.5628      1.00000
      3     -23.1897      1.00000
      4     -23.1414      1.00000
      5     -23.1365      1.00000
      6     -22.3651      1.00000
      7     -22.3132      1.00000
      8     -22.3069      1.00000
      9       5.5979      1.00000
     10       7.2523      1.00000
     11       7.3871      1.00000
     12      10.9699      1.00000
     13      10.9720      1.00000
     14      11.1857      1.00077
     15      13.4020     -0.01402
     16      14.1580      0.00000
     17      15.1572      0.00000
     18      15.1600      0.00000
     19      15.8498      0.00000
     20      20.1498      0.00000
     21      22.8205      0.00000
     22      22.8300      0.00000
     23      27.6152      0.00000
     24      27.8796      0.00000
     25      27.8905      0.00000
     26      31.4573      0.00000
     27      32.5971      0.00000
     28      33.6847      0.00000
     29      34.8504      0.00000
     30      36.2659      0.00000
     31      39.3074      0.00000
     32      41.2673      0.00000
     33      41.2886      0.00000
     34      44.5983      0.00000
     35      47.1753      0.00000
     36      47.1905      0.00000
     37      47.3113      0.00000
     38      47.4387      0.00000
     39      47.4578      0.00000
     40      49.1766      0.00000
     41      52.2900      0.00000
     42      52.2982      0.00000
     43      53.3380      0.00000
     44      55.0050      0.00000
     45      56.7446      0.00000
     46      58.1822      0.00000
     47      59.6600      0.00000
     48      59.6609      0.00000
     49      60.6530      0.00000
     50      60.6623      0.00000
     51      61.9373      0.00000
     52      63.3420      0.00000
     53      63.3561      0.00000
     54      64.5241      0.00000
     55      65.1930      0.00000
     56      66.5729      0.00000
     57      69.4916      0.00000
     58      70.0650      0.00000
     59      70.5495      0.00000
     60      71.0209      0.00000
     61      71.0391      0.00000
     62      72.7348      0.00000
     63      73.2147      0.00000
     64      73.2234      0.00000

 k-point     3 :       0.2857    0.0000    0.0000
  band No.  band energies     occupation 
      1     -48.8787      1.00000
      2     -48.6144      1.00000
      3     -23.1679      1.00000
      4     -23.0107      1.00000
      5     -23.0056      1.00000
      6     -22.6020      1.00000
      7     -22.4369      1.00000
      8     -22.4309      1.00000
      9       6.7589      1.00000
     10       7.9444      1.00000
     11       8.2530      1.00000
     12      11.0218      1.00000
     13      11.0236      1.00000
     14      11.7527      1.00292
     15      12.0554      0.56577
     16      13.5037     -0.02567
     17      13.5043      0.00000
     18      14.6747      0.00000
     19      14.9203      0.00000
     20      17.9845      0.00000
     21      25.8920      0.00000
     22      25.9000      0.00000
     23      28.6653      0.00000
     24      29.2742      0.00000
     25      29.8012      0.00000
     26      29.8125      0.00000
     27      30.5638      0.00000
     28      31.9344      0.00000
     29      37.3676      0.00000
     30      37.8896      0.00000
     31      39.0481      0.00000
     32      39.0610      0.00000
     33      41.7061      0.00000
     34      43.5907      0.00000
     35      43.6080      0.00000
     36      45.2323      0.00000
     37      46.5787      0.00000
     38      46.5857      0.00000
     39      46.6007      0.00000
     40      49.4052      0.00000
     41      50.4062      0.00000
     42      50.4165      0.00000
     43      51.8070      0.00000
     44      54.6482      0.00000
     45      56.6667      0.00000
     46      61.4262      0.00000
     47      61.4381      0.00000
     48      61.4651      0.00000
     49      61.6865      0.00000
     50      63.0063      0.00000
     51      63.6401      0.00000
     52      63.6646      0.00000
     53      64.4098      0.00000
     54      64.4114      0.00000
     55      65.5910      0.00000
     56      66.8401      0.00000
     57      67.3305      0.00000
     58      68.1466      0.00000
     59      69.2494      0.00000
     60      69.2518      0.00000
     61      70.3928      0.00000
     62      74.0129      0.00000
     63      74.0409      0.00000
     64      74.1637      0.00000

 k-point     4 :       0.4286    0.0000    0.0000
  band No.  band energies     occupation 
      1     -48.7882      1.00000
      2     -48.6938      1.00000
      3     -23.0701      1.00000
      4     -22.8695      1.00000
      5     -22.8234      1.00000
      6     -22.8180      1.00000
      7     -22.6185      1.00000
      8     -22.6128      1.00000
      9       8.1360      1.00000
     10       8.7932      1.00000
     11       9.0521      1.00000
     12      10.4842      1.00000
     13      11.3736      1.00000
     14      11.3750      1.00000
     15      12.1882      0.85875
     16      12.1889      0.53300
     17      12.6433      0.00000
     18      13.7582      0.00000
     19      15.3039      0.00000
     20      16.2161      0.00000
     21      27.6151      0.00000
     22      27.8977      0.00000
     23      29.2878      0.00000
     24      29.2963      0.00000
     25      29.8531      0.00000
     26      30.9776      0.00000
     27      31.3701      0.00000
     28      31.3810      0.00000
     29      37.0942      0.00000
     30      37.1046      0.00000
     31      39.3852      0.00000
     32      39.3988      0.00000
     33      40.1502      0.00000
     34      41.9621      0.00000
     35      42.6990      0.00000
     36      45.4709      0.00000
     37      46.4464      0.00000
     38      47.3153      0.00000
     39      47.3375      0.00000
     40      48.6881      0.00000
     41      48.7357      0.00000
     42      48.7533      0.00000
     43      49.0907      0.00000
     44      50.1437      0.00000
     45      59.3752      0.00000
     46      61.5639      0.00000
     47      62.3615      0.00000
     48      62.3667      0.00000
     49      62.4974      0.00000
     50      62.8304      0.00000
     51      63.0306      0.00000
     52      64.3806      0.00000
     53      64.3886      0.00000
     54      64.7436      0.00000
     55      66.0803      0.00000
     56      66.0888      0.00000
     57      67.9311      0.00000
     58      67.9385      0.00000
     59      71.2623      0.00000
     60      71.8917      0.00000
     61      73.9793      0.00000
     62      74.4196      0.00000
     63      74.6334      0.00000
     64      74.6429      0.00000

 k-point     5 :       0.1429    0.1429    0.0000
  band No.  band energies     occupation 
      1     -48.9222      1.00000
      2     -48.5783      1.00000
      3     -23.2680      1.00000
      4     -23.0934      1.00000
      5     -23.0246      1.00000
      6     -22.5341      1.00000
      7     -22.3456      1.00000
      8     -22.2714      1.00000
      9       5.9899      1.00000
     10       7.5131      1.00000
     11       7.7070      1.00000
     12      10.5407      1.00000
     13      10.8708      1.00000
     14      11.8058      1.00374
     15      13.4769     -0.01911
     16      13.8802      0.00000
     17      13.9829      0.00000
     18      14.2586      0.00000
     19      16.3468      0.00000
     20      20.9044      0.00000
     21      22.1358      0.00000
     22      23.6858      0.00000
     23      27.6180      0.00000
     24      28.4599      0.00000
     25      28.5872      0.00000
     26      31.5954      0.00000
     27      32.0870      0.00000
     28      34.5492      0.00000
     29      34.9010      0.00000
     30      36.6358      0.00000
     31      36.8294      0.00000
     32      40.2369      0.00000
     33      41.7467      0.00000
     34      45.5360      0.00000
     35      45.5502      0.00000
     36      46.0405      0.00000
     37      47.0699      0.00000
     38      47.4048      0.00000
     39      47.9796      0.00000
     40      50.5373      0.00000
     41      51.2744      0.00000
     42      51.3040      0.00000
     43      54.8106      0.00000
     44      55.4867      0.00000
     45      56.0009      0.00000
     46      58.2562      0.00000
     47      59.2967      0.00000
     48      60.6687      0.00000
     49      60.7101      0.00000
     50      60.8107      0.00000
     51      60.8299      0.00000
     52      62.9403      0.00000
     53      63.8298      0.00000
     54      66.3306      0.00000
     55      66.4093      0.00000
     56      66.8385      0.00000
     57      67.5639      0.00000
     58      67.9854      0.00000
     59      68.0702      0.00000
     60      69.9665      0.00000
     61      70.4380      0.00000
     62      72.2194      0.00000
     63      73.5898      0.00000
     64      74.9140      0.00000

 k-point     6 :       0.2857    0.1429    0.0000
  band No.  band energies     occupation 
      1     -48.8622      1.00000
      2     -48.6238      1.00000
      3     -23.3076      1.00000
      4     -22.9737      1.00000
      5     -22.8530      1.00000
      6     -22.8066      1.00000
      7     -22.4555      1.00000
      8     -22.3279      1.00000
      9       6.9770      1.00000
     10       8.0695      1.00000
     11       8.5884      1.00000
     12      10.3012      1.00000
     13      10.7433      1.00000
     14      12.3278      0.99672
     15      12.6932     -0.02081
     16      12.7560     -0.00617
     17      12.9695      0.00000
     18      14.4728      0.00000
     19      15.9427      0.00000
     20      18.8251      0.00000
     21      24.3011      0.00000
     22      26.0369      0.00000
     23      27.8719      0.00000
     24      28.8122      0.00000
     25      29.7965      0.00000
     26      30.4574      0.00000
     27      31.7212      0.00000
     28      32.7531      0.00000
     29      37.2818      0.00000
     30      37.6257      0.00000
     31      37.9073      0.00000
     32      38.1794      0.00000
     33      40.9871      0.00000
     34      42.8540      0.00000
     35      44.3263      0.00000
     36      45.0001      0.00000
     37      45.6665      0.00000
     38      47.0980      0.00000
     39      48.9671      0.00000
     40      49.4093      0.00000
     41      50.3967      0.00000
     42      52.4127      0.00000
     43      54.0678      0.00000
     44      54.6347      0.00000
     45      54.8273      0.00000
     46      57.1375      0.00000
     47      60.3836      0.00000
     48      60.7988      0.00000
     49      61.7893      0.00000
     50      62.3612      0.00000
     51      63.2969      0.00000
     52      63.7107      0.00000
     53      64.3530      0.00000
     54      64.5351      0.00000
     55      65.5521      0.00000
     56      66.1701      0.00000
     57      66.1881      0.00000
     58      68.1011      0.00000
     59      69.7211      0.00000
     60      69.9899      0.00000
     61      71.7138      0.00000
     62      71.7144      0.00000
     63      72.8421      0.00000
     64      77.2010      0.00000

 k-point     7 :       0.4286    0.1429    0.0000
  band No.  band energies     occupation 
      1     -48.7798      1.00000
      2     -48.6946      1.00000
      3     -23.2496      1.00000
      4     -23.0724      1.00000
      5     -22.8032      1.00000
      6     -22.6584      1.00000
      7     -22.6181      1.00000
      8     -22.4703      1.00000
      9       8.0350      1.00000
     10       8.5230      1.00000
     11       9.4438      1.00000
     12      10.3328      1.00000
     13      10.4730      1.00000
     14      11.1477      1.00000
     15      12.3177      0.29870
     16      12.4151      0.04496
     17      13.7546      0.00000
     18      14.9144      0.00000
     19      15.2216      0.00000
     20      16.5728      0.00000
     21      26.0877      0.00000
     22      26.8790      0.00000
     23      28.8470      0.00000
     24      28.8990      0.00000
     25      29.1344      0.00000
     26      31.6336      0.00000
     27      31.6632      0.00000
     28      32.6461      0.00000
     29      36.0012      0.00000
     30      37.1880      0.00000
     31      38.2388      0.00000
     32      39.5428      0.00000
     33      41.7452      0.00000
     34      42.1665      0.00000
     35      42.2772      0.00000
     36      43.9949      0.00000
     37      46.5045      0.00000
     38      47.0202      0.00000
     39      47.3884      0.00000
     40      48.5449      0.00000
     41      49.7550      0.00000
     42      50.5086      0.00000
     43      52.3789      0.00000
     44      53.4457      0.00000
     45      56.1178      0.00000
     46      57.0541      0.00000
     47      58.5353      0.00000
     48      59.2049      0.00000
     49      60.7627      0.00000
     50      62.1514      0.00000
     51      63.9802      0.00000
     52      65.8418      0.00000
     53      65.8425      0.00000
     54      66.0189      0.00000
     55      66.6506      0.00000
     56      67.5232      0.00000
     57      69.0769      0.00000
     58      69.9160      0.00000
     59      70.8776      0.00000
     60      71.8558      0.00000
     61      72.6864      0.00000
     62      72.7192      0.00000
     63      75.2555      0.00000
     64      76.3031      0.00000

 k-point     8 :       0.2857    0.2857    0.0000
  band No.  band energies     occupation 
      1     -48.8176      1.00000
      2     -48.6525      1.00000
      3     -23.4433      1.00000
      4     -23.1033      1.00000
      5     -22.8861      1.00000
      6     -22.6452      1.00000
      7     -22.5269      1.00000
      8     -22.2759      1.00000
      9       7.3227      1.00000
     10       8.0512      1.00000
     11       9.6602      1.00000
     12       9.6726      1.00000
     13      10.9182      1.00106
     14      11.0221      1.01059
     15      12.4900      0.00080
     16      13.5636      0.00000
     17      13.9978      0.00000
     18      14.1877      0.00000
     19      16.6557      0.00000
     20      19.1292      0.00000
     21      23.0649      0.00000
     22      26.5634      0.00000
     23      26.8998      0.00000
     24      27.6620      0.00000
     25      28.4547      0.00000
     26      32.1001      0.00000
     27      32.2843      0.00000
     28      34.8468      0.00000
     29      35.0743      0.00000
     30      36.7301      0.00000
     31      38.4725      0.00000
     32      38.7027      0.00000
     33      39.6528      0.00000
     34      41.9229      0.00000
     35      45.9760      0.00000
     36      46.0479      0.00000
     37      46.3825      0.00000
     38      46.7751      0.00000
     39      47.1666      0.00000
     40      49.2231      0.00000
     41      50.1812      0.00000
     42      53.0982      0.00000
     43      53.9615      0.00000
     44      54.0911      0.00000
     45      54.9363      0.00000
     46      58.9677      0.00000
     47      59.0291      0.00000
     48      59.9925      0.00000
     49      61.1962      0.00000
     50      61.2762      0.00000
     51      61.3740      0.00000
     52      61.5348      0.00000
     53      62.9479      0.00000
     54      64.3608      0.00000
     55      65.3627      0.00000
     56      65.3866      0.00000
     57      66.9915      0.00000
     58      67.5431      0.00000
     59      69.1715      0.00000
     60      71.8742      0.00000
     61      75.5008      0.00000
     62      76.1953      0.00000
     63      76.4021      0.00000
     64      76.9005      0.00000

 k-point     9 :       0.4286    0.2857    0.0000
  band No.  band energies     occupation 
      1     -48.7582      1.00000
      2     -48.6991      1.00000
      3     -23.4678      1.00000
      4     -23.3479      1.00000
      5     -22.7641      1.00000
      6     -22.6358      1.00000
      7     -22.4607      1.00000
      8     -22.3278      1.00000
      9       7.5402      1.00000
     10       7.8065      1.00000
     11       9.5274      1.00000
     12       9.9453      1.00000
     13      10.8113      1.01907
     14      11.4492      1.01122
     15      12.9503     -0.00593
     16      13.5165      0.00000
     17      14.9321      0.00000
     18      15.2766      0.00000
     19      16.3053      0.00000
     20      16.9493      0.00000
     21      24.2263      0.00000
     22      25.4332      0.00000
     23      26.4689      0.00000
     24      26.7812      0.00000
     25      28.8839      0.00000
     26      31.6132      0.00000
     27      32.9834      0.00000
     28      34.7372      0.00000
     29      35.2519      0.00000
     30      37.8488      0.00000
     31      37.9565      0.00000
     32      39.2811      0.00000
     33      39.6263      0.00000
     34      41.6735      0.00000
     35      44.7364      0.00000
     36      45.6783      0.00000
     37      47.3824      0.00000
     38      47.4951      0.00000
     39      47.7100      0.00000
     40      48.3469      0.00000
     41      50.9213      0.00000
     42      50.9961      0.00000
     43      52.5035      0.00000
     44      53.5870      0.00000
     45      53.7781      0.00000
     46      56.8362      0.00000
     47      58.7831      0.00000
     48      58.8298      0.00000
     49      61.0894      0.00000
     50      61.0980      0.00000
     51      61.5582      0.00000
     52      62.9902      0.00000
     53      63.8473      0.00000
     54      64.3934      0.00000
     55      64.9270      0.00000
     56      67.2652      0.00000
     57      68.8424      0.00000
     58      71.1726      0.00000
     59      71.5880      0.00000
     60      71.7202      0.00000
     61      73.3688      0.00000
     62      74.7922      0.00000
     63      75.1689      0.00000
     64      76.7050      0.00000

 k-point    10 :       0.4286    0.4286    0.0000
  band No.  band energies     occupation 
      1     -48.7323      1.00000
      2     -48.7112      1.00000
      3     -23.5802      1.00000
      4     -23.5380      1.00000
      5     -22.7143      1.00000
      6     -22.6684      1.00000
      7     -22.3277      1.00000
      8     -22.2797      1.00000
      9       7.1852      1.00000
     10       7.2780      1.00000
     11       9.0788      1.00000
     12       9.2196      1.00000
     13      12.5450      0.66486
     14      13.1974      0.15076
     15      13.6171      0.00000
     16      14.0723      0.00000
     17      14.5265      0.00000
     18      16.0113      0.00000
     19      16.4783      0.00000
     20      16.9170      0.00000
     21      23.6322      0.00000
     22      24.3862      0.00000
     23      24.5833      0.00000
     24      24.9406      0.00000
     25      29.1365      0.00000
     26      30.2481      0.00000
     27      33.9536      0.00000
     28      34.9757      0.00000
     29      36.6635      0.00000
     30      37.9589      0.00000
     31      38.9153      0.00000
     32      39.4156      0.00000
     33      39.8967      0.00000
     34      42.9469      0.00000
     35      44.3657      0.00000
     36      44.7132      0.00000
     37      45.1431      0.00000
     38      46.8291      0.00000
     39      47.8540      0.00000
     40      47.9211      0.00000
     41      51.3304      0.00000
     42      52.7612      0.00000
     43      53.5870      0.00000
     44      54.1845      0.00000
     45      56.2704      0.00000
     46      56.3796      0.00000
     47      56.6301      0.00000
     48      57.7992      0.00000
     49      60.4513      0.00000
     50      60.8727      0.00000
     51      61.2620      0.00000
     52      61.8909      0.00000
     53      62.1660      0.00000
     54      63.5355      0.00000
     55      66.1771      0.00000
     56      66.3815      0.00000
     57      66.4027      0.00000
     58      66.7070      0.00000
     59      73.9571      0.00000
     60      73.9609      0.00000
     61      77.4544      0.00000
     62      77.6746      0.00000
     63      77.8930      0.00000
     64      79.2597      0.00000

 k-point    11 :       0.1429    0.1429    0.1429
  band No.  band energies     occupation 
      1     -48.9020      1.00000
      2     -48.5919      1.00000
      3     -23.2176      1.00000
      4     -23.2142      1.00000
      5     -22.8832      1.00000
      6     -22.6684      1.00000
      7     -22.3193      1.00000
      8     -22.3149      1.00000
      9       6.3679      1.00000
     10       7.8919      1.00000
     11       7.8954      1.00000
     12      10.4235      1.00000
     13      10.4253      1.00000
     14      12.4011      0.98461
     15      12.4805      0.01759
     16      13.7260      0.00000
     17      13.7362      0.00000
     18      15.3240      0.00000
     19      15.3297      0.00000
     20      22.3543      0.00000
     21      22.3600      0.00000
     22      22.5779      0.00000
     23      28.0492      0.00000
     24      28.6298      0.00000
     25      28.6325      0.00000
     26      31.9108      0.00000
     27      31.9154      0.00000
     28      34.5979      0.00000
     29      36.0839      0.00000
     30      36.0855      0.00000
     31      36.6329      0.00000
     32      37.6820      0.00000
     33      42.9155      0.00000
     34      43.7864      0.00000
     35      44.9315      0.00000
     36      44.9330      0.00000
     37      48.7195      0.00000
     38      48.7263      0.00000
     39      49.0226      0.00000
     40      49.0346      0.00000
     41      51.4562      0.00000
     42      51.4637      0.00000
     43      54.9875      0.00000
     44      55.2281      0.00000
     45      56.2159      0.00000
     46      58.3975      0.00000
     47      58.4131      0.00000
     48      60.2168      0.00000
     49      60.2247      0.00000
     50      60.5340      0.00000
     51      62.9428      0.00000
     52      62.9644      0.00000
     53      63.8344      0.00000
     54      63.8715      0.00000
     55      64.1009      0.00000
     56      64.1188      0.00000
     57      67.8165      0.00000
     58      70.6449      0.00000
     59      70.6642      0.00000
     60      71.5000      0.00000
     61      71.5183      0.00000
     62      73.7243      0.00000
     63      73.7343      0.00000
     64      74.1821      0.00000

 k-point    12 :       0.2857    0.1429    0.1429
  band No.  band energies     occupation 
      1     -48.8469      1.00000
      2     -48.6320      1.00000
      3     -23.3089      1.00000
      4     -23.0740      1.00000
      5     -22.9208      1.00000
      6     -22.7108      1.00000
      7     -22.4513      1.00000
      8     -22.3309      1.00000
      9       7.2775      1.00000
     10       8.4147      1.00000
     11       8.7122      1.00000
     12      10.1620      1.00000
     13      10.1745      1.00000
     14      11.1043      1.00307
     15      13.0947     -0.02674
     16      13.5779     -0.00657
     17      13.8091      0.00000
     18      14.3536      0.00000
     19      15.4391      0.00000
     20      19.9072      0.00000
     21      23.8597      0.00000
     22      25.0755      0.00000
     23      28.1107      0.00000
     24      28.2726      0.00000
     25      29.9528      0.00000
     26      30.6496      0.00000
     27      31.5350      0.00000
     28      34.0972      0.00000
     29      34.8583      0.00000
     30      36.3445      0.00000
     31      38.8070      0.00000
     32      39.9036      0.00000
     33      41.7421      0.00000
     34      41.8097      0.00000
     35      42.3055      0.00000
     36      44.8431      0.00000
     37      45.5086      0.00000
     38      48.6328      0.00000
     39      50.0442      0.00000
     40      50.2281      0.00000
     41      51.3964      0.00000
     42      52.8530      0.00000
     43      53.3921      0.00000
     44      54.0694      0.00000
     45      55.6431      0.00000
     46      58.3869      0.00000
     47      58.5793      0.00000
     48      58.8021      0.00000
     49      59.7752      0.00000
     50      60.9461      0.00000
     51      61.2762      0.00000
     52      63.3435      0.00000
     53      63.8878      0.00000
     54      64.0354      0.00000
     55      66.1778      0.00000
     56      67.2614      0.00000
     57      68.2341      0.00000
     58      68.5704      0.00000
     59      70.5103      0.00000
     60      71.0251      0.00000
     61      72.9239      0.00000
     62      73.4237      0.00000
     63      74.3099      0.00000
     64      75.8166      0.00000

 k-point    13 :       0.4286    0.1429    0.1429
  band No.  band energies     occupation 
      1     -48.7718      1.00000
      2     -48.6951      1.00000
      3     -23.2972      1.00000
      4     -23.1578      1.00000
      5     -22.8715      1.00000
      6     -22.6491      1.00000
      7     -22.5481      1.00000
      8     -22.4141      1.00000
      9       8.1573      1.00000
     10       8.7917      1.00000
     11       9.1373      1.00000
     12       9.7802      1.00000
     13      10.5588      1.00000
     14      10.8327      1.00000
     15      12.5706     -0.01786
     16      12.7845     -0.01889
     17      14.4748      0.00000
     18      14.8794      0.00000
     19      15.4116      0.00000
     20      17.4069      0.00000
     21      25.3305      0.00000
     22      26.4476      0.00000
     23      27.4919      0.00000
     24      28.3158      0.00000
     25      30.2212      0.00000
     26      31.4265      0.00000
     27      31.4739      0.00000
     28      32.0920      0.00000
     29      35.4400      0.00000
     30      37.0151      0.00000
     31      39.0407      0.00000
     32      40.8458      0.00000
     33      42.0004      0.00000
     34      42.1451      0.00000
     35      42.2129      0.00000
     36      43.4295      0.00000
     37      43.7383      0.00000
     38      47.2898      0.00000
     39      48.5259      0.00000
     40      51.3676      0.00000
     41      51.4217      0.00000
     42      52.4935      0.00000
     43      52.8833      0.00000
     44      53.1110      0.00000
     45      54.0352      0.00000
     46      55.3500      0.00000
     47      57.7208      0.00000
     48      58.7413      0.00000
     49      60.4856      0.00000
     50      60.5809      0.00000
     51      62.1815      0.00000
     52      62.9451      0.00000
     53      65.6882      0.00000
     54      65.7589      0.00000
     55      68.8974      0.00000
     56      70.2359      0.00000
     57      70.2397      0.00000
     58      70.9840      0.00000
     59      71.5327      0.00000
     60      71.6164      0.00000
     61      72.1121      0.00000
     62      73.2575      0.00000
     63      74.8153      0.00000
     64      75.1000      0.00000

 k-point    14 :       0.2857    0.2857    0.1429
  band No.  band energies     occupation 
      1     -48.8059      1.00000
      2     -48.6570      1.00000
      3     -23.3852      1.00000
      4     -23.1463      1.00000
      5     -23.0245      1.00000
      6     -22.5499      1.00000
      7     -22.5188      1.00000
      8     -22.3331      1.00000
      9       7.7632      1.00000
     10       8.4762      1.00000
     11       9.5727      1.00000
     12       9.6798      1.00000
     13      10.0636      1.00091
     14      10.3188      1.00708
     15      13.4267     -0.00074
     16      13.6775      0.00000
     17      14.1948      0.00000
     18      15.0137      0.00000
     19      15.6088      0.00000
     20      20.5431      0.00000
     21      22.7645      0.00000
     22      25.2283      0.00000
     23      26.9600      0.00000
     24      27.5383      0.00000
     25      29.9954      0.00000
     26      30.9298      0.00000
     27      31.7457      0.00000
     28      32.1648      0.00000
     29      35.5760      0.00000
     30      37.3847      0.00000
     31      38.1439      0.00000
     32      40.1719      0.00000
     33      41.4447      0.00000
     34      42.2640      0.00000
     35      42.7742      0.00000
     36      45.3044      0.00000
     37      45.7707      0.00000
     38      45.9783      0.00000
     39      50.3358      0.00000
     40      51.1302      0.00000
     41      51.2047      0.00000
     42      52.8390      0.00000
     43      53.0348      0.00000
     44      54.4840      0.00000
     45      56.3501      0.00000
     46      56.5810      0.00000
     47      57.1227      0.00000
     48      58.7856      0.00000
     49      59.5113      0.00000
     50      60.8023      0.00000
     51      60.9639      0.00000
     52      62.1825      0.00000
     53      63.3174      0.00000
     54      64.8528      0.00000
     55      65.5901      0.00000
     56      67.9990      0.00000
     57      68.0203      0.00000
     58      69.4461      0.00000
     59      70.9644      0.00000
     60      72.2961      0.00000
     61      72.9567      0.00000
     62      73.5759      0.00000
     63      74.4297      0.00000
     64      76.0879      0.00000

 k-point    15 :       0.4286    0.2857    0.1429
  band No.  band energies     occupation 
      1     -48.7516      1.00000
      2     -48.6984      1.00000
      3     -23.4255      1.00000
      4     -23.3412      1.00000
      5     -22.8581      1.00000
      6     -22.6710      1.00000
      7     -22.4304      1.00000
      8     -22.3589      1.00000
      9       7.9211      1.00000
     10       8.1521      1.00000
     11       9.4137      1.00000
     12       9.5680      1.00000
     13      10.8197      1.00930
     14      10.9853      1.01669
     15      13.3047     -0.00352
     16      13.5195      0.00000
     17      14.6741      0.00000
     18      15.2505      0.00000
     19      16.5454      0.00000
     20      18.5076      0.00000
     21      23.8367      0.00000
     22      25.3652      0.00000
     23      26.1118      0.00000
     24      26.4783      0.00000
     25      29.2095      0.00000
     26      30.1398      0.00000
     27      32.8294      0.00000
     28      32.8569      0.00000
     29      35.9978      0.00000
     30      36.4772      0.00000
     31      39.0788      0.00000
     32      40.4725      0.00000
     33      40.6236      0.00000
     34      42.8554      0.00000
     35      43.9287      0.00000
     36      44.3504      0.00000
     37      45.2141      0.00000
     38      47.7682      0.00000
     39      48.9198      0.00000
     40      50.1751      0.00000
     41      50.7528      0.00000
     42      51.8446      0.00000
     43      52.1851      0.00000
     44      53.3329      0.00000
     45      55.2917      0.00000
     46      55.9056      0.00000
     47      57.1159      0.00000
     48      58.6378      0.00000
     49      60.1716      0.00000
     50      60.8019      0.00000
     51      61.6687      0.00000
     52      61.7817      0.00000
     53      64.2342      0.00000
     54      66.2731      0.00000
     55      67.6151      0.00000
     56      67.6546      0.00000
     57      69.8155      0.00000
     58      69.9365      0.00000
     59      71.6240      0.00000
     60      71.8855      0.00000
     61      73.3915      0.00000
     62      73.9774      0.00000
     63      75.1022      0.00000
     64      75.3537      0.00000

 k-point    16 :       0.4286    0.4286    0.1429
  band No.  band energies     occupation 
      1     -48.7277      1.00000
      2     -48.7087      1.00000
      3     -23.5164      1.00000
      4     -23.4872      1.00000
      5     -22.7802      1.00000
      6     -22.7079      1.00000
      7     -22.3652      1.00000
      8     -22.3443      1.00000
      9       7.6094      1.00000
     10       7.6655      1.00000
     11       9.0573      1.00000
     12       9.1737      1.00000
     13      12.1265      0.98519
     14      12.3482      0.80435
     15      13.8306      0.00000
     16      14.0627      0.00000
     17      14.5552      0.00000
     18      15.1114      0.00000
     19      17.7058      0.00000
     20      18.5086      0.00000
     21      23.2221      0.00000
     22      24.0340      0.00000
     23      24.9726      0.00000
     24      25.0792      0.00000
     25      28.5186      0.00000
     26      28.9515      0.00000
     27      34.3091      0.00000
     28      35.1413      0.00000
     29      35.5363      0.00000
     30      36.1041      0.00000
     31      39.1068      0.00000
     32      39.7151      0.00000
     33      41.0991      0.00000
     34      41.9989      0.00000
     35      44.1169      0.00000
     36      44.5137      0.00000
     37      47.8692      0.00000
     38      48.0648      0.00000
     39      48.5309      0.00000
     40      49.3670      0.00000
     41      50.1855      0.00000
     42      51.3891      0.00000
     43      51.4649      0.00000
     44      53.3378      0.00000
     45      54.6572      0.00000
     46      57.0693      0.00000
     47      57.0998      0.00000
     48      57.8431      0.00000
     49      58.4033      0.00000
     50      60.7322      0.00000
     51      62.3461      0.00000
     52      62.5944      0.00000
     53      65.7149      0.00000
     54      66.1181      0.00000
     55      66.2072      0.00000
     56      68.3098      0.00000
     57      68.9526      0.00000
     58      69.9925      0.00000
     59      70.5576      0.00000
     60      73.2350      0.00000
     61      73.2596      0.00000
     62      74.6882      0.00000
     63      75.2263      0.00000
     64      76.1298      0.00000

 k-point    17 :       0.2857    0.2857    0.2857
  band No.  band energies     occupation 
      1     -48.7749      1.00000
      2     -48.6717      1.00000
      3     -23.2498      1.00000
      4     -23.2225      1.00000
      5     -23.2186      1.00000
      6     -22.4937      1.00000
      7     -22.4891      1.00000
      8     -22.4552      1.00000
      9       8.8062      1.00000
     10       8.9665      1.00000
     11       9.4126      1.00000
     12       9.4137      1.00000
     13       9.6715      1.00000
     14       9.6728      1.00003
     15      14.1325      0.00000
     16      14.1379      0.00000
     17      14.4388      0.00000
     18      14.4428      0.00000
     19      16.6990      0.00000
     20      22.4286      0.00000
     21      22.7308      0.00000
     22      22.7327      0.00000
     23      27.0803      0.00000
     24      27.0816      0.00000
     25      28.1661      0.00000
     26      30.7285      0.00000
     27      31.7711      0.00000
     28      32.4431      0.00000
     29      32.4487      0.00000
     30      38.3629      0.00000
     31      40.6997      0.00000
     32      40.7098      0.00000
     33      42.4181      0.00000
     34      42.8917      0.00000
     35      42.8920      0.00000
     36      44.2713      0.00000
     37      44.2834      0.00000
     38      45.7480      0.00000
     39      48.5599      0.00000
     40      50.8883      0.00000
     41      50.9018      0.00000
     42      53.1268      0.00000
     43      53.1327      0.00000
     44      55.7284      0.00000
     45      56.0911      0.00000
     46      56.1068      0.00000
     47      57.9620      0.00000
     48      58.8068      0.00000
     49      58.8262      0.00000
     50      60.3775      0.00000
     51      61.7632      0.00000
     52      61.7726      0.00000
     53      65.7031      0.00000
     54      66.0349      0.00000
     55      66.0399      0.00000
     56      66.1965      0.00000
     57      66.9311      0.00000
     58      70.6501      0.00000
     59      71.2322      0.00000
     60      71.2324      0.00000
     61      71.5527      0.00000
     62      75.2242      0.00000
     63      75.2251      0.00000
     64      77.2872      0.00000

 k-point    18 :       0.4286    0.2857    0.2857
  band No.  band energies     occupation 
      1     -48.7352      1.00000
      2     -48.6983      1.00000
      3     -23.3407      1.00000
      4     -23.3395      1.00000
      5     -22.9843      1.00000
      6     -22.7239      1.00000
      7     -22.4496      1.00000
      8     -22.4267      1.00000
      9       8.5033      1.00000
     10       8.5719      1.00000
     11       9.3969      1.00000
     12       9.5425      1.00000
     13      10.2929      1.00000
     14      10.5928      1.00000
     15      13.9450      0.00000
     16      13.9733      0.00000
     17      14.6019      0.00000
     18      14.7310      0.00000
     19      18.3335      0.00000
     20      20.2429      0.00000
     21      23.0337      0.00000
     22      24.6405      0.00000
     23      24.7726      0.00000
     24      26.0626      0.00000
     25      27.6835      0.00000
     26      29.1021      0.00000
     27      32.4086      0.00000
     28      32.9390      0.00000
     29      34.8129      0.00000
     30      36.9779      0.00000
     31      39.8886      0.00000
     32      41.1587      0.00000
     33      41.3663      0.00000
     34      41.9985      0.00000
     35      44.6458      0.00000
     36      44.9908      0.00000
     37      46.2073      0.00000
     38      47.5244      0.00000
     39      47.7433      0.00000
     40      48.2267      0.00000
     41      48.8936      0.00000
     42      50.5702      0.00000
     43      52.7780      0.00000
     44      54.9859      0.00000
     45      57.9497      0.00000
     46      58.2735      0.00000
     47      58.3600      0.00000
     48      59.2760      0.00000
     49      59.6213      0.00000
     50      60.1423      0.00000
     51      60.8337      0.00000
     52      61.6217      0.00000
     53      64.4655      0.00000
     54      66.5174      0.00000
     55      67.0589      0.00000
     56      68.0116      0.00000
     57      68.3902      0.00000
     58      69.0549      0.00000
     59      70.5324      0.00000
     60      72.8255      0.00000
     61      74.2372      0.00000
     62      75.2409      0.00000
     63      76.3329      0.00000
     64      76.5592      0.00000

 k-point    19 :       0.4286    0.4286    0.2857
  band No.  band energies     occupation 
      1     -48.7167      1.00000
      2     -48.7035      1.00000
      3     -23.3547      1.00000
      4     -23.3370      1.00000
      5     -22.9271      1.00000
      6     -22.7817      1.00000
      7     -22.5253      1.00000
      8     -22.4817      1.00000
      9       8.4641      1.00000
     10       8.6657      1.00000
     11       9.1001      1.00000
     12       9.3643      1.00000
     13      10.9767      1.00000
     14      11.1026      1.00000
     15      14.2869      0.00000
     16      14.3478      0.00000
     17      14.6099      0.00000
     18      14.6937      0.00000
     19      19.7572      0.00000
     20      20.7204      0.00000
     21      22.4020      0.00000
     22      23.3175      0.00000
     23      24.4937      0.00000
     24      25.4711      0.00000
     25      26.3231      0.00000
     26      27.3407      0.00000
     27      34.0540      0.00000
     28      34.6638      0.00000
     29      35.2271      0.00000
     30      36.7897      0.00000
     31      39.6459      0.00000
     32      39.9545      0.00000
     33      40.3205      0.00000
     34      40.5678      0.00000
     35      44.3245      0.00000
     36      45.1638      0.00000
     37      45.8596      0.00000
     38      46.4673      0.00000
     39      48.7023      0.00000
     40      49.6561      0.00000
     41      50.5273      0.00000
     42      51.8669      0.00000
     43      52.6087      0.00000
     44      54.5544      0.00000
     45      55.6526      0.00000
     46      56.4593      0.00000
     47      57.5142      0.00000
     48      59.0425      0.00000
     49      60.0777      0.00000
     50      63.2151      0.00000
     51      63.7230      0.00000
     52      63.9480      0.00000
     53      64.9859      0.00000
     54      65.5399      0.00000
     55      66.8635      0.00000
     56      67.0487      0.00000
     57      69.4281      0.00000
     58      70.2559      0.00000
     59      70.5283      0.00000
     60      70.6088      0.00000
     61      73.2909      0.00000
     62      74.3786      0.00000
     63      74.7778      0.00000
     64      75.8891      0.00000

 k-point    20 :       0.4286    0.4286    0.4286
  band No.  band energies     occupation 
      1     -48.7060      1.00000
      2     -48.7013      1.00000
      3     -23.2012      1.00000
      4     -23.0768      1.00000
      5     -23.0724      1.00000
      6     -22.7870      1.00000
      7     -22.7823      1.00000
      8     -22.6511      1.00000
      9       8.9505      1.00000
     10       9.4033      1.00000
     11       9.4047      1.00000
     12      10.0838      1.00000
     13      10.0868      1.00000
     14      10.2103      1.00000
     15      14.6360      0.00000
     16      14.6376      0.00000
     17      14.6392      0.00000
     18      14.6415      0.00000
     19      21.3677      0.00000
     20      21.9343      0.00000
     21      22.7788      0.00000
     22      22.9138      0.00000
     23      22.9155      0.00000
     24      24.7334      0.00000
     25      24.7386      0.00000
     26      25.9099      0.00000
     27      35.1587      0.00000
     28      36.0158      0.00000
     29      36.0243      0.00000
     30      38.5318      0.00000
     31      39.0313      0.00000
     32      39.0339      0.00000
     33      40.5643      0.00000
     34      40.5708      0.00000
     35      41.2390      0.00000
     36      42.3237      0.00000
     37      42.7740      0.00000
     38      42.7808      0.00000
     39      52.5921      0.00000
     40      52.5993      0.00000
     41      52.8200      0.00000
     42      53.4591      0.00000
     43      55.3222      0.00000
     44      55.3228      0.00000
     45      56.5786      0.00000
     46      58.5801      0.00000
     47      58.5887      0.00000
     48      59.5893      0.00000
     49      59.5932      0.00000
     50      60.3967      0.00000
     51      62.4244      0.00000
     52      62.6366      0.00000
     53      62.6369      0.00000
     54      63.3753      0.00000
     55      66.0866      0.00000
     56      66.0986      0.00000
     57      70.2020      0.00000
     58      72.1560      0.00000
     59      72.1693      0.00000
     60      72.3028      0.00000
     61      72.3163      0.00000
     62      74.3138      0.00000
     63      74.3172      0.00000
     64      77.2094      0.00000


--------------------------------------------------------------------------------------------------------


 soft charge-density along one line, spin component           1
         0         1         2         3         4         5         6         7         8         9
 total charge-density along one line
 
 soft charge-density along one line, spin component           2
         0         1         2         3         4         5         6         7         8         9
 total charge-density along one line
 
 pseudopotential strength for first ion, spin component:           1
 -5.358  10.030   0.000   0.000   0.000  -0.000  -0.000  -0.000
 10.030   3.334  -0.000  -0.000   0.000   0.000   0.000   0.000
  0.000  -0.000 -16.511   0.000  -0.000   7.240  -0.000   0.000
  0.000  -0.000   0.000 -16.509  -0.000  -0.000   7.238   0.000
  0.000   0.000  -0.000  -0.000 -16.511   0.000   0.000   7.240
 -0.000   0.000   7.240  -0.000   0.000   6.697   0.000  -0.000
 -0.000   0.000  -0.000   7.238   0.000   0.000   6.698  -0.000
 -0.000   0.000   0.000   0.000   7.240  -0.000  -0.000   6.697
 -0.000   0.000  -0.000  -0.000   0.000   0.000  -0.000  -0.000
  0.000  -0.000   0.000   0.000  -0.000  -0.000  -0.000  -0.000
  0.001  -0.001  -0.000   0.000   0.000   0.000  -0.000   0.000
 -0.000   0.000  -0.000   0.000   0.000  -0.000  -0.000  -0.000
  0.000  -0.000  -0.000   0.000   0.000   0.000  -0.000  -0.000
 -0.000   0.000   0.000  -0.000   0.000   0.000  -0.000  -0.000
  0.000  -0.000   0.000   0.000  -0.000  -0.000  -0.000  -0.000
  0.001  -0.001  -0.000   0.000  -0.000   0.000  -0.000   0.000
 -0.000   0.000  -0.000   0.000   0.000  -0.000   0.000  -0.000
  0.000  -0.000  -0.000   0.000   0.000   0.000  -0.000   0.000
 pseudopotential strength for first ion, spin component:           2
 -5.358  10.030   0.000   0.000   0.000  -0.000  -0.000  -0.000
 10.030   3.334  -0.000  -0.000   0.000   0.000   0.000   0.000
  0.000  -0.000 -16.511   0.000  -0.000   7.240  -0.000   0.000
  0.000  -0.000   0.000 -16.509  -0.000  -0.000   7.238   0.000
  0.000   0.000  -0.000  -0.000 -16.511   0.000   0.000   7.240
 -0.000   0.000   7.240  -0.000   0.000   6.697   0.000  -0.000
 -0.000   0.000  -0.000   7.238   0.000   0.000   6.698  -0.000
 -0.000   0.000   0.000   0.000   7.240  -0.000  -0.000   6.697
 -0.000   0.000  -0.000   0.000   0.000   0.000   0.000  -0.000
  0.000  -0.000   0.000   0.000   0.000  -0.000  -0.000   0.000
  0.001  -0.001  -0.000   0.000   0.000   0.000  -0.000   0.000
 -0.000   0.000   0.000   0.000   0.000   0.000  -0.000  -0.000
  0.000  -0.000  -0.000   0.000   0.000   0.000  -0.000  -0.000
 -0.000   0.000   0.000   0.000   0.000   0.000   0.000  -0.000
  0.000  -0.000   0.000   0.000   0.000  -0.000  -0.000   0.000
  0.001  -0.001  -0.000   0.000  -0.000   0.000  -0.000   0.000
 -0.000   0.000   0.000   0.000   0.000   0.000  -0.000  -0.000
  0.000  -0.000  -0.000   0.000   0.000   0.000  -0.000   0.000
 total augmentation occupancy for first ion, spin component:           1
  1.995  -0.037  -0.000   0.000   0.000   0.000   0.000   0.000   0.000   0.000   0.000   0.000  -0.000  -0.000   0.000  -0.000
 -0.037   1.548   0.000   0.000   0.000   0.000   0.000  -0.000   0.000   0.000   0.000  -0.000  -0.000   0.000  -0.000  -0.000
 -0.000   0.000   1.996   0.000  -0.000  -0.041  -0.000   0.000  -0.000   0.000  -0.000  -0.000  -0.000  -0.000  -0.000   0.000
 -0.000   0.000   0.000   1.998   0.000  -0.000  -0.041  -0.000  -0.000   0.000   0.000   0.000  -0.000  -0.000  -0.000   0.000
  0.000   0.000  -0.000   0.000   1.996   0.000  -0.000  -0.041   0.000   0.000   0.000   0.000   0.000   0.000   0.000  -0.000
  0.000   0.000  -0.041  -0.000   0.000   0.107   0.000  -0.000   0.000   0.000  -0.000   0.000   0.000  -0.000   0.000   0.000
  0.000   0.000  -0.000  -0.041  -0.000   0.000   0.107   0.000  -0.000   0.000   0.000   0.000   0.000   0.000  -0.000  -0.000
 -0.000   0.000   0.000  -0.000  -0.041  -0.000   0.000   0.107   0.000   0.000  -0.000   0.000   0.000   0.000   0.000   0.000
  0.000  -0.000   0.000  -0.000   0.000   0.000   0.000   0.000   1.262   0.000   0.000   0.000   0.000  -1.718  -0.000  -0.000
 -0.000   0.000  -0.000  -0.000   0.000   0.000  -0.000   0.000   0.000   1.263   0.000  -0.000  -0.000  -0.000  -1.720  -0.000
  0.000   0.000  -0.000  -0.000   0.000  -0.000  -0.000  -0.000   0.000   0.000   1.320   0.000   0.000  -0.000  -0.000  -1.905
 -0.000  -0.000   0.000   0.000  -0.000   0.000   0.000   0.000   0.000  -0.000   0.000   1.263   0.000  -0.000   0.000  -0.000
 -0.000  -0.000  -0.000   0.000  -0.000   0.000   0.000   0.000   0.000  -0.000   0.000   0.000   1.318  -0.000   0.000  -0.000
 -0.000   0.000   0.000   0.000   0.000   0.000   0.000   0.000  -1.718  -0.000  -0.000  -0.000  -0.000   3.051   0.000   0.000
  0.000   0.000  -0.000   0.000   0.000   0.000   0.000   0.000  -0.000  -1.720  -0.000   0.000   0.000   0.000   3.054   0.000
 -0.000  -0.000   0.000  -0.000   0.000   0.000   0.000   0.000  -0.000  -0.000  -1.905  -0.000  -0.000   0.000   0.000   3.043
  0.000   0.000   0.000   0.000  -0.000   0.000   0.000   0.000  -0.000   0.000  -0.000  -1.720  -0.000   0.000  -0.000   0.000
  0.000  -0.000   0.000  -0.000  -0.000   0.000   0.000   0.000  -0.000   0.000  -0.000  -0.000  -1.902  -0.000  -0.000   0.000
 total augmentation occupancy for first ion, spin component:           2
  0.000   0.000   0.000   0.000   0.000   0.000   0.000   0.000  -0.000   0.000   0.000  -0.000  -0.000   0.000  -0.000  -0.000
  0.000   0.000   0.000   0.000   0.000   0.000   0.000  -0.000  -0.000  -0.000   0.000   0.000  -0.000   0.000   0.000  -0.000
  0.000   0.000   0.000   0.000  -0.000   0.000   0.000  -0.000  -0.000  -0.000   0.000  -0.000   0.000   0.000   0.000   0.000
  0.000   0.000   0.000   0.000   0.000   0.000   0.000   0.000  -0.000  -0.000   0.000  -0.000   0.000   0.000  -0.000   0.000
  0.000   0.000  -0.000   0.000   0.000  -0.000   0.000   0.000   0.000  -0.000  -0.000  -0.000   0.000   0.000  -0.000   0.000
  0.000   0.000   0.000   0.000  -0.000  -0.000  -0.000   0.000  -0.000  -0.000  -0.000   0.000   0.000  -0.000   0.000  -0.000
 -0.000  -0.000   0.000   0.000   0.000  -0.000  -0.000  -0.000  -0.000  -0.000   0.000  -0.000   0.000   0.000  -0.000   0.000
  0.000  -0.000  -0.000   0.000   0.000   0.000  -0.000  -0.000   0.000   0.000   0.000   0.000   0.000  -0.000   0.000   0.000
  0.000   0.000  -0.000   0.000   0.000   0.000  -0.000   0.000   0.000   0.000   0.000   0.000   0.000  -0.000  -0.000  -0.000
  0.000  -0.000  -0.000   0.000  -0.000  -0.000   0.000   0.000   0.000   0.000   0.000  -0.000  -0.000  -0.000  -0.000  -0.000
  0.000   0.000   0.000  -0.000   0.000  -0.000   0.000   0.000   0.000   0.000   0.000   0.000   0.000  -0.000  -0.000  -0.000
 -0.000   0.000  -0.000   0.000   0.000   0.000   0.000   0.000   0.000  -0.000   0.000   0.000   0.000  -0.000   0.000  -0.000
 -0.000  -0.000   0.000   0.000  -0.000   0.000   0.000   0.000   0.000  -0.000   0.000   0.000   0.000   0.000   0.000  -0.000
 -0.000   0.000  -0.000  -0.000  -0.000  -0.000   0.000  -0.000  -0.000  -0.000  -0.000  -0.000  -0.000   0.000   0.000   0.000
 -0.000   0.000  -0.000  -0.000   0.000  -0.000  -0.000   0.000  -0.000  -0.000  -0.000   0.000   0.000   0.000   0.000   0.000
 -0.000  -0.000   0.000   0.000   0.000   0.000   0.000   0.000  -0.000  -0.000  -0.000  -0.000  -0.000   0.000   0.000   0.000
  0.000   0.000  -0.000   0.000  -0.000   0.000   0.000   0.000  -0.000   0.000  -0.000  -0.000  -0.000   0.000  -0.000   0.000
  0.000   0.000   0.000  -0.000  -0.000  -0.000   0.000   0.000   0.000   0.000  -0.000  -0.000  -0.000  -0.000  -0.000   0.000


------------------------ aborting loop because EDIFF is reached ----------------------------------------





 total charge

# of ion       s       p       d       tot
------------------------------------------
    1        2.377   6.209   3.868  12.454
    2        2.377   6.209   3.868  12.454
--------------------------------------------------
tot          4.753  12.418   7.736  24.907



 magnetization (x)

# of ion       s       p       d       tot
------------------------------------------
    1       -0.000  -0.000   0.000  -0.000
    2       -0.000  -0.000   0.000  -0.000
--------------------------------------------------
tot         -0.000  -0.000   0.000  -0.000
 
    CHARGE:  cpu time      0.0259: real time      0.0261
    FORLOC:  cpu time      0.0001: real time      0.0001
    FORNL :  cpu time      0.1629: real time      0.1635
    STRESS:  cpu time      0.4783: real time      0.4795
    FORCOR:  cpu time      0.0095: real time      0.0095
    FORHAR:  cpu time      0.0012: real time      0.0012
    MIXING:  cpu time      0.0004: real time      0.0004
    OFIELD:  cpu time      0.0000: real time      0.0000

  FORCE on cell =-STRESS in cart. coord.  units (eV):
  Direction    XX          YY          ZZ          XY          YZ          ZX
  --------------------------------------------------------------------------------------
  Alpha Z   232.14763   232.14763   232.14763
  Ewald   -1081.16804 -1081.16804 -1081.25124     0.00000    -0.00000    -0.00000
  Hartree   179.69817   179.69817   179.81949    -0.00000    -0.00000    -0.00000
  E(xc)    -134.31000  -134.31000  -134.30658    -0.00000     0.00000     0.00000
  Local     280.14693   280.14693   279.71852     0.00000    -0.00000    -0.00000
  n-local   -57.55414   -46.29249   -41.38553     1.35802    -1.06462    -0.02653
  augment    68.35525    68.35525    68.41662    -0.00000     0.00000     0.00000
  Kinetic   490.92219   502.17367   517.95961     9.22172    -3.03619     1.39622
  Fock        0.00000     0.00000     0.00000     0.00000     0.00000     0.00000
  -------------------------------------------------------------------------------------
  Total       0.02925     0.02925     0.02927     0.00000    -0.00000     0.00000
  in kB       1.47572     1.47572     1.47711     0.00000    -0.00000     0.00000
  external pressure =        1.48 kB  Pullay stress =        0.00 kB


 VOLUME and BASIS-vectors are now :
 -----------------------------------------------------------------------------
  energy-cutoff  :      520.00
  volume of cell :       31.75
      direct lattice vectors                 reciprocal lattice vectors
     3.166126445 -0.000000000  0.000000000     0.315843355  0.000000000  0.000000000
    -0.000000000  3.166126445  0.000000000     0.000000000  0.315843355  0.000000000
     0.000000000  0.000000000  3.167617944    -0.000000000 -0.000000000  0.315694638

  length of vectors
     3.166126445  3.166126445  3.167617944     0.315843355  0.315843355  0.315694638


 FORCES acting on ions
    electron-ion (+dipol)            ewald-force                    non-local-force                 convergence-correction
 -----------------------------------------------------------------------------------------------
   -.780E-14 -.361E-14 -.261E-13   -.526E-14 -.412E-14 -.686E-14   0.146E-26 0.552E-27 0.163E-26   -.195E-13 0.196E-13 -.142E-13
   0.244E-12 0.380E-12 -.342E-11   0.343E-14 0.113E-14 0.869E-14   -.488E-27 -.204E-26 0.335E-26   0.361E-13 0.390E-13 -.120E-13
 -----------------------------------------------------------------------------------------------
   0.236E-12 0.376E-12 -.345E-11   -.183E-14 -.298E-14 0.182E-14   0.973E-27 -.148E-26 0.499E-26   0.166E-13 0.586E-13 -.262E-13
 
 
 POSITION                                       TOTAL-FORCE (eV/Angst)
 -----------------------------------------------------------------------------------
     -0.00000      0.00000     -0.00000         0.000000      0.000000     -0.000000
      1.58306      1.58306      1.58381        -0.000000     -0.000000      0.000000
 -----------------------------------------------------------------------------------
    total drift:                                0.000000      0.000000     -0.000000


--------------------------------------------------------------------------------------------------------



  FREE ENERGIE OF THE ION-ELECTRON SYSTEM (eV)
  ---------------------------------------------------
  free  energy   TOTEN  =       -21.81852742 eV

  energy  without entropy=      -21.81852742  energy(sigma->0) =      -21.81852742
 
 d Force = 0.0000000E+00[ 0.000E+00, 0.000E+00]  d Energy =-0.4846373E-02 0.485E-02
 d Force = 0.0000000E+00[ 0.000E+00, 0.000E+00]  d Ewald  =-0.1440991E+01 0.144E+01


--------------------------------------------------------------------------------------------------------


    POTLOK:  cpu time      0.6416: real time      0.6427


--------------------------------------------------------------------------------------------------------


 stress matrix after NEB project (eV)
      0.02925     -0.00000      0.00000
      0.00000      0.02925      0.00000
     -0.00000     -0.00000      0.02927
  FORCES: max atom, RMS     0.000000    0.000000
  FORCE total and by dimension    0.000000    0.000000
  Stress total and by dimension    0.050673    0.029275


--------------------------------------------------------------------------------------------------------


  
 reached required accuracy - stopping structural energy minimisation
     LOOP+:  cpu time     18.8774: real time     19.0744
 -----------------------------------------------------------------------------
|                                                                             |
|           W    W    AA    RRRRR   N    N  II  N    N   GGGG   !!!           |
|           W    W   A  A   R    R  NN   N  II  NN   N  G    G  !!!           |
|           W    W  A    A  R    R  N N  N  II  N N  N  G       !!!           |
|           W WW W  AAAAAA  RRRRR   N  N N  II  N  N N  G  GGG   !            |
|           WW  WW  A    A  R   R   N   NN  II  N   NN  G    G                |
|           W    W  A    A  R    R  N    N  II  N    N   GGGG   !!!           |
|                                                                             |
|     Tetrahedron method does not include variations of the Fermi             |
|     occupations, so forces and stress will be inaccurate. We suggest        |
|     using a different smearing scheme ISMEAR = 1 or 2 for metals in         |
|     relaxations.                                                            |
|                                                                             |
 -----------------------------------------------------------------------------

    4ORBIT:  cpu time      0.0000: real time      0.0000



 total charge

# of ion       s       p       d       tot
------------------------------------------
    1        2.377   6.209   3.868  12.454
    2        2.377   6.209   3.868  12.454
--------------------------------------------------
tot          4.753  12.418   7.736  24.907



 magnetization (x)

# of ion       s       p       d       tot
------------------------------------------
    1       -0.000  -0.000   0.000  -0.000
    2       -0.000  -0.000   0.000  -0.000
--------------------------------------------------
tot         -0.000  -0.000   0.000  -0.000
 
 BZINTS: Fermi energy:   12.354654;   28.000000 electrons
         Band energy:-0.355222E+03;  BLOECHL correction:   -0.065543

 total amount of memory used by VASP MPI-rank0    34377. kBytes
=======================================================================

   base      :      30000. kBytes
   nonlr-proj:       2253. kBytes
   fftplans  :        153. kBytes
   grid      :       1295. kBytes
   one-center:         62. kBytes
   wavefun   :        614. kBytes
 
  
  
 General timing and accounting informations for this job:
 ========================================================
  
                  Total CPU time used (sec):       91.409
                            User time (sec):       89.254
                          System time (sec):        2.155
                         Elapsed time (sec):       93.397
  
                   Maximum memory used (kb):       90264.
                   Average memory used (kb):          N/A
  
                          Minor page faults:       104604
                          Major page faults:            6
                 Voluntary context switches:         2244
