unknown system                          
           1
     3.167618    0.000000    0.000000
    -0.000000    3.167618    0.000000
     0.000000    0.000000    3.167618
   Mo
     2
Direct configuration=     1
   0.00000000  0.00000000  0.00000000
   0.50000000  0.50000000  0.50000000
unknown system                          
           1
     3.164018   -0.000000    0.000000
    -0.000000    3.164018    0.000000
     0.000000    0.000000    3.167618
   Mo
     2
Direct configuration=     2
  -0.00000000  0.00000000 -0.00000000
   0.50000000  0.50000000  0.50000000
unknown system                          
           1
     3.166126   -0.000000    0.000000
    -0.000000    3.166126    0.000000
     0.000000    0.000000    3.167618
   Mo
     2
Direct configuration=     3
  -0.00000000  0.00000000 -0.00000000
   0.50000000  0.50000000  0.50000000
