   1   1   0   0
  0.2210642E+04  0.9498400E-09  0.9498400E-09  0.2450290E-08  0.5000000E-15
  1.000000000000000E-004
  CAR 
 ni3al                                   
      1.88270105    -25.15555784  301     -8.96098621      1.00000000
    -25.156  0.0000E+00  0.0000E+00
    -25.065  0.0000E+00  0.0000E+00
    -24.975  0.0000E+00  0.0000E+00
    -24.885  0.0000E+00  0.0000E+00
    -24.795  0.0000E+00  0.0000E+00
    -24.705  0.0000E+00  0.0000E+00
    -24.615  0.0000E+00  0.0000E+00
    -24.525  0.0000E+00  0.0000E+00
    -24.435  0.7501E-11  0.6760E-12
    -24.344  0.3804E-07  0.3429E-08
    -24.254  0.3956E-04  0.3569E-05
    -24.164  0.8596E-02  0.7783E-03
    -24.074  0.4018E+00  0.3700E-01
    -23.984  0.4219E+01  0.4172E+00
    -23.894  0.1043E+02  0.1357E+01
    -23.804  0.6223E+01  0.1918E+01
    -23.714  0.8835E+00  0.1997E+01
    -23.623  0.2854E-01  0.2000E+01
    -23.533  0.2005E-03  0.2000E+01
    -23.443  0.2962E-06  0.2000E+01
    -23.353  0.9012E-10  0.2000E+01
    -23.263  0.4927E-14  0.2000E+01
    -23.173  0.0000E+00  0.2000E+01
    -23.083  0.0000E+00  0.2000E+01
    -22.992  0.0000E+00  0.2000E+01
    -22.902  0.0000E+00  0.2000E+01
    -22.812  0.0000E+00  0.2000E+01
    -22.722  0.0000E+00  0.2000E+01
    -22.632  0.0000E+00  0.2000E+01
    -22.542  0.0000E+00  0.2000E+01
    -22.452  0.0000E+00  0.2000E+01
    -22.362  0.0000E+00  0.2000E+01
    -22.271  0.0000E+00  0.2000E+01
    -22.181  0.0000E+00  0.2000E+01
    -22.091  0.0000E+00  0.2000E+01
    -22.001  0.0000E+00  0.2000E+01
    -21.911  0.0000E+00  0.2000E+01
    -21.821  0.0000E+00  0.2000E+01
    -21.731  0.0000E+00  0.2000E+01
    -21.641  0.0000E+00  0.2000E+01
    -21.550  0.0000E+00  0.2000E+01
    -21.460  0.0000E+00  0.2000E+01
    -21.370  0.0000E+00  0.2000E+01
    -21.280  0.0000E+00  0.2000E+01
    -21.190  0.0000E+00  0.2000E+01
    -21.100  0.0000E+00  0.2000E+01
    -21.010  0.0000E+00  0.2000E+01
    -20.920  0.0000E+00  0.2000E+01
    -20.829  0.0000E+00  0.2000E+01
    -20.739  0.0000E+00  0.2000E+01
    -20.649  0.0000E+00  0.2000E+01
    -20.559  0.0000E+00  0.2000E+01
    -20.469  0.0000E+00  0.2000E+01
    -20.379  0.0000E+00  0.2000E+01
    -20.289  0.0000E+00  0.2000E+01
    -20.199  0.0000E+00  0.2000E+01
    -20.108  0.0000E+00  0.2000E+01
    -20.018  0.0000E+00  0.2000E+01
    -19.928  0.0000E+00  0.2000E+01
    -19.838  0.0000E+00  0.2000E+01
    -19.748  0.0000E+00  0.2000E+01
    -19.658  0.0000E+00  0.2000E+01
    -19.568  0.0000E+00  0.2000E+01
    -19.478  0.0000E+00  0.2000E+01
    -19.387  0.0000E+00  0.2000E+01
    -19.297  0.0000E+00  0.2000E+01
    -19.207  0.0000E+00  0.2000E+01
    -19.117  0.0000E+00  0.2000E+01
    -19.027  0.0000E+00  0.2000E+01
    -18.937  0.0000E+00  0.2000E+01
    -18.847  0.0000E+00  0.2000E+01
    -18.757  0.0000E+00  0.2000E+01
    -18.666  0.0000E+00  0.2000E+01
    -18.576  0.0000E+00  0.2000E+01
    -18.486  0.0000E+00  0.2000E+01
    -18.396  0.0000E+00  0.2000E+01
    -18.306  0.0000E+00  0.2000E+01
    -18.216  0.0000E+00  0.2000E+01
    -18.126  0.0000E+00  0.2000E+01
    -18.035  0.0000E+00  0.2000E+01
    -17.945  0.0000E+00  0.2000E+01
    -17.855  0.0000E+00  0.2000E+01
    -17.765  0.0000E+00  0.2000E+01
    -17.675  0.0000E+00  0.2000E+01
    -17.585  0.0000E+00  0.2000E+01
    -17.495  0.0000E+00  0.2000E+01
    -17.405  0.0000E+00  0.2000E+01
    -17.314  0.0000E+00  0.2000E+01
    -17.224  0.0000E+00  0.2000E+01
    -17.134  0.0000E+00  0.2000E+01
    -17.044  0.0000E+00  0.2000E+01
    -16.954  0.0000E+00  0.2000E+01
    -16.864  0.0000E+00  0.2000E+01
    -16.774  0.0000E+00  0.2000E+01
    -16.684  0.0000E+00  0.2000E+01
    -16.593  0.0000E+00  0.2000E+01
    -16.503  0.0000E+00  0.2000E+01
    -16.413  0.0000E+00  0.2000E+01
    -16.323  0.0000E+00  0.2000E+01
    -16.233  0.0000E+00  0.2000E+01
    -16.143  0.0000E+00  0.2000E+01
    -16.053  0.0000E+00  0.2000E+01
    -15.963  0.0000E+00  0.2000E+01
    -15.872  0.0000E+00  0.2000E+01
    -15.782  0.0000E+00  0.2000E+01
    -15.692  0.0000E+00  0.2000E+01
    -15.602  0.0000E+00  0.2000E+01
    -15.512  0.0000E+00  0.2000E+01
    -15.422  0.0000E+00  0.2000E+01
    -15.332  0.0000E+00  0.2000E+01
    -15.242  0.0000E+00  0.2000E+01
    -15.151  0.0000E+00  0.2000E+01
    -15.061  0.0000E+00  0.2000E+01
    -14.971  0.0000E+00  0.2000E+01
    -14.881  0.0000E+00  0.2000E+01
    -14.791  0.0000E+00  0.2000E+01
    -14.701  0.0000E+00  0.2000E+01
    -14.611  0.0000E+00  0.2000E+01
    -14.521  0.0000E+00  0.2000E+01
    -14.430  0.0000E+00  0.2000E+01
    -14.340  0.0000E+00  0.2000E+01
    -14.250  0.0000E+00  0.2000E+01
    -14.160  0.0000E+00  0.2000E+01
    -14.070  0.0000E+00  0.2000E+01
    -13.980  0.0000E+00  0.2000E+01
    -13.890  0.0000E+00  0.2000E+01
    -13.799  0.0000E+00  0.2000E+01
    -13.709  0.0000E+00  0.2000E+01
    -13.619  0.0000E+00  0.2000E+01
    -13.529  0.0000E+00  0.2000E+01
    -13.439  0.0000E+00  0.2000E+01
    -13.349  0.0000E+00  0.2000E+01
    -13.259  0.0000E+00  0.2000E+01
    -13.169  0.0000E+00  0.2000E+01
    -13.078  0.0000E+00  0.2000E+01
    -12.988  0.0000E+00  0.2000E+01
    -12.898  0.0000E+00  0.2000E+01
    -12.808  0.0000E+00  0.2000E+01
    -12.718  0.0000E+00  0.2000E+01
    -12.628  0.0000E+00  0.2000E+01
    -12.538  0.0000E+00  0.2000E+01
    -12.448  0.0000E+00  0.2000E+01
    -12.357  0.0000E+00  0.2000E+01
    -12.267  0.0000E+00  0.2000E+01
    -12.177  0.0000E+00  0.2000E+01
    -12.087  0.0000E+00  0.2000E+01
    -11.997  0.0000E+00  0.2000E+01
    -11.907  0.0000E+00  0.2000E+01
    -11.817  0.0000E+00  0.2000E+01
    -11.727  0.0000E+00  0.2000E+01
    -11.636  0.0000E+00  0.2000E+01
    -11.546  0.0000E+00  0.2000E+01
    -11.456  0.0000E+00  0.2000E+01
    -11.366  0.0000E+00  0.2000E+01
    -11.276  0.0000E+00  0.2000E+01
    -11.186  0.0000E+00  0.2000E+01
    -11.096  0.0000E+00  0.2000E+01
    -11.006  0.0000E+00  0.2000E+01
    -10.915  0.0000E+00  0.2000E+01
    -10.825  0.0000E+00  0.2000E+01
    -10.735  0.0000E+00  0.2000E+01
    -10.645  0.0000E+00  0.2000E+01
    -10.555  0.0000E+00  0.2000E+01
    -10.465  0.0000E+00  0.2000E+01
    -10.375  0.0000E+00  0.2000E+01
    -10.285  0.0000E+00  0.2000E+01
    -10.194  0.0000E+00  0.2000E+01
    -10.104  0.0000E+00  0.2000E+01
    -10.014  0.0000E+00  0.2000E+01
     -9.924  0.0000E+00  0.2000E+01
     -9.834  0.0000E+00  0.2000E+01
     -9.744  0.0000E+00  0.2000E+01
     -9.654  0.0000E+00  0.2000E+01
     -9.563  0.1848E-13  0.2000E+01
     -9.473  0.3128E-09  0.2000E+01
     -9.383  0.1002E-05  0.2000E+01
     -9.293  0.6607E-03  0.2000E+01
     -9.203  0.9170E-01  0.2008E+01
     -9.113  0.2769E+01  0.2258E+01
     -9.023  0.1905E+02  0.3974E+01
     -8.933  0.3117E+02  0.6784E+01
     -8.842  0.1232E+02  0.7895E+01
     -8.752  0.1146E+01  0.7998E+01
     -8.662  0.2390E-01  0.8000E+01
     -8.572  0.1073E-03  0.8000E+01
     -8.482  0.1005E-06  0.8000E+01
     -8.392  0.1930E-10  0.8000E+01
     -8.302  0.0000E+00  0.8000E+01
     -8.212  0.0000E+00  0.8000E+01
     -8.121  0.0000E+00  0.8000E+01
     -8.031  0.0000E+00  0.8000E+01
     -7.941  0.0000E+00  0.8000E+01
     -7.851  0.0000E+00  0.8000E+01
     -7.761  0.0000E+00  0.8000E+01
     -7.671  0.0000E+00  0.8000E+01
     -7.581  0.0000E+00  0.8000E+01
     -7.491  0.0000E+00  0.8000E+01
     -7.400  0.0000E+00  0.8000E+01
     -7.310  0.0000E+00  0.8000E+01
     -7.220  0.0000E+00  0.8000E+01
     -7.130  0.0000E+00  0.8000E+01
     -7.040  0.0000E+00  0.8000E+01
     -6.950  0.0000E+00  0.8000E+01
     -6.860  0.0000E+00  0.8000E+01
     -6.770  0.0000E+00  0.8000E+01
     -6.679  0.0000E+00  0.8000E+01
     -6.589  0.0000E+00  0.8000E+01
     -6.499  0.0000E+00  0.8000E+01
     -6.409  0.0000E+00  0.8000E+01
     -6.319  0.0000E+00  0.8000E+01
     -6.229  0.0000E+00  0.8000E+01
     -6.139  0.0000E+00  0.8000E+01
     -6.049  0.0000E+00  0.8000E+01
     -5.958  0.0000E+00  0.8000E+01
     -5.868  0.0000E+00  0.8000E+01
     -5.778  0.0000E+00  0.8000E+01
     -5.688  0.0000E+00  0.8000E+01
     -5.598  0.0000E+00  0.8000E+01
     -5.508  0.0000E+00  0.8000E+01
     -5.418  0.0000E+00  0.8000E+01
     -5.328  0.0000E+00  0.8000E+01
     -5.237  0.0000E+00  0.8000E+01
     -5.147  0.0000E+00  0.8000E+01
     -5.057  0.0000E+00  0.8000E+01
     -4.967  0.0000E+00  0.8000E+01
     -4.877  0.0000E+00  0.8000E+01
     -4.787  0.0000E+00  0.8000E+01
     -4.697  0.0000E+00  0.8000E+01
     -4.606  0.0000E+00  0.8000E+01
     -4.516  0.0000E+00  0.8000E+01
     -4.426  0.0000E+00  0.8000E+01
     -4.336  0.0000E+00  0.8000E+01
     -4.246  0.0000E+00  0.8000E+01
     -4.156  0.0000E+00  0.8000E+01
     -4.066  0.0000E+00  0.8000E+01
     -3.976  0.0000E+00  0.8000E+01
     -3.885  0.0000E+00  0.8000E+01
     -3.795  0.0000E+00  0.8000E+01
     -3.705  0.0000E+00  0.8000E+01
     -3.615  0.0000E+00  0.8000E+01
     -3.525  0.0000E+00  0.8000E+01
     -3.435  0.0000E+00  0.8000E+01
     -3.345  0.0000E+00  0.8000E+01
     -3.255  0.0000E+00  0.8000E+01
     -3.164  0.0000E+00  0.8000E+01
     -3.074  0.0000E+00  0.8000E+01
     -2.984  0.0000E+00  0.8000E+01
     -2.894  0.0000E+00  0.8000E+01
     -2.804  0.0000E+00  0.8000E+01
     -2.714  0.0000E+00  0.8000E+01
     -2.624  0.0000E+00  0.8000E+01
     -2.534  0.0000E+00  0.8000E+01
     -2.443  0.0000E+00  0.8000E+01
     -2.353  0.0000E+00  0.8000E+01
     -2.263  0.0000E+00  0.8000E+01
     -2.173  0.0000E+00  0.8000E+01
     -2.083  0.0000E+00  0.8000E+01
     -1.993  0.0000E+00  0.8000E+01
     -1.903  0.0000E+00  0.8000E+01
     -1.813  0.0000E+00  0.8000E+01
     -1.722  0.0000E+00  0.8000E+01
     -1.632  0.0000E+00  0.8000E+01
     -1.542  0.0000E+00  0.8000E+01
     -1.452  0.0000E+00  0.8000E+01
     -1.362  0.0000E+00  0.8000E+01
     -1.272  0.0000E+00  0.8000E+01
     -1.182  0.0000E+00  0.8000E+01
     -1.092  0.0000E+00  0.8000E+01
     -1.001  0.0000E+00  0.8000E+01
     -0.911  0.1540E-15  0.8000E+01
     -0.821  0.2569E-11  0.8000E+01
     -0.731  0.9711E-08  0.8000E+01
     -0.641  0.7574E-05  0.8000E+01
     -0.551  0.1258E-02  0.8000E+01
     -0.461  0.4830E-01  0.8004E+01
     -0.370  0.5250E+00  0.8052E+01
     -0.280  0.2228E+01  0.8253E+01
     -0.190  0.4517E+01  0.8660E+01
     -0.100  0.5164E+01  0.9125E+01
     -0.010  0.4548E+01  0.9535E+01
      0.080  0.3528E+01  0.9853E+01
      0.170  0.3266E+01  0.1015E+02
      0.260  0.6197E+01  0.1071E+02
      0.351  0.1021E+02  0.1163E+02
      0.441  0.1014E+02  0.1254E+02
      0.531  0.5807E+01  0.1306E+02
      0.621  0.4376E+01  0.1346E+02
      0.711  0.4338E+01  0.1385E+02
      0.801  0.1540E+01  0.1399E+02
      0.891  0.1384E+00  0.1400E+02
      0.981  0.2844E-02  0.1400E+02
      1.072  0.1265E-04  0.1400E+02
      1.162  0.1180E-07  0.1400E+02
      1.252  0.2263E-11  0.1400E+02
      1.342  0.0000E+00  0.1400E+02
      1.432  0.0000E+00  0.1400E+02
      1.522  0.0000E+00  0.1400E+02
      1.612  0.0000E+00  0.1400E+02
      1.702  0.0000E+00  0.1400E+02
      1.793  0.0000E+00  0.1400E+02
      1.883  0.0000E+00  0.1400E+02
