    1    1    1    1
  0.2210642E+04  0.9498400E-09  0.9498400E-09  0.2450290E-08  0.5000000E-15
  1.000000000000000E-004
  CAR 
 ni3al                                   
      6      6      7
 
  0.0000000E+00  0.0000000E+00  0.0000000E+00  0.6250000E-01
      1        -23.926546   1.000000
      2         -8.991448   0.666693
      3         -8.991431   0.666604
      4         -8.991431   0.666604
      5         -0.329822   0.000000
      6          0.145933   0.000000
      7          0.216989   0.000000
 
  0.2500000E+00  0.0000000E+00  0.0000000E+00  0.2500000E+00
      1        -23.926539   1.000000
      2         -8.991448   0.666689
      3         -8.991442   0.666661
      4         -8.991430   0.666600
      5         -0.239512   0.000000
      6          0.246874   0.000000
      7          0.319627   0.000000
 
  0.5000000E+00  0.0000000E+00  0.0000000E+00  0.1250000E+00
      1        -23.926546   1.000000
      2         -8.991454   0.666720
      3         -8.991447   0.666685
      4         -8.991430   0.666596
      5         -0.080582   0.000000
      6          0.321673   0.000000
      7          0.553125   0.000000
 
  0.2500000E+00  0.2500000E+00  0.0000000E+00  0.2500000E+00
      1        -23.926536   1.000000
      2         -8.991447   0.666685
      3         -8.991441   0.666658
      4         -8.991441   0.666657
      5         -0.150114   0.000000
      6          0.347592   0.000000
      7          0.422130   0.000000
 
  0.5000000E+00  0.2500000E+00  0.0000000E+00  0.2500000E+00
      1        -23.926535   1.000000
      2         -8.991453   0.666715
      3         -8.991446   0.666682
      4         -8.991441   0.666654
      5          0.004930   0.000000
      6          0.420924   0.000000
      7          0.653689   0.000000
 
  0.5000000E+00  0.5000000E+00  0.0000000E+00  0.6250000E-01
      1        -23.926533   1.000000
      2         -8.991452   0.666710
      3         -8.991452   0.666710
      4         -8.991445   0.666678
      5          0.144175   0.000000
      6          0.645191   0.000000
      7          0.645191   0.000000
