<?xml version="1.0" encoding="ISO-8859-1"?>
<modeling>
 <generator>
  <i name="program" type="string">vasp </i>
  <i name="version" type="string">6.3.2  </i>
  <i name="subversion" type="string">27Jun22 (build Mar 15 2023 15:45:48) complex                          parallel </i>
  <i name="platform" type="string">LinuxIFC </i>
  <i name="date" type="string">2025 09 05 </i>
  <i name="time" type="string">16:57:19 </i>
 </generator>
 <incar>
  <i type="string" name="SYSTEM">ni3al</i>
  <i type="int" name="ISTART">     0</i>
  <i type="string" name="PREC">Accurate</i>
  <i type="string" name="ALGO">Normal</i>
  <i name="AMIN">      0.01000000</i>
  <i type="int" name="ICHARG">     2</i>
  <i type="int" name="NELM">   150</i>
  <i type="int" name="IBRION">    -1</i>
  <i name="EDIFF">      0.00000100</i>
  <i type="int" name="NSW">     0</i>
  <i type="int" name="ISIF">     2</i>
  <i name="ENCUT">    530.00000000</i>
  <i type="string" name="LREAL">Auto</i>
  <i type="int" name="ISMEAR">     0</i>
  <i name="SIGMA">      0.10000000</i>
  <i type="int" name="LMAXMIX">     4</i>
  <i type="logical" name="LWAVE"> T  </i>
  <i type="logical" name="LCHARG"> T  </i>
 </incar>
 <primitive_cell>
  <structure name="primitive_cell" >
   <crystal>
    <varray name="basis" >
     <v>       9.49839973       0.00000000       0.00000000 </v>
     <v>       0.00000000       9.49839973       0.00000000 </v>
     <v>       0.00000000       0.00000000      24.50289917 </v>
    </varray>
    <i name="volume">   2210.64170109 </i>
    <varray name="rec_basis" >
     <v>       0.10528089       0.00000000       0.00000000 </v>
     <v>       0.00000000       0.10528089       0.00000000 </v>
     <v>       0.00000000       0.00000000       0.04081150 </v>
    </varray>
   </crystal>
   <varray name="positions" >
    <v>       0.50000000       0.50000000       0.42703552 </v>
   </varray>
  </structure>
  <varray name="primitive_index" >
   <v type="int" >        1 </v>
  </varray>
 </primitive_cell>
 <kpoints>
  <generation param="Gamma">
   <v type="int" name="divisions">       4        4        1 </v>
   <v name="usershift">      0.00000000       0.00000000       0.00000000 </v>
   <v name="genvec1">      0.25000000       0.00000000       0.00000000 </v>
   <v name="genvec2">      0.00000000       0.25000000       0.00000000 </v>
   <v name="genvec3">      0.00000000       0.00000000       1.00000000 </v>
   <v name="shift">      0.00000000       0.00000000       0.00000000 </v>
  </generation>
  <varray name="kpointlist" >
   <v>       0.00000000       0.00000000       0.00000000 </v>
   <v>       0.25000000       0.00000000       0.00000000 </v>
   <v>       0.50000000       0.00000000       0.00000000 </v>
   <v>       0.25000000       0.25000000       0.00000000 </v>
   <v>       0.50000000       0.25000000       0.00000000 </v>
   <v>       0.50000000       0.50000000       0.00000000 </v>
  </varray>
  <varray name="weights" >
   <v>       0.06250000 </v>
   <v>       0.25000000 </v>
   <v>       0.12500000 </v>
   <v>       0.25000000 </v>
   <v>       0.25000000 </v>
   <v>       0.06250000 </v>
  </varray>
 </kpoints>
 <parameters>
  <separator name="general" >
   <i type="string" name="SYSTEM">ni3al</i>
   <i type="logical" name="LCOMPAT"> F  </i>
  </separator>
  <separator name="electronic" >
   <i type="string" name="PREC">accura</i>
   <i name="ENMAX">    530.00000000</i>
   <i name="ENAUG">    605.39200000</i>
   <i name="EDIFF">      0.00000100</i>
   <i type="int" name="IALGO">    38</i>
   <i type="int" name="IWAVPR">    10</i>
   <i type="int" name="NBANDS">     7</i>
   <i type="int" name="NBANDSLOW">    -1</i>
   <i type="int" name="NBANDSHIGH">    -1</i>
   <i name="NELECT">      6.00000000</i>
   <i type="int" name="TURBO">     0</i>
   <i type="int" name="IRESTART">     0</i>
   <i type="int" name="NREBOOT">     0</i>
   <i type="int" name="NMIN">     0</i>
   <i name="EREF">      0.00000000</i>
   <separator name="electronic smearing" >
    <i type="int" name="ISMEAR">     0</i>
    <i name="SIGMA">      0.10000000</i>
    <i name="KSPACING">      0.50000000</i>
    <i type="logical" name="KGAMMA"> T  </i>
    <i type="logical" name="KBLOWUP"> T  </i>
   </separator>
   <separator name="electronic projectors" >
    <i type="logical" name="LREAL"> T  </i>
    <v name="ROPT">     -0.00025000</v>
    <i type="int" name="LMAXPAW">  -100</i>
    <i type="int" name="LMAXMIX">     4</i>
    <i type="logical" name="NLSPLINE"> F  </i>
   </separator>
   <separator name="electronic startup" >
    <i type="int" name="ISTART">     0</i>
    <i type="int" name="ICHARG">     2</i>
    <i type="int" name="INIWAV">     1</i>
   </separator>
   <separator name="electronic spin" >
    <i type="int" name="ISPIN">     1</i>
    <i type="logical" name="LNONCOLLINEAR"> F  </i>
    <v name="MAGMOM">      1.00000000</v>
    <i name="NUPDOWN">     -1.00000000</i>
    <i type="logical" name="LSORBIT"> F  </i>
    <v name="SAXIS">      0.00000000      0.00000000      1.00000000</v>
    <i type="logical" name="LSPIRAL"> F  </i>
    <v name="QSPIRAL">      0.00000000      0.00000000      0.00000000</v>
    <i type="logical" name="LZEROZ"> F  </i>
   </separator>
   <separator name="electronic exchange-correlation" >
    <i type="logical" name="LASPH"> F  </i>
    <i type="logical" name="LMETAGGA"> F  </i>
   </separator>
   <separator name="electronic convergence" >
    <i type="int" name="NELM">   150</i>
    <i type="int" name="NELMDL">    -5</i>
    <i type="int" name="NELMIN">     2</i>
    <i name="ENINI">    530.00000000</i>
    <separator name="electronic convergence detail" >
     <i type="logical" name="LDIAG"> T  </i>
     <i type="logical" name="LSUBROT"> F  </i>
     <i name="WEIMIN">      0.00000000</i>
     <i name="EBREAK">      0.00000004</i>
     <i name="DEPER">      0.30000000</i>
     <i type="int" name="NRMM">     4</i>
     <i name="TIME">      0.40000000</i>
    </separator>
   </separator>
   <separator name="electronic mixer" >
    <i name="AMIX">      0.40000000</i>
    <i name="BMIX">      1.00000000</i>
    <i name="AMIN">      0.01000000</i>
    <i name="AMIX_MAG">      1.60000000</i>
    <i name="BMIX_MAG">      1.00000000</i>
    <separator name="electronic mixer details" >
     <i type="int" name="IMIX">     4</i>
     <i type="logical" name="MIXFIRST"> F  </i>
     <i type="int" name="MAXMIX">   -45</i>
     <i name="WC">    100.00000000</i>
     <i type="int" name="INIMIX">     1</i>
     <i type="int" name="MIXPRE">     1</i>
     <i type="int" name="MREMOVE">     5</i>
    </separator>
   </separator>
   <separator name="electronic dipolcorrection" >
    <i type="logical" name="LDIPOL"> F  </i>
    <i type="logical" name="LMONO"> F  </i>
    <i type="int" name="IDIPOL">     0</i>
    <i name="EPSILON">      1.00000000</i>
    <v name="DIPOL">   -100.00000000   -100.00000000   -100.00000000</v>
    <i name="EFIELD">      0.00000000</i>
   </separator>
  </separator>
  <separator name="grids" >
   <i type="int" name="NGX">    72</i>
   <i type="int" name="NGY">    72</i>
   <i type="int" name="NGZ">   192</i>
   <i type="int" name="NGXF">   144</i>
   <i type="int" name="NGYF">   144</i>
   <i type="int" name="NGZF">   384</i>
   <i type="logical" name="ADDGRID"> F  </i>
  </separator>
  <separator name="ionic" >
   <i type="int" name="NSW">     0</i>
   <i type="int" name="IBRION">    -1</i>
   <i type="int" name="MDALGO">     0</i>
   <i type="int" name="ISIF">     2</i>
   <i name="PSTRESS">      0.00000000</i>
   <i name="EDIFFG">      0.00001000</i>
   <i type="int" name="NFREE">     0</i>
   <i name="POTIM">      0.50000000</i>
   <i name="SMASS">     -3.00000000</i>
   <i name="SCALEE">      1.00000000</i>
  </separator>
  <separator name="ionic md" >
   <i name="TEBEG">      0.00010000</i>
   <i name="TEEND">      0.00010000</i>
   <i type="int" name="NBLOCK">     1</i>
   <i type="int" name="KBLOCK">     1</i>
   <i type="int" name="NPACO">   256</i>
   <i name="APACO">     10.00000000</i>
  </separator>
  <separator name="symmetry" >
   <i type="int" name="ISYM">     2</i>
   <i name="SYMPREC">      0.00001000</i>
  </separator>
  <separator name="dos" >
   <i type="int" name="LORBIT">     0</i>
   <v name="RWIGS">     -1.00000000</v>
   <i type="int" name="NEDOS">   301</i>
   <i name="EMIN">     10.00000000</i>
   <i name="EMAX">    -10.00000000</i>
   <i name="EFERMI">      0.00000000</i>
  </separator>
  <separator name="writing" >
   <i type="int" name="NWRITE">     2</i>
   <i type="logical" name="LWAVE"> T  </i>
   <i type="logical" name="LDOWNSAMPLE"> F  </i>
   <i type="logical" name="LCHARG"> T  </i>
   <i type="logical" name="LPARD"> F  </i>
   <i type="logical" name="LVTOT"> F  </i>
   <i type="logical" name="LVHAR"> F  </i>
   <i type="logical" name="LELF"> F  </i>
   <i type="logical" name="LOPTICS"> F  </i>
   <v name="STM">      0.00000000      0.00000000      0.00000000      0.00000000      0.00000000      0.00000000      0.00000000</v>
  </separator>
  <separator name="performance" >
   <i type="int" name="NPAR">     1</i>
   <i type="int" name="NSIM">     4</i>
   <i type="int" name="NBLK">    -1</i>
   <i type="logical" name="LPLANE"> T  </i>
   <i type="logical" name="LSCALAPACK"> T  </i>
   <i type="logical" name="LSCAAWARE"> F  </i>
   <i type="logical" name="LSCALU"> F  </i>
   <i type="logical" name="LASYNC"> F  </i>
   <i type="logical" name="LORBITALREAL"> F  </i>
  </separator>
  <separator name="miscellaneous" >
   <i type="int" name="IDIOT">     3</i>
   <i type="int" name="PHON_NSTRUCT">    -1</i>
   <i type="logical" name="LMUSIC"> F  </i>
   <v name="POMASS">     16.00000000</v>
   <v name="DARWINR">      0.00000000</v>
   <v name="DARWINV">      1.00000000</v>
   <i type="logical" name="LCORR"> T  </i>
  </separator>
  <i type="logical" name="GGA_COMPAT"> T  </i>
  <i type="logical" name="LBERRY"> F  </i>
  <i type="int" name="ICORELEVEL">     0</i>
  <i type="logical" name="LDAU"> F  </i>
  <i type="int" name="I_CONSTRAINED_M">     0</i>
  <separator name="electronic exchange-correlation" >
   <i type="string" name="GGA">--</i>
   <i type="int" name="VOSKOWN">     0</i>
   <i type="logical" name="LHFCALC"> F  </i>
   <i type="string" name="PRECFOCK"></i>
   <i type="logical" name="LSYMGRAD"> F  </i>
   <i type="logical" name="LHFONE"> F  </i>
   <i type="logical" name="LRHFCALC"> F  </i>
   <i type="logical" name="LTHOMAS"> F  </i>
   <i type="logical" name="LMODELHF"> F  </i>
   <i type="logical" name="LFOCKACE"> F  </i>
   <i name="ENCUT4O">     -1.00000000</i>
   <i type="int" name="EXXOEP">     0</i>
   <i type="int" name="FOURORBIT">     0</i>
   <i name="AEXX">      0.00000000</i>
   <i name="HFALPHA">      0.00000000</i>
   <i name="MCALPHA">      0.00000000</i>
   <i name="ALDAX">      1.00000000</i>
   <i name="AGGAX">      1.00000000</i>
   <i name="ALDAC">      1.00000000</i>
   <i name="AGGAC">      1.00000000</i>
   <i type="int" name="NKREDX">     1</i>
   <i type="int" name="NKREDY">     1</i>
   <i type="int" name="NKREDZ">     1</i>
   <i type="logical" name="SHIFTRED"> F  </i>
   <i type="logical" name="ODDONLY"> F  </i>
   <i type="logical" name="EVENONLY"> F  </i>
   <i type="int" name="LMAXFOCK">     0</i>
   <i type="int" name="NMAXFOCKAE">     0</i>
   <i type="logical" name="LFOCKAEDFT"> F  </i>
   <i name="HFSCREEN">      0.00000000</i>
   <i name="HFSCREENC">      0.00000000</i>
   <i type="int" name="NBANDSGWLOW">     0</i>
  </separator>
  <separator name="vdW DFT" >
   <i type="logical" name="LUSE_VDW"> F  </i>
   <i name="Zab_VDW">     -0.84910000</i>
   <i name="PARAM1">      0.12340000</i>
   <i name="PARAM2">      1.00000000</i>
   <i name="PARAM3">      0.00000000</i>
  </separator>
  <separator name="model GW" >
   <i type="int" name="MODEL_GW">     0</i>
   <i name="MODEL_EPS0">   1326.38502066</i>
   <i name="MODEL_ALPHA">      1.00000000</i>
  </separator>
  <separator name="linear response parameters" >
   <i type="logical" name="LEPSILON"> F  </i>
   <i type="logical" name="LRPA"> F  </i>
   <i type="logical" name="LNABLA"> F  </i>
   <i type="logical" name="LVEL"> F  </i>
   <i name="CSHIFT">      0.10000000</i>
   <i name="OMEGAMAX">     -1.00000000</i>
   <i name="DEG_THRESHOLD">      0.00200000</i>
   <i name="RTIME">     -0.10000000</i>
   <i name="WPLASMAI">      0.00000000</i>
   <v name="DFIELD">      0.00000000      0.00000000      0.00000000</v>
   <v name="WPLASMA">      0.00000000      0.00000000      0.00000000      0.00000000      0.00000000      0.00000000      0.00000000      0.00000000      0.00000000</v>
  </separator>
  <separator name="orbital magnetization" >
   <i type="logical" name="NUCIND"> F  </i>
   <v name="MAGPOS">      0.00000000      0.00000000      0.00000000</v>
   <i type="logical" name="LNICSALL"> T  </i>
   <i type="logical" name="ORBITALMAG"> F  </i>
   <i type="logical" name="LMAGBLOCH"> F  </i>
   <i type="logical" name="LCHIMAG"> F  </i>
   <i type="logical" name="LGAUGE"> T  </i>
   <i type="int" name="MAGATOM">     0</i>
   <v name="MAGDIPOL">      0.00000000      0.00000000      0.00000000</v>
   <v name="AVECCONST">      0.00000000      0.00000000      0.00000000</v>
  </separator>
  <separator name="response functions" >
   <i type="logical" name="LFINITE_TEMPERATURE"> F  </i>
   <i type="logical" name="LADDER"> F  </i>
   <i type="logical" name="LRPAFORCE"> F  </i>
   <i type="logical" name="LFXC"> F  </i>
   <i type="logical" name="LHARTREE"> T  </i>
   <i type="int" name="IBSE">     0</i>
   <v type="int" name="KPOINT">    -1     0     0     0</v>
   <i type="logical" name="LTCTC"> F  </i>
   <i type="logical" name="LTCTE"> F  </i>
   <i type="logical" name="LTETE"> F  </i>
   <i type="logical" name="LTRIPLET"> F  </i>
   <i type="logical" name="LFXCEPS"> F  </i>
   <i type="logical" name="LFXHEG"> F  </i>
   <i type="int" name="NATURALO">     2</i>
   <i type="logical" name="LHOLEGF"> F  </i>
   <i type="logical" name="L2ORDER"> F  </i>
   <i type="logical" name="LDMP1"> F  </i>
   <i type="logical" name="LMP2LT"> F  </i>
   <i type="logical" name="LSMP2LT"> F  </i>
   <i type="logical" name="LGWLF"> F  </i>
   <i name="ENCUTGW">     -2.00000000</i>
   <i name="ENCUTGWSOFT">     -2.00000000</i>
   <i name="ENCUTLF">     -1.00000000</i>
   <i type="logical" name="LESF_SPLINES"> F  </i>
   <i type="int" name="LMAXMP2">    -1</i>
   <i name="SCISSOR">      0.00000000</i>
   <i type="int" name="NOMEGA">     0</i>
   <i type="int" name="NOMEGAR">     0</i>
   <i type="int" name="NBANDSGW">    -1</i>
   <i type="int" name="NBANDSO">    -1</i>
   <i type="int" name="NBANDSV">    -1</i>
   <i type="int" name="NELMGW">     1</i>
   <i type="int" name="NELMHF">     1</i>
   <i type="int" name="DIM">     3</i>
   <i type="int" name="IESPILON">     4</i>
   <i type="int" name="ANTIRES">     0</i>
   <i name="OMEGAMAX">    -30.00000000</i>
   <i name="OMEGAMIN">    -30.00000000</i>
   <i name="OMEGATL">   -200.00000000</i>
   <i type="int" name="OMEGAGRID">     0</i>
   <i name="CSHIFT">     -0.10000000</i>
   <i type="logical" name="LSELFENERGY"> F  </i>
   <i type="logical" name="LSPECTRAL"> F  </i>
   <i type="logical" name="LSPECTRALGW"> F  </i>
   <i type="logical" name="LSINGLES"> F  </i>
   <i type="logical" name="LFERMIGW"> F  </i>
   <i type="logical" name="ODDONLYGW"> F  </i>
   <i type="logical" name="EVENONLYGW"> F  </i>
   <i type="int" name="NKREDLFX">     1</i>
   <i type="int" name="NKREDLFY">     1</i>
   <i type="int" name="NKREDLFZ">     1</i>
   <i type="int" name="MAXMEM">  2800</i>
   <i type="int" name="TELESCOPE">     0</i>
   <i type="int" name="NTAUPAR">    -1</i>
   <i type="int" name="NOMEGAPAR">    -1</i>
   <i name="DAMP_NEWTON">      0.80000001</i>
   <i name="LAMBDA">      1.00000000</i>
  </separator>
  <separator name="External order field" >
   <i name="OFIELD_KAPPA">      0.00000000</i>
   <v name="OFIELD_K">      0.00000000      0.00000000      0.00000000</v>
   <i name="OFIELD_Q6_NEAR">      0.00000000</i>
   <i name="OFIELD_Q6_FAR">      0.00000000</i>
   <i name="OFIELD_A">      0.00000000</i>
  </separator>
  <separator name="optional k-points parameters" >
   <i type="int" name="KPOINTS_OPT_MODE">     1</i>
   <i type="logical" name="LKPOINTS_OPT"> F  </i>
  </separator>
  <separator name="solvation model" >
   <i type="logical" name="LSOL"> F  </i>
  </separator>
 </parameters>
 <atominfo>
  <atoms>       1 </atoms>
  <types>       1 </types>
  <array name="atoms" >
   <dimension dim="1">ion</dimension>
   <field type="string">element</field>
   <field type="int">atomtype</field>
   <set>
    <rc><c>O </c><c>   1</c></rc>
   </set>
  </array>
  <array name="atomtypes" >
   <dimension dim="1">type</dimension>
   <field type="int">atomspertype</field>
   <field type="string">element</field>
   <field>mass</field>
   <field>valence</field>
   <field type="string">pseudopotential</field>
   <set>
    <rc><c>   1</c><c>O </c><c>     16.00000000</c><c>      6.00000000</c><c>  PAW_PBE O 08Apr2002                   </c></rc>
   </set>
  </array>
 </atominfo>
 <structure name="initialpos" >
  <crystal>
   <varray name="basis" >
    <v>       9.49839973       0.00000000       0.00000000 </v>
    <v>       0.00000000       9.49839973       0.00000000 </v>
    <v>       0.00000000       0.00000000      24.50289917 </v>
   </varray>
   <i name="volume">   2210.64170109 </i>
   <varray name="rec_basis" >
    <v>       0.10528089       0.00000000       0.00000000 </v>
    <v>       0.00000000       0.10528089       0.00000000 </v>
    <v>       0.00000000       0.00000000       0.04081150 </v>
   </varray>
  </crystal>
  <varray name="positions" >
   <v>       0.50000000       0.50000000       0.42703552 </v>
  </varray>
  <varray name="selective"  type="logical" >
   <v type="logical" >  T  T  T </v>
  </varray>
  <nose>
   <v>      -3.00000000       0.00000000       0.00010000       0.00010000 </v>
  </nose>
 </structure>
 <calculation>
  <scstep>
   <time name="dav">    1.70    0.27</time>
   <time name="total">   11.34    1.76</time>
   <energy>
    <i name="alphaZ">      0.06285707 </i>
    <i name="ewald">    -32.71394480 </i>
    <i name="hartreedc">   -340.16700132 </i>
    <i name="XCdc">     26.06853467 </i>
    <i name="pawpsdc">    346.54947689 </i>
    <i name="pawaedc">   -348.34814756 </i>
    <i name="eentropy">     -0.01861647 </i>
    <i name="bandstr">    -34.69478671 </i>
    <i name="atom">    432.35852233 </i>
    <i name="e_fr_energy">     49.09689411 </i>
    <i name="e_wo_entrp">     49.11551058 </i>
    <i name="e_0_energy">     49.10620234 </i>
   </energy>
  </scstep>
  <scstep>
   <time name="dav">    1.66    0.24</time>
   <time name="total">    1.66    0.24</time>
   <energy>
    <i name="e_fr_energy">      8.85206549 </i>
    <i name="e_wo_entrp">      8.85911789 </i>
    <i name="e_0_energy">      8.85559169 </i>
   </energy>
  </scstep>
  <scstep>
   <time name="dav">    1.11    0.16</time>
   <time name="total">    1.11    0.16</time>
   <energy>
    <i name="e_fr_energy">      0.15720732 </i>
    <i name="e_wo_entrp">      0.17249575 </i>
    <i name="e_0_energy">      0.16485154 </i>
   </energy>
  </scstep>
  <scstep>
   <time name="dav">    0.93    0.14</time>
   <time name="total">    0.94    0.14</time>
   <energy>
    <i name="e_fr_energy">     -0.15767520 </i>
    <i name="e_wo_entrp">     -0.00355177 </i>
    <i name="e_0_energy">     -0.08061349 </i>
   </energy>
  </scstep>
  <scstep>
   <time name="dav">    1.30    0.19</time>
   <time name="total">    3.33    0.48</time>
   <energy>
    <i name="e_fr_energy">     -0.16693210 </i>
    <i name="e_wo_entrp">     -0.01266997 </i>
    <i name="e_0_energy">     -0.08980104 </i>
   </energy>
  </scstep>
  <scstep>
   <time name="dav">    1.28    0.18</time>
   <time name="total">   12.49    1.89</time>
   <energy>
    <i name="e_fr_energy">     -0.16716193 </i>
    <i name="e_wo_entrp">     -0.01290015 </i>
    <i name="e_0_energy">     -0.09003104 </i>
   </energy>
  </scstep>
  <scstep>
   <time name="dav">    1.12    0.16</time>
   <time name="total">   12.19    1.83</time>
   <energy>
    <i name="e_fr_energy">     -0.16722380 </i>
    <i name="e_wo_entrp">     -0.01296603 </i>
    <i name="e_0_energy">     -0.09009491 </i>
   </energy>
  </scstep>
  <scstep>
   <time name="dav">    0.94    0.14</time>
   <time name="total">   12.19    1.83</time>
   <energy>
    <i name="e_fr_energy">     -0.16726040 </i>
    <i name="e_wo_entrp">     -0.01299850 </i>
    <i name="e_0_energy">     -0.09012945 </i>
   </energy>
  </scstep>
  <scstep>
   <time name="dav">    1.12    0.16</time>
   <time name="total">   12.11    1.82</time>
   <energy>
    <i name="e_fr_energy">     -0.16734767 </i>
    <i name="e_wo_entrp">     -0.01308536 </i>
    <i name="e_0_energy">     -0.09021652 </i>
   </energy>
  </scstep>
  <scstep>
   <time name="dav">    1.11    0.16</time>
   <time name="total">   11.97    1.80</time>
   <energy>
    <i name="e_fr_energy">     -0.16734963 </i>
    <i name="e_wo_entrp">     -0.01308731 </i>
    <i name="e_0_energy">     -0.09021847 </i>
   </energy>
  </scstep>
  <scstep>
   <time name="dav">    1.29    0.19</time>
   <time name="total">   10.30    1.57</time>
   <energy>
    <i name="alphaZ">      0.06285707 </i>
    <i name="ewald">    -32.71394480 </i>
    <i name="hartreedc">   -340.16260154 </i>
    <i name="XCdc">     26.06832160 </i>
    <i name="pawpsdc">    347.10873478 </i>
    <i name="pawaedc">   -348.91612749 </i>
    <i name="eentropy">     -0.15426232 </i>
    <i name="bandstr">    -83.81884948 </i>
    <i name="atom">    432.35852233 </i>
    <i name="e_fr_energy">     -0.16734985 </i>
    <i name="e_wo_entrp">     -0.01308753 </i>
    <i name="e_0_energy">     -0.09021869 </i>
   </energy>
  </scstep>
  <structure>
   <crystal>
    <varray name="basis" >
     <v>       9.49839973       0.00000000       0.00000000 </v>
     <v>       0.00000000       9.49839973       0.00000000 </v>
     <v>       0.00000000       0.00000000      24.50289917 </v>
    </varray>
    <i name="volume">   2210.64170109 </i>
    <varray name="rec_basis" >
     <v>       0.10528089       0.00000000       0.00000000 </v>
     <v>       0.00000000       0.10528089       0.00000000 </v>
     <v>       0.00000000       0.00000000       0.04081150 </v>
    </varray>
   </crystal>
   <varray name="positions" >
    <v>       0.50000000       0.50000000       0.42703552 </v>
   </varray>
  </structure>
  <varray name="forces" >
   <v>       0.00000000      -0.00000000      -0.00000000 </v>
  </varray>
  <varray name="stress" >
   <v>      -0.01307696       0.00000000       0.00000000 </v>
   <v>       0.00000000      -0.01307696      -0.00000000 </v>
   <v>       0.00000000       0.00000000      -0.01043528 </v>
  </varray>
  <energy>
   <i name="e_fr_energy">     -0.16734985 </i>
   <i name="e_wo_entrp">     -0.01308753 </i>
   <i name="e_0_energy">     -0.09021869 </i>
  </energy>
  <time name="totalsc">  148.26   34.58</time>
  <eigenvalues>
   <array>
    <dimension dim="1">band</dimension>
    <dimension dim="2">kpoint</dimension>
    <dimension dim="3">spin</dimension>
    <field>eigene</field>
    <field>occ</field>
    <set>
     <set comment="spin 1">
      <set comment="kpoint 1">
       <r>  -23.9265    1.0000 </r>
       <r>   -8.9914    0.6667 </r>
       <r>   -8.9914    0.6666 </r>
       <r>   -8.9914    0.6666 </r>
       <r>   -0.3298    0.0000 </r>
       <r>    0.1459    0.0000 </r>
       <r>    0.2170    0.0000 </r>
      </set>
      <set comment="kpoint 2">
       <r>  -23.9265    1.0000 </r>
       <r>   -8.9914    0.6667 </r>
       <r>   -8.9914    0.6667 </r>
       <r>   -8.9914    0.6666 </r>
       <r>   -0.2395    0.0000 </r>
       <r>    0.2469    0.0000 </r>
       <r>    0.3196    0.0000 </r>
      </set>
      <set comment="kpoint 3">
       <r>  -23.9265    1.0000 </r>
       <r>   -8.9915    0.6667 </r>
       <r>   -8.9914    0.6667 </r>
       <r>   -8.9914    0.6666 </r>
       <r>   -0.0806    0.0000 </r>
       <r>    0.3217    0.0000 </r>
       <r>    0.5531    0.0000 </r>
      </set>
      <set comment="kpoint 4">
       <r>  -23.9265    1.0000 </r>
       <r>   -8.9914    0.6667 </r>
       <r>   -8.9914    0.6667 </r>
       <r>   -8.9914    0.6667 </r>
       <r>   -0.1501    0.0000 </r>
       <r>    0.3476    0.0000 </r>
       <r>    0.4221    0.0000 </r>
      </set>
      <set comment="kpoint 5">
       <r>  -23.9265    1.0000 </r>
       <r>   -8.9915    0.6667 </r>
       <r>   -8.9914    0.6667 </r>
       <r>   -8.9914    0.6667 </r>
       <r>    0.0049    0.0000 </r>
       <r>    0.4209    0.0000 </r>
       <r>    0.6537    0.0000 </r>
      </set>
      <set comment="kpoint 6">
       <r>  -23.9265    1.0000 </r>
       <r>   -8.9915    0.6667 </r>
       <r>   -8.9915    0.6667 </r>
       <r>   -8.9914    0.6667 </r>
       <r>    0.1442    0.0000 </r>
       <r>    0.6452    0.0000 </r>
       <r>    0.6452    0.0000 </r>
      </set>
     </set>
    </set>
   </array>
  </eigenvalues>
  <separator name="orbital magnetization" >
   <v name="MAGDIPOLOUT">      0.00000000      0.00000000      0.00000000</v>
  </separator>
  <dos>
   <i name="efermi">     -8.96098621 </i>
   <total>
    <array>
     <dimension dim="1">gridpoints</dimension>
     <dimension dim="2">spin</dimension>
     <field>energy</field>
     <field>total</field>
     <field>integrated</field>
     <set>
      <set comment="spin 1">
       <r>   -25.1556     0.0000     0.0000 </r>
       <r>   -25.0654     0.0000     0.0000 </r>
       <r>   -24.9753     0.0000     0.0000 </r>
       <r>   -24.8852     0.0000     0.0000 </r>
       <r>   -24.7950     0.0000     0.0000 </r>
       <r>   -24.7049     0.0000     0.0000 </r>
       <r>   -24.6148     0.0000     0.0000 </r>
       <r>   -24.5247     0.0000     0.0000 </r>
       <r>   -24.4345     0.0000     0.0000 </r>
       <r>   -24.3444     0.0000     0.0000 </r>
       <r>   -24.2543     0.0000     0.0000 </r>
       <r>   -24.1642     0.0086     0.0008 </r>
       <r>   -24.0740     0.4018     0.0370 </r>
       <r>   -23.9839     4.2190     0.4172 </r>
       <r>   -23.8938    10.4260     1.3569 </r>
       <r>   -23.8036     6.2232     1.9178 </r>
       <r>   -23.7135     0.8835     1.9974 </r>
       <r>   -23.6234     0.0285     2.0000 </r>
       <r>   -23.5333     0.0002     2.0000 </r>
       <r>   -23.4431     0.0000     2.0000 </r>
       <r>   -23.3530     0.0000     2.0000 </r>
       <r>   -23.2629     0.0000     2.0000 </r>
       <r>   -23.1728     0.0000     2.0000 </r>
       <r>   -23.0826     0.0000     2.0000 </r>
       <r>   -22.9925     0.0000     2.0000 </r>
       <r>   -22.9024     0.0000     2.0000 </r>
       <r>   -22.8122     0.0000     2.0000 </r>
       <r>   -22.7221     0.0000     2.0000 </r>
       <r>   -22.6320     0.0000     2.0000 </r>
       <r>   -22.5419     0.0000     2.0000 </r>
       <r>   -22.4517     0.0000     2.0000 </r>
       <r>   -22.3616     0.0000     2.0000 </r>
       <r>   -22.2715     0.0000     2.0000 </r>
       <r>   -22.1813     0.0000     2.0000 </r>
       <r>   -22.0912     0.0000     2.0000 </r>
       <r>   -22.0011     0.0000     2.0000 </r>
       <r>   -21.9110     0.0000     2.0000 </r>
       <r>   -21.8208     0.0000     2.0000 </r>
       <r>   -21.7307     0.0000     2.0000 </r>
       <r>   -21.6406     0.0000     2.0000 </r>
       <r>   -21.5505     0.0000     2.0000 </r>
       <r>   -21.4603     0.0000     2.0000 </r>
       <r>   -21.3702     0.0000     2.0000 </r>
       <r>   -21.2801     0.0000     2.0000 </r>
       <r>   -21.1899     0.0000     2.0000 </r>
       <r>   -21.0998     0.0000     2.0000 </r>
       <r>   -21.0097     0.0000     2.0000 </r>
       <r>   -20.9196     0.0000     2.0000 </r>
       <r>   -20.8294     0.0000     2.0000 </r>
       <r>   -20.7393     0.0000     2.0000 </r>
       <r>   -20.6492     0.0000     2.0000 </r>
       <r>   -20.5591     0.0000     2.0000 </r>
       <r>   -20.4689     0.0000     2.0000 </r>
       <r>   -20.3788     0.0000     2.0000 </r>
       <r>   -20.2887     0.0000     2.0000 </r>
       <r>   -20.1985     0.0000     2.0000 </r>
       <r>   -20.1084     0.0000     2.0000 </r>
       <r>   -20.0183     0.0000     2.0000 </r>
       <r>   -19.9282     0.0000     2.0000 </r>
       <r>   -19.8380     0.0000     2.0000 </r>
       <r>   -19.7479     0.0000     2.0000 </r>
       <r>   -19.6578     0.0000     2.0000 </r>
       <r>   -19.5677     0.0000     2.0000 </r>
       <r>   -19.4775     0.0000     2.0000 </r>
       <r>   -19.3874     0.0000     2.0000 </r>
       <r>   -19.2973     0.0000     2.0000 </r>
       <r>   -19.2071     0.0000     2.0000 </r>
       <r>   -19.1170     0.0000     2.0000 </r>
       <r>   -19.0269     0.0000     2.0000 </r>
       <r>   -18.9368     0.0000     2.0000 </r>
       <r>   -18.8466     0.0000     2.0000 </r>
       <r>   -18.7565     0.0000     2.0000 </r>
       <r>   -18.6664     0.0000     2.0000 </r>
       <r>   -18.5762     0.0000     2.0000 </r>
       <r>   -18.4861     0.0000     2.0000 </r>
       <r>   -18.3960     0.0000     2.0000 </r>
       <r>   -18.3059     0.0000     2.0000 </r>
       <r>   -18.2157     0.0000     2.0000 </r>
       <r>   -18.1256     0.0000     2.0000 </r>
       <r>   -18.0355     0.0000     2.0000 </r>
       <r>   -17.9454     0.0000     2.0000 </r>
       <r>   -17.8552     0.0000     2.0000 </r>
       <r>   -17.7651     0.0000     2.0000 </r>
       <r>   -17.6750     0.0000     2.0000 </r>
       <r>   -17.5848     0.0000     2.0000 </r>
       <r>   -17.4947     0.0000     2.0000 </r>
       <r>   -17.4046     0.0000     2.0000 </r>
       <r>   -17.3145     0.0000     2.0000 </r>
       <r>   -17.2243     0.0000     2.0000 </r>
       <r>   -17.1342     0.0000     2.0000 </r>
       <r>   -17.0441     0.0000     2.0000 </r>
       <r>   -16.9540     0.0000     2.0000 </r>
       <r>   -16.8638     0.0000     2.0000 </r>
       <r>   -16.7737     0.0000     2.0000 </r>
       <r>   -16.6836     0.0000     2.0000 </r>
       <r>   -16.5934     0.0000     2.0000 </r>
       <r>   -16.5033     0.0000     2.0000 </r>
       <r>   -16.4132     0.0000     2.0000 </r>
       <r>   -16.3231     0.0000     2.0000 </r>
       <r>   -16.2329     0.0000     2.0000 </r>
       <r>   -16.1428     0.0000     2.0000 </r>
       <r>   -16.0527     0.0000     2.0000 </r>
       <r>   -15.9625     0.0000     2.0000 </r>
       <r>   -15.8724     0.0000     2.0000 </r>
       <r>   -15.7823     0.0000     2.0000 </r>
       <r>   -15.6922     0.0000     2.0000 </r>
       <r>   -15.6020     0.0000     2.0000 </r>
       <r>   -15.5119     0.0000     2.0000 </r>
       <r>   -15.4218     0.0000     2.0000 </r>
       <r>   -15.3317     0.0000     2.0000 </r>
       <r>   -15.2415     0.0000     2.0000 </r>
       <r>   -15.1514     0.0000     2.0000 </r>
       <r>   -15.0613     0.0000     2.0000 </r>
       <r>   -14.9711     0.0000     2.0000 </r>
       <r>   -14.8810     0.0000     2.0000 </r>
       <r>   -14.7909     0.0000     2.0000 </r>
       <r>   -14.7008     0.0000     2.0000 </r>
       <r>   -14.6106     0.0000     2.0000 </r>
       <r>   -14.5205     0.0000     2.0000 </r>
       <r>   -14.4304     0.0000     2.0000 </r>
       <r>   -14.3403     0.0000     2.0000 </r>
       <r>   -14.2501     0.0000     2.0000 </r>
       <r>   -14.1600     0.0000     2.0000 </r>
       <r>   -14.0699     0.0000     2.0000 </r>
       <r>   -13.9797     0.0000     2.0000 </r>
       <r>   -13.8896     0.0000     2.0000 </r>
       <r>   -13.7995     0.0000     2.0000 </r>
       <r>   -13.7094     0.0000     2.0000 </r>
       <r>   -13.6192     0.0000     2.0000 </r>
       <r>   -13.5291     0.0000     2.0000 </r>
       <r>   -13.4390     0.0000     2.0000 </r>
       <r>   -13.3489     0.0000     2.0000 </r>
       <r>   -13.2587     0.0000     2.0000 </r>
       <r>   -13.1686     0.0000     2.0000 </r>
       <r>   -13.0785     0.0000     2.0000 </r>
       <r>   -12.9883     0.0000     2.0000 </r>
       <r>   -12.8982     0.0000     2.0000 </r>
       <r>   -12.8081     0.0000     2.0000 </r>
       <r>   -12.7180     0.0000     2.0000 </r>
       <r>   -12.6278     0.0000     2.0000 </r>
       <r>   -12.5377     0.0000     2.0000 </r>
       <r>   -12.4476     0.0000     2.0000 </r>
       <r>   -12.3574     0.0000     2.0000 </r>
       <r>   -12.2673     0.0000     2.0000 </r>
       <r>   -12.1772     0.0000     2.0000 </r>
       <r>   -12.0871     0.0000     2.0000 </r>
       <r>   -11.9969     0.0000     2.0000 </r>
       <r>   -11.9068     0.0000     2.0000 </r>
       <r>   -11.8167     0.0000     2.0000 </r>
       <r>   -11.7266     0.0000     2.0000 </r>
       <r>   -11.6364     0.0000     2.0000 </r>
       <r>   -11.5463     0.0000     2.0000 </r>
       <r>   -11.4562     0.0000     2.0000 </r>
       <r>   -11.3660     0.0000     2.0000 </r>
       <r>   -11.2759     0.0000     2.0000 </r>
       <r>   -11.1858     0.0000     2.0000 </r>
       <r>   -11.0957     0.0000     2.0000 </r>
       <r>   -11.0055     0.0000     2.0000 </r>
       <r>   -10.9154     0.0000     2.0000 </r>
       <r>   -10.8253     0.0000     2.0000 </r>
       <r>   -10.7352     0.0000     2.0000 </r>
       <r>   -10.6450     0.0000     2.0000 </r>
       <r>   -10.5549     0.0000     2.0000 </r>
       <r>   -10.4648     0.0000     2.0000 </r>
       <r>   -10.3746     0.0000     2.0000 </r>
       <r>   -10.2845     0.0000     2.0000 </r>
       <r>   -10.1944     0.0000     2.0000 </r>
       <r>   -10.1043     0.0000     2.0000 </r>
       <r>   -10.0141     0.0000     2.0000 </r>
       <r>    -9.9240     0.0000     2.0000 </r>
       <r>    -9.8339     0.0000     2.0000 </r>
       <r>    -9.7438     0.0000     2.0000 </r>
       <r>    -9.6536     0.0000     2.0000 </r>
       <r>    -9.5635     0.0000     2.0000 </r>
       <r>    -9.4734     0.0000     2.0000 </r>
       <r>    -9.3832     0.0000     2.0000 </r>
       <r>    -9.2931     0.0007     2.0001 </r>
       <r>    -9.2030     0.0917     2.0083 </r>
       <r>    -9.1129     2.7692     2.2579 </r>
       <r>    -9.0227    19.0459     3.9745 </r>
       <r>    -8.9326    31.1729     6.7840 </r>
       <r>    -8.8425    12.3223     7.8946 </r>
       <r>    -8.7523     1.1457     7.9978 </r>
       <r>    -8.6622     0.0239     8.0000 </r>
       <r>    -8.5721     0.0001     8.0000 </r>
       <r>    -8.4820     0.0000     8.0000 </r>
       <r>    -8.3918     0.0000     8.0000 </r>
       <r>    -8.3017     0.0000     8.0000 </r>
       <r>    -8.2116     0.0000     8.0000 </r>
       <r>    -8.1215     0.0000     8.0000 </r>
       <r>    -8.0313     0.0000     8.0000 </r>
       <r>    -7.9412     0.0000     8.0000 </r>
       <r>    -7.8511     0.0000     8.0000 </r>
       <r>    -7.7609     0.0000     8.0000 </r>
       <r>    -7.6708     0.0000     8.0000 </r>
       <r>    -7.5807     0.0000     8.0000 </r>
       <r>    -7.4906     0.0000     8.0000 </r>
       <r>    -7.4004     0.0000     8.0000 </r>
       <r>    -7.3103     0.0000     8.0000 </r>
       <r>    -7.2202     0.0000     8.0000 </r>
       <r>    -7.1301     0.0000     8.0000 </r>
       <r>    -7.0399     0.0000     8.0000 </r>
       <r>    -6.9498     0.0000     8.0000 </r>
       <r>    -6.8597     0.0000     8.0000 </r>
       <r>    -6.7695     0.0000     8.0000 </r>
       <r>    -6.6794     0.0000     8.0000 </r>
       <r>    -6.5893     0.0000     8.0000 </r>
       <r>    -6.4992     0.0000     8.0000 </r>
       <r>    -6.4090     0.0000     8.0000 </r>
       <r>    -6.3189     0.0000     8.0000 </r>
       <r>    -6.2288     0.0000     8.0000 </r>
       <r>    -6.1386     0.0000     8.0000 </r>
       <r>    -6.0485     0.0000     8.0000 </r>
       <r>    -5.9584     0.0000     8.0000 </r>
       <r>    -5.8683     0.0000     8.0000 </r>
       <r>    -5.7781     0.0000     8.0000 </r>
       <r>    -5.6880     0.0000     8.0000 </r>
       <r>    -5.5979     0.0000     8.0000 </r>
       <r>    -5.5078     0.0000     8.0000 </r>
       <r>    -5.4176     0.0000     8.0000 </r>
       <r>    -5.3275     0.0000     8.0000 </r>
       <r>    -5.2374     0.0000     8.0000 </r>
       <r>    -5.1472     0.0000     8.0000 </r>
       <r>    -5.0571     0.0000     8.0000 </r>
       <r>    -4.9670     0.0000     8.0000 </r>
       <r>    -4.8769     0.0000     8.0000 </r>
       <r>    -4.7867     0.0000     8.0000 </r>
       <r>    -4.6966     0.0000     8.0000 </r>
       <r>    -4.6065     0.0000     8.0000 </r>
       <r>    -4.5164     0.0000     8.0000 </r>
       <r>    -4.4262     0.0000     8.0000 </r>
       <r>    -4.3361     0.0000     8.0000 </r>
       <r>    -4.2460     0.0000     8.0000 </r>
       <r>    -4.1558     0.0000     8.0000 </r>
       <r>    -4.0657     0.0000     8.0000 </r>
       <r>    -3.9756     0.0000     8.0000 </r>
       <r>    -3.8855     0.0000     8.0000 </r>
       <r>    -3.7953     0.0000     8.0000 </r>
       <r>    -3.7052     0.0000     8.0000 </r>
       <r>    -3.6151     0.0000     8.0000 </r>
       <r>    -3.5250     0.0000     8.0000 </r>
       <r>    -3.4348     0.0000     8.0000 </r>
       <r>    -3.3447     0.0000     8.0000 </r>
       <r>    -3.2546     0.0000     8.0000 </r>
       <r>    -3.1644     0.0000     8.0000 </r>
       <r>    -3.0743     0.0000     8.0000 </r>
       <r>    -2.9842     0.0000     8.0000 </r>
       <r>    -2.8941     0.0000     8.0000 </r>
       <r>    -2.8039     0.0000     8.0000 </r>
       <r>    -2.7138     0.0000     8.0000 </r>
       <r>    -2.6237     0.0000     8.0000 </r>
       <r>    -2.5335     0.0000     8.0000 </r>
       <r>    -2.4434     0.0000     8.0000 </r>
       <r>    -2.3533     0.0000     8.0000 </r>
       <r>    -2.2632     0.0000     8.0000 </r>
       <r>    -2.1730     0.0000     8.0000 </r>
       <r>    -2.0829     0.0000     8.0000 </r>
       <r>    -1.9928     0.0000     8.0000 </r>
       <r>    -1.9027     0.0000     8.0000 </r>
       <r>    -1.8125     0.0000     8.0000 </r>
       <r>    -1.7224     0.0000     8.0000 </r>
       <r>    -1.6323     0.0000     8.0000 </r>
       <r>    -1.5421     0.0000     8.0000 </r>
       <r>    -1.4520     0.0000     8.0000 </r>
       <r>    -1.3619     0.0000     8.0000 </r>
       <r>    -1.2718     0.0000     8.0000 </r>
       <r>    -1.1816     0.0000     8.0000 </r>
       <r>    -1.0915     0.0000     8.0000 </r>
       <r>    -1.0014     0.0000     8.0000 </r>
       <r>    -0.9113     0.0000     8.0000 </r>
       <r>    -0.8211     0.0000     8.0000 </r>
       <r>    -0.7310     0.0000     8.0000 </r>
       <r>    -0.6409     0.0000     8.0000 </r>
       <r>    -0.5507     0.0013     8.0001 </r>
       <r>    -0.4606     0.0483     8.0045 </r>
       <r>    -0.3705     0.5250     8.0518 </r>
       <r>    -0.2804     2.2279     8.2526 </r>
       <r>    -0.1902     4.5171     8.6597 </r>
       <r>    -0.1001     5.1643     9.1251 </r>
       <r>    -0.0100     4.5479     9.5350 </r>
       <r>     0.0802     3.5282     9.8530 </r>
       <r>     0.1703     3.2657    10.1474 </r>
       <r>     0.2604     6.1974    10.7059 </r>
       <r>     0.3505    10.2066    11.6258 </r>
       <r>     0.4407    10.1409    12.5398 </r>
       <r>     0.5308     5.8065    13.0631 </r>
       <r>     0.6209     4.3761    13.4575 </r>
       <r>     0.7110     4.3380    13.8485 </r>
       <r>     0.8012     1.5397    13.9873 </r>
       <r>     0.8913     0.1384    13.9997 </r>
       <r>     0.9814     0.0028    14.0000 </r>
       <r>     1.0716     0.0000    14.0000 </r>
       <r>     1.1617     0.0000    14.0000 </r>
       <r>     1.2518     0.0000    14.0000 </r>
       <r>     1.3419     0.0000    14.0000 </r>
       <r>     1.4321     0.0000    14.0000 </r>
       <r>     1.5222     0.0000    14.0000 </r>
       <r>     1.6123     0.0000    14.0000 </r>
       <r>     1.7024     0.0000    14.0000 </r>
       <r>     1.7926     0.0000    14.0000 </r>
       <r>     1.8827     0.0000    14.0000 </r>
      </set>
     </set>
    </array>
   </total>
  </dos>
 </calculation>
 <structure name="finalpos" >
  <crystal>
   <varray name="basis" >
    <v>       9.49839973       0.00000000       0.00000000 </v>
    <v>       0.00000000       9.49839973       0.00000000 </v>
    <v>       0.00000000       0.00000000      24.50289917 </v>
   </varray>
   <i name="volume">   2210.64170109 </i>
   <varray name="rec_basis" >
    <v>       0.10528089       0.00000000       0.00000000 </v>
    <v>       0.00000000       0.10528089       0.00000000 </v>
    <v>       0.00000000       0.00000000       0.04081150 </v>
   </varray>
  </crystal>
  <varray name="positions" >
   <v>       0.50000000       0.50000000       0.42703552 </v>
  </varray>
  <varray name="selective"  type="logical" >
   <v type="logical" >  T  T  T </v>
  </varray>
  <nose>
   <v>      -3.00000000       0.00000000       0.00010000       0.00010000 </v>
  </nose>
 </structure>
</modeling>
