   1   1   0   0
  0.2210642E+04  0.9498400E-09  0.9498400E-09  0.2450290E-08  0.5000000E-15
  1.000000000000000E-004
  CAR 
 ni3al                                   
      1.88494935    -25.15538516  301     -8.96074302      1.00000000
    -25.155  0.0000E+00  0.0000E+00
    -25.065  0.0000E+00  0.0000E+00
    -24.975  0.0000E+00  0.0000E+00
    -24.885  0.0000E+00  0.0000E+00
    -24.795  0.0000E+00  0.0000E+00
    -24.705  0.0000E+00  0.0000E+00
    -24.615  0.0000E+00  0.0000E+00
    -24.524  0.0000E+00  0.0000E+00
    -24.434  0.7470E-11  0.6733E-12
    -24.344  0.3794E-07  0.3420E-08
    -24.254  0.3949E-04  0.3563E-05
    -24.164  0.8587E-02  0.7775E-03
    -24.074  0.4017E+00  0.3698E-01
    -23.984  0.4218E+01  0.4172E+00
    -23.894  0.1043E+02  0.1357E+01
    -23.803  0.6223E+01  0.1918E+01
    -23.713  0.8832E+00  0.1997E+01
    -23.623  0.2852E-01  0.2000E+01
    -23.533  0.2002E-03  0.2000E+01
    -23.443  0.2955E-06  0.2000E+01
    -23.353  0.8979E-10  0.2000E+01
    -23.263  0.4927E-14  0.2000E+01
    -23.172  0.0000E+00  0.2000E+01
    -23.082  0.0000E+00  0.2000E+01
    -22.992  0.0000E+00  0.2000E+01
    -22.902  0.0000E+00  0.2000E+01
    -22.812  0.0000E+00  0.2000E+01
    -22.722  0.0000E+00  0.2000E+01
    -22.632  0.0000E+00  0.2000E+01
    -22.541  0.0000E+00  0.2000E+01
    -22.451  0.0000E+00  0.2000E+01
    -22.361  0.0000E+00  0.2000E+01
    -22.271  0.0000E+00  0.2000E+01
    -22.181  0.0000E+00  0.2000E+01
    -22.091  0.0000E+00  0.2000E+01
    -22.001  0.0000E+00  0.2000E+01
    -21.911  0.0000E+00  0.2000E+01
    -21.820  0.0000E+00  0.2000E+01
    -21.730  0.0000E+00  0.2000E+01
    -21.640  0.0000E+00  0.2000E+01
    -21.550  0.0000E+00  0.2000E+01
    -21.460  0.0000E+00  0.2000E+01
    -21.370  0.0000E+00  0.2000E+01
    -21.280  0.0000E+00  0.2000E+01
    -21.189  0.0000E+00  0.2000E+01
    -21.099  0.0000E+00  0.2000E+01
    -21.009  0.0000E+00  0.2000E+01
    -20.919  0.0000E+00  0.2000E+01
    -20.829  0.0000E+00  0.2000E+01
    -20.739  0.0000E+00  0.2000E+01
    -20.649  0.0000E+00  0.2000E+01
    -20.559  0.0000E+00  0.2000E+01
    -20.468  0.0000E+00  0.2000E+01
    -20.378  0.0000E+00  0.2000E+01
    -20.288  0.0000E+00  0.2000E+01
    -20.198  0.0000E+00  0.2000E+01
    -20.108  0.0000E+00  0.2000E+01
    -20.018  0.0000E+00  0.2000E+01
    -19.928  0.0000E+00  0.2000E+01
    -19.837  0.0000E+00  0.2000E+01
    -19.747  0.0000E+00  0.2000E+01
    -19.657  0.0000E+00  0.2000E+01
    -19.567  0.0000E+00  0.2000E+01
    -19.477  0.0000E+00  0.2000E+01
    -19.387  0.0000E+00  0.2000E+01
    -19.297  0.0000E+00  0.2000E+01
    -19.207  0.0000E+00  0.2000E+01
    -19.116  0.0000E+00  0.2000E+01
    -19.026  0.0000E+00  0.2000E+01
    -18.936  0.0000E+00  0.2000E+01
    -18.846  0.0000E+00  0.2000E+01
    -18.756  0.0000E+00  0.2000E+01
    -18.666  0.0000E+00  0.2000E+01
    -18.576  0.0000E+00  0.2000E+01
    -18.485  0.0000E+00  0.2000E+01
    -18.395  0.0000E+00  0.2000E+01
    -18.305  0.0000E+00  0.2000E+01
    -18.215  0.0000E+00  0.2000E+01
    -18.125  0.0000E+00  0.2000E+01
    -18.035  0.0000E+00  0.2000E+01
    -17.945  0.0000E+00  0.2000E+01
    -17.854  0.0000E+00  0.2000E+01
    -17.764  0.0000E+00  0.2000E+01
    -17.674  0.0000E+00  0.2000E+01
    -17.584  0.0000E+00  0.2000E+01
    -17.494  0.0000E+00  0.2000E+01
    -17.404  0.0000E+00  0.2000E+01
    -17.314  0.0000E+00  0.2000E+01
    -17.224  0.0000E+00  0.2000E+01
    -17.133  0.0000E+00  0.2000E+01
    -17.043  0.0000E+00  0.2000E+01
    -16.953  0.0000E+00  0.2000E+01
    -16.863  0.0000E+00  0.2000E+01
    -16.773  0.0000E+00  0.2000E+01
    -16.683  0.0000E+00  0.2000E+01
    -16.593  0.0000E+00  0.2000E+01
    -16.502  0.0000E+00  0.2000E+01
    -16.412  0.0000E+00  0.2000E+01
    -16.322  0.0000E+00  0.2000E+01
    -16.232  0.0000E+00  0.2000E+01
    -16.142  0.0000E+00  0.2000E+01
    -16.052  0.0000E+00  0.2000E+01
    -15.962  0.0000E+00  0.2000E+01
    -15.872  0.0000E+00  0.2000E+01
    -15.781  0.0000E+00  0.2000E+01
    -15.691  0.0000E+00  0.2000E+01
    -15.601  0.0000E+00  0.2000E+01
    -15.511  0.0000E+00  0.2000E+01
    -15.421  0.0000E+00  0.2000E+01
    -15.331  0.0000E+00  0.2000E+01
    -15.241  0.0000E+00  0.2000E+01
    -15.150  0.0000E+00  0.2000E+01
    -15.060  0.0000E+00  0.2000E+01
    -14.970  0.0000E+00  0.2000E+01
    -14.880  0.0000E+00  0.2000E+01
    -14.790  0.0000E+00  0.2000E+01
    -14.700  0.0000E+00  0.2000E+01
    -14.610  0.0000E+00  0.2000E+01
    -14.520  0.0000E+00  0.2000E+01
    -14.429  0.0000E+00  0.2000E+01
    -14.339  0.0000E+00  0.2000E+01
    -14.249  0.0000E+00  0.2000E+01
    -14.159  0.0000E+00  0.2000E+01
    -14.069  0.0000E+00  0.2000E+01
    -13.979  0.0000E+00  0.2000E+01
    -13.889  0.0000E+00  0.2000E+01
    -13.798  0.0000E+00  0.2000E+01
    -13.708  0.0000E+00  0.2000E+01
    -13.618  0.0000E+00  0.2000E+01
    -13.528  0.0000E+00  0.2000E+01
    -13.438  0.0000E+00  0.2000E+01
    -13.348  0.0000E+00  0.2000E+01
    -13.258  0.0000E+00  0.2000E+01
    -13.168  0.0000E+00  0.2000E+01
    -13.077  0.0000E+00  0.2000E+01
    -12.987  0.0000E+00  0.2000E+01
    -12.897  0.0000E+00  0.2000E+01
    -12.807  0.0000E+00  0.2000E+01
    -12.717  0.0000E+00  0.2000E+01
    -12.627  0.0000E+00  0.2000E+01
    -12.537  0.0000E+00  0.2000E+01
    -12.446  0.0000E+00  0.2000E+01
    -12.356  0.0000E+00  0.2000E+01
    -12.266  0.0000E+00  0.2000E+01
    -12.176  0.0000E+00  0.2000E+01
    -12.086  0.0000E+00  0.2000E+01
    -11.996  0.0000E+00  0.2000E+01
    -11.906  0.0000E+00  0.2000E+01
    -11.815  0.0000E+00  0.2000E+01
    -11.725  0.0000E+00  0.2000E+01
    -11.635  0.0000E+00  0.2000E+01
    -11.545  0.0000E+00  0.2000E+01
    -11.455  0.0000E+00  0.2000E+01
    -11.365  0.0000E+00  0.2000E+01
    -11.275  0.0000E+00  0.2000E+01
    -11.185  0.0000E+00  0.2000E+01
    -11.094  0.0000E+00  0.2000E+01
    -11.004  0.0000E+00  0.2000E+01
    -10.914  0.0000E+00  0.2000E+01
    -10.824  0.0000E+00  0.2000E+01
    -10.734  0.0000E+00  0.2000E+01
    -10.644  0.0000E+00  0.2000E+01
    -10.554  0.0000E+00  0.2000E+01
    -10.463  0.0000E+00  0.2000E+01
    -10.373  0.0000E+00  0.2000E+01
    -10.283  0.0000E+00  0.2000E+01
    -10.193  0.0000E+00  0.2000E+01
    -10.103  0.0000E+00  0.2000E+01
    -10.013  0.0000E+00  0.2000E+01
     -9.923  0.0000E+00  0.2000E+01
     -9.833  0.0000E+00  0.2000E+01
     -9.742  0.0000E+00  0.2000E+01
     -9.652  0.0000E+00  0.2000E+01
     -9.562  0.2217E-13  0.2000E+01
     -9.472  0.3496E-09  0.2000E+01
     -9.382  0.1098E-05  0.2000E+01
     -9.292  0.7103E-03  0.2000E+01
     -9.202  0.9670E-01  0.2009E+01
     -9.111  0.2865E+01  0.2267E+01
     -9.021  0.1934E+02  0.4010E+01
     -8.931  0.3108E+02  0.6812E+01
     -8.841  0.1206E+02  0.7899E+01
     -8.751  0.1100E+01  0.7998E+01
     -8.661  0.2248E-01  0.8000E+01
     -8.571  0.9879E-04  0.8000E+01
     -8.481  0.9059E-07  0.8000E+01
     -8.390  0.1702E-10  0.8000E+01
     -8.300  0.0000E+00  0.8000E+01
     -8.210  0.0000E+00  0.8000E+01
     -8.120  0.0000E+00  0.8000E+01
     -8.030  0.0000E+00  0.8000E+01
     -7.940  0.0000E+00  0.8000E+01
     -7.850  0.0000E+00  0.8000E+01
     -7.759  0.0000E+00  0.8000E+01
     -7.669  0.0000E+00  0.8000E+01
     -7.579  0.0000E+00  0.8000E+01
     -7.489  0.0000E+00  0.8000E+01
     -7.399  0.0000E+00  0.8000E+01
     -7.309  0.0000E+00  0.8000E+01
     -7.219  0.0000E+00  0.8000E+01
     -7.128  0.0000E+00  0.8000E+01
     -7.038  0.0000E+00  0.8000E+01
     -6.948  0.0000E+00  0.8000E+01
     -6.858  0.0000E+00  0.8000E+01
     -6.768  0.0000E+00  0.8000E+01
     -6.678  0.0000E+00  0.8000E+01
     -6.588  0.0000E+00  0.8000E+01
     -6.498  0.0000E+00  0.8000E+01
     -6.407  0.0000E+00  0.8000E+01
     -6.317  0.0000E+00  0.8000E+01
     -6.227  0.0000E+00  0.8000E+01
     -6.137  0.0000E+00  0.8000E+01
     -6.047  0.0000E+00  0.8000E+01
     -5.957  0.0000E+00  0.8000E+01
     -5.867  0.0000E+00  0.8000E+01
     -5.776  0.0000E+00  0.8000E+01
     -5.686  0.0000E+00  0.8000E+01
     -5.596  0.0000E+00  0.8000E+01
     -5.506  0.0000E+00  0.8000E+01
     -5.416  0.0000E+00  0.8000E+01
     -5.326  0.0000E+00  0.8000E+01
     -5.236  0.0000E+00  0.8000E+01
     -5.146  0.0000E+00  0.8000E+01
     -5.055  0.0000E+00  0.8000E+01
     -4.965  0.0000E+00  0.8000E+01
     -4.875  0.0000E+00  0.8000E+01
     -4.785  0.0000E+00  0.8000E+01
     -4.695  0.0000E+00  0.8000E+01
     -4.605  0.0000E+00  0.8000E+01
     -4.515  0.0000E+00  0.8000E+01
     -4.424  0.0000E+00  0.8000E+01
     -4.334  0.0000E+00  0.8000E+01
     -4.244  0.0000E+00  0.8000E+01
     -4.154  0.0000E+00  0.8000E+01
     -4.064  0.0000E+00  0.8000E+01
     -3.974  0.0000E+00  0.8000E+01
     -3.884  0.0000E+00  0.8000E+01
     -3.794  0.0000E+00  0.8000E+01
     -3.703  0.0000E+00  0.8000E+01
     -3.613  0.0000E+00  0.8000E+01
     -3.523  0.0000E+00  0.8000E+01
     -3.433  0.0000E+00  0.8000E+01
     -3.343  0.0000E+00  0.8000E+01
     -3.253  0.0000E+00  0.8000E+01
     -3.163  0.0000E+00  0.8000E+01
     -3.072  0.0000E+00  0.8000E+01
     -2.982  0.0000E+00  0.8000E+01
     -2.892  0.0000E+00  0.8000E+01
     -2.802  0.0000E+00  0.8000E+01
     -2.712  0.0000E+00  0.8000E+01
     -2.622  0.0000E+00  0.8000E+01
     -2.532  0.0000E+00  0.8000E+01
     -2.442  0.0000E+00  0.8000E+01
     -2.351  0.0000E+00  0.8000E+01
     -2.261  0.0000E+00  0.8000E+01
     -2.171  0.0000E+00  0.8000E+01
     -2.081  0.0000E+00  0.8000E+01
     -1.991  0.0000E+00  0.8000E+01
     -1.901  0.0000E+00  0.8000E+01
     -1.811  0.0000E+00  0.8000E+01
     -1.720  0.0000E+00  0.8000E+01
     -1.630  0.0000E+00  0.8000E+01
     -1.540  0.0000E+00  0.8000E+01
     -1.450  0.0000E+00  0.8000E+01
     -1.360  0.0000E+00  0.8000E+01
     -1.270  0.0000E+00  0.8000E+01
     -1.180  0.0000E+00  0.8000E+01
     -1.089  0.0000E+00  0.8000E+01
     -0.999  0.0000E+00  0.8000E+01
     -0.909  0.2310E-15  0.8000E+01
     -0.819  0.3562E-11  0.8000E+01
     -0.729  0.1272E-07  0.8000E+01
     -0.639  0.9374E-05  0.8000E+01
     -0.549  0.1474E-02  0.8000E+01
     -0.459  0.5377E-01  0.8005E+01
     -0.368  0.5614E+00  0.8056E+01
     -0.278  0.2313E+01  0.8264E+01
     -0.188  0.4574E+01  0.8676E+01
     -0.098  0.5146E+01  0.9140E+01
     -0.008  0.4514E+01  0.9547E+01
      0.082  0.3468E+01  0.9860E+01
      0.172  0.3253E+01  0.1015E+02
      0.263  0.6277E+01  0.1072E+02
      0.353  0.1032E+02  0.1165E+02
      0.443  0.1011E+02  0.1256E+02
      0.533  0.5663E+01  0.1307E+02
      0.623  0.4362E+01  0.1346E+02
      0.713  0.4316E+01  0.1385E+02
      0.803  0.1506E+01  0.1399E+02
      0.893  0.1335E+00  0.1400E+02
      0.984  0.2713E-02  0.1400E+02
      1.074  0.1197E-04  0.1400E+02
      1.164  0.1111E-07  0.1400E+02
      1.254  0.2125E-11  0.1400E+02
      1.344  0.0000E+00  0.1400E+02
      1.434  0.0000E+00  0.1400E+02
      1.524  0.0000E+00  0.1400E+02
      1.615  0.0000E+00  0.1400E+02
      1.705  0.0000E+00  0.1400E+02
      1.795  0.0000E+00  0.1400E+02
      1.885  0.0000E+00  0.1400E+02
