    1    1    1    1
  0.2210642E+04  0.9498400E-09  0.9498400E-09  0.2450290E-08  0.5000000E-15
  1.000000000000000E-004
  CAR 
 ni3al                                   
      6      6      7
 
  0.0000000E+00  0.0000000E+00  0.0000000E+00  0.6250000E-01
      1        -23.926279   1.000000
      2         -8.991211   0.666722
      3         -8.991187   0.666599
      4         -8.991183   0.666579
      5         -0.331054   0.000000
      6          0.147870   0.000000
      7          0.216662   0.000000
 
  0.2500000E+00  0.0000000E+00  0.0000000E+00  0.2500000E+00
      1        -23.926272   1.000000
      2         -8.991211   0.666721
      3         -8.991196   0.666646
      4         -8.991184   0.666583
      5         -0.240677   0.000000
      6          0.248798   0.000000
      7          0.319300   0.000000
 
  0.5000000E+00  0.0000000E+00  0.0000000E+00  0.1250000E+00
      1        -23.926279   1.000000
      2         -8.991212   0.666730
      3         -8.991205   0.666691
      4         -8.991183   0.666581
      5         -0.081482   0.000000
      6          0.320194   0.000000
      7          0.555316   0.000000
 
  0.2500000E+00  0.2500000E+00  0.0000000E+00  0.2500000E+00
      1        -23.926269   1.000000
      2         -8.991210   0.666719
      3         -8.991196   0.666647
      4         -8.991193   0.666633
      5         -0.151203   0.000000
      6          0.349496   0.000000
      7          0.421803   0.000000
 
  0.5000000E+00  0.2500000E+00  0.0000000E+00  0.2500000E+00
      1        -23.926268   1.000000
      2         -8.991212   0.666728
      3         -8.991204   0.666686
      4         -8.991194   0.666636
      5          0.004132   0.000000
      6          0.419425   0.000000
      7          0.655843   0.000000
 
  0.5000000E+00  0.5000000E+00  0.0000000E+00  0.6250000E-01
      1        -23.926266   1.000000
      2         -8.991213   0.666732
      3         -8.991204   0.666686
      4         -8.991203   0.666680
      5          0.143707   0.000000
      6          0.643493   0.000000
      7          0.643493   0.000000
