srun: ROUTE: split_hostlist: hl=b05r3n10 tree_width 0
 running on    4 total cores
 distrk:  each k-point on    1 cores,    4 groups
 distr:  one band on    1 cores,    1 groups
 HIP runtime initialized ...    4 DCUs will be used
 Created    4 streams on each DCU
 vasp.6.3.2 27Jun22 (build Mar 15 2023 15:45:48) complex                        
  
 POSCAR found type information on POSCAR O 
 POSCAR found :  1 types and       1 ions
 Reading from existing POTCAR
 scaLAPACK will be used selectively (only on CPU)
 Reading from existing POTCAR
 -----------------------------------------------------------------------------
|                                                                             |
|               ----> ADVICE to this user running VASP <----                  |
|                                                                             |
|     You have a (more or less) 'small supercell' and for smaller cells       |
|     it is recommended to use the reciprocal-space projection scheme!        |
|     The real-space optimization is not efficient for small cells and it     |
|     is also less accurate ...                                               |
|     Therefore, set LREAL=.FALSE. in the INCAR file.                         |
|                                                                             |
 -----------------------------------------------------------------------------

 LDA part: xc-table for Pade appr. of Perdew
 POSCAR found type information on POSCAR O 
 POSCAR found :  1 types and       1 ions
 Optimize memory usage for KPAR
 POSCAR, INCAR and KPOINTS ok, starting setup
 FFT: planning ... GRIDC
 FFT: planning ... GRID_SOFT
 FFT: planning ... GRID
 WAVECAR not read
 entering main loop
       N       E                     dE             d eps       ncg     rms          rms(c)
DAV:   1     0.490957147734E+02    0.49096E+02   -0.11047E+03   126   0.382E+02
DAV:   2     0.868712029916E+01   -0.40409E+02   -0.39124E+02   168   0.589E+01
DAV:   3     0.166041927824E+00   -0.85211E+01   -0.85196E+01    91   0.447E+01
DAV:   4    -0.158917877917E+00   -0.32496E+00   -0.19029E+00    84   0.933E+00
DAV:   5    -0.166907403660E+00   -0.79895E-02   -0.79318E-02    98   0.141E+00    0.673E-02
DAV:   6    -0.167065626399E+00   -0.15822E-03   -0.25499E-03   105   0.320E-01    0.418E-02
DAV:   7    -0.167199861578E+00   -0.13424E-03   -0.13037E-04   112   0.939E-02    0.354E-02
DAV:   8    -0.167233184244E+00   -0.33323E-04   -0.59449E-05   112   0.292E-02    0.463E-02
DAV:   9    -0.167228316873E+00    0.48674E-05   -0.69926E-06   105   0.287E-02    0.804E-03
DAV:  10    -0.167258163811E+00   -0.29847E-04   -0.48096E-06    84   0.224E-02    0.238E-03
DAV:  11    -0.167259331164E+00   -0.11674E-05   -0.55218E-07   126   0.499E-03    0.961E-04
DAV:  12    -0.167260180378E+00   -0.84921E-06   -0.72904E-08   105   0.233E-03
   1 F= -.16726018E+00 E0= -.90129021E-01  d E =-.154262E+00
 writing wavefunctions
 PROFILE, used timers:     225
