<?xml version="1.0" encoding="ISO-8859-1"?>
<modeling>
 <generator>
  <i name="program" type="string">vasp </i>
  <i name="version" type="string">6.3.2  </i>
  <i name="subversion" type="string">27Jun22 (build Mar 15 2023 15:45:48) complex                          parallel </i>
  <i name="platform" type="string">LinuxIFC </i>
  <i name="date" type="string">2025 09 05 </i>
  <i name="time" type="string">17:02:07 </i>
 </generator>
 <incar>
  <i type="string" name="SYSTEM">ni3al</i>
  <i type="int" name="ISTART">     0</i>
  <i type="string" name="PREC">Accurate</i>
  <i type="string" name="ALGO">Normal</i>
  <i name="AMIN">      0.01000000</i>
  <i type="int" name="ICHARG">     2</i>
  <i type="int" name="NELM">   150</i>
  <i type="int" name="IBRION">    -1</i>
  <i name="EDIFF">      0.00000100</i>
  <i type="int" name="NSW">     0</i>
  <i type="int" name="ISIF">     2</i>
  <i name="ENCUT">    530.00000000</i>
  <i type="string" name="LREAL">Auto</i>
  <i type="int" name="ISMEAR">     0</i>
  <i name="SIGMA">      0.10000000</i>
  <i type="int" name="LMAXMIX">     4</i>
  <i type="logical" name="LWAVE"> T  </i>
  <i type="logical" name="LCHARG"> T  </i>
 </incar>
 <primitive_cell>
  <structure name="primitive_cell" >
   <crystal>
    <varray name="basis" >
     <v>       9.49839973       0.00000000       0.00000000 </v>
     <v>       0.00000000       9.49839973       0.00000000 </v>
     <v>       0.00000000       0.00000000      24.50289917 </v>
    </varray>
    <i name="volume">   2210.64170109 </i>
    <varray name="rec_basis" >
     <v>       0.10528089       0.00000000       0.00000000 </v>
     <v>       0.00000000       0.10528089       0.00000000 </v>
     <v>       0.00000000       0.00000000       0.04081150 </v>
    </varray>
   </crystal>
   <varray name="positions" >
    <v>       0.49445739       0.50556100       0.41060090 </v>
   </varray>
  </structure>
  <varray name="primitive_index" >
   <v type="int" >        1 </v>
  </varray>
 </primitive_cell>
 <kpoints>
  <generation param="Gamma">
   <v type="int" name="divisions">       4        4        1 </v>
   <v name="usershift">      0.00000000       0.00000000       0.00000000 </v>
   <v name="genvec1">      0.25000000       0.00000000       0.00000000 </v>
   <v name="genvec2">      0.00000000       0.25000000       0.00000000 </v>
   <v name="genvec3">      0.00000000       0.00000000       1.00000000 </v>
   <v name="shift">      0.00000000       0.00000000       0.00000000 </v>
  </generation>
  <varray name="kpointlist" >
   <v>       0.00000000       0.00000000       0.00000000 </v>
   <v>       0.25000000       0.00000000       0.00000000 </v>
   <v>       0.50000000       0.00000000       0.00000000 </v>
   <v>       0.25000000       0.25000000       0.00000000 </v>
   <v>       0.50000000       0.25000000       0.00000000 </v>
   <v>       0.50000000       0.50000000       0.00000000 </v>
  </varray>
  <varray name="weights" >
   <v>       0.06250000 </v>
   <v>       0.25000000 </v>
   <v>       0.12500000 </v>
   <v>       0.25000000 </v>
   <v>       0.25000000 </v>
   <v>       0.06250000 </v>
  </varray>
 </kpoints>
 <parameters>
  <separator name="general" >
   <i type="string" name="SYSTEM">ni3al</i>
   <i type="logical" name="LCOMPAT"> F  </i>
  </separator>
  <separator name="electronic" >
   <i type="string" name="PREC">accura</i>
   <i name="ENMAX">    530.00000000</i>
   <i name="ENAUG">    605.39200000</i>
   <i name="EDIFF">      0.00000100</i>
   <i type="int" name="IALGO">    38</i>
   <i type="int" name="IWAVPR">    10</i>
   <i type="int" name="NBANDS">     7</i>
   <i type="int" name="NBANDSLOW">    -1</i>
   <i type="int" name="NBANDSHIGH">    -1</i>
   <i name="NELECT">      6.00000000</i>
   <i type="int" name="TURBO">     0</i>
   <i type="int" name="IRESTART">     0</i>
   <i type="int" name="NREBOOT">     0</i>
   <i type="int" name="NMIN">     0</i>
   <i name="EREF">      0.00000000</i>
   <separator name="electronic smearing" >
    <i type="int" name="ISMEAR">     0</i>
    <i name="SIGMA">      0.10000000</i>
    <i name="KSPACING">      0.50000000</i>
    <i type="logical" name="KGAMMA"> T  </i>
    <i type="logical" name="KBLOWUP"> T  </i>
   </separator>
   <separator name="electronic projectors" >
    <i type="logical" name="LREAL"> T  </i>
    <v name="ROPT">     -0.00025000</v>
    <i type="int" name="LMAXPAW">  -100</i>
    <i type="int" name="LMAXMIX">     4</i>
    <i type="logical" name="NLSPLINE"> F  </i>
   </separator>
   <separator name="electronic startup" >
    <i type="int" name="ISTART">     0</i>
    <i type="int" name="ICHARG">     2</i>
    <i type="int" name="INIWAV">     1</i>
   </separator>
   <separator name="electronic spin" >
    <i type="int" name="ISPIN">     1</i>
    <i type="logical" name="LNONCOLLINEAR"> F  </i>
    <v name="MAGMOM">      1.00000000</v>
    <i name="NUPDOWN">     -1.00000000</i>
    <i type="logical" name="LSORBIT"> F  </i>
    <v name="SAXIS">      0.00000000      0.00000000      1.00000000</v>
    <i type="logical" name="LSPIRAL"> F  </i>
    <v name="QSPIRAL">      0.00000000      0.00000000      0.00000000</v>
    <i type="logical" name="LZEROZ"> F  </i>
   </separator>
   <separator name="electronic exchange-correlation" >
    <i type="logical" name="LASPH"> F  </i>
    <i type="logical" name="LMETAGGA"> F  </i>
   </separator>
   <separator name="electronic convergence" >
    <i type="int" name="NELM">   150</i>
    <i type="int" name="NELMDL">    -5</i>
    <i type="int" name="NELMIN">     2</i>
    <i name="ENINI">    530.00000000</i>
    <separator name="electronic convergence detail" >
     <i type="logical" name="LDIAG"> T  </i>
     <i type="logical" name="LSUBROT"> F  </i>
     <i name="WEIMIN">      0.00000000</i>
     <i name="EBREAK">      0.00000004</i>
     <i name="DEPER">      0.30000000</i>
     <i type="int" name="NRMM">     4</i>
     <i name="TIME">      0.40000000</i>
    </separator>
   </separator>
   <separator name="electronic mixer" >
    <i name="AMIX">      0.40000000</i>
    <i name="BMIX">      1.00000000</i>
    <i name="AMIN">      0.01000000</i>
    <i name="AMIX_MAG">      1.60000000</i>
    <i name="BMIX_MAG">      1.00000000</i>
    <separator name="electronic mixer details" >
     <i type="int" name="IMIX">     4</i>
     <i type="logical" name="MIXFIRST"> F  </i>
     <i type="int" name="MAXMIX">   -45</i>
     <i name="WC">    100.00000000</i>
     <i type="int" name="INIMIX">     1</i>
     <i type="int" name="MIXPRE">     1</i>
     <i type="int" name="MREMOVE">     5</i>
    </separator>
   </separator>
   <separator name="electronic dipolcorrection" >
    <i type="logical" name="LDIPOL"> F  </i>
    <i type="logical" name="LMONO"> F  </i>
    <i type="int" name="IDIPOL">     0</i>
    <i name="EPSILON">      1.00000000</i>
    <v name="DIPOL">   -100.00000000   -100.00000000   -100.00000000</v>
    <i name="EFIELD">      0.00000000</i>
   </separator>
  </separator>
  <separator name="grids" >
   <i type="int" name="NGX">    72</i>
   <i type="int" name="NGY">    72</i>
   <i type="int" name="NGZ">   192</i>
   <i type="int" name="NGXF">   144</i>
   <i type="int" name="NGYF">   144</i>
   <i type="int" name="NGZF">   384</i>
   <i type="logical" name="ADDGRID"> F  </i>
  </separator>
  <separator name="ionic" >
   <i type="int" name="NSW">     0</i>
   <i type="int" name="IBRION">    -1</i>
   <i type="int" name="MDALGO">     0</i>
   <i type="int" name="ISIF">     2</i>
   <i name="PSTRESS">      0.00000000</i>
   <i name="EDIFFG">      0.00001000</i>
   <i type="int" name="NFREE">     0</i>
   <i name="POTIM">      0.50000000</i>
   <i name="SMASS">     -3.00000000</i>
   <i name="SCALEE">      1.00000000</i>
  </separator>
  <separator name="ionic md" >
   <i name="TEBEG">      0.00010000</i>
   <i name="TEEND">      0.00010000</i>
   <i type="int" name="NBLOCK">     1</i>
   <i type="int" name="KBLOCK">     1</i>
   <i type="int" name="NPACO">   256</i>
   <i name="APACO">     10.00000000</i>
  </separator>
  <separator name="symmetry" >
   <i type="int" name="ISYM">     2</i>
   <i name="SYMPREC">      0.00001000</i>
  </separator>
  <separator name="dos" >
   <i type="int" name="LORBIT">     0</i>
   <v name="RWIGS">     -1.00000000</v>
   <i type="int" name="NEDOS">   301</i>
   <i name="EMIN">     10.00000000</i>
   <i name="EMAX">    -10.00000000</i>
   <i name="EFERMI">      0.00000000</i>
  </separator>
  <separator name="writing" >
   <i type="int" name="NWRITE">     2</i>
   <i type="logical" name="LWAVE"> T  </i>
   <i type="logical" name="LDOWNSAMPLE"> F  </i>
   <i type="logical" name="LCHARG"> T  </i>
   <i type="logical" name="LPARD"> F  </i>
   <i type="logical" name="LVTOT"> F  </i>
   <i type="logical" name="LVHAR"> F  </i>
   <i type="logical" name="LELF"> F  </i>
   <i type="logical" name="LOPTICS"> F  </i>
   <v name="STM">      0.00000000      0.00000000      0.00000000      0.00000000      0.00000000      0.00000000      0.00000000</v>
  </separator>
  <separator name="performance" >
   <i type="int" name="NPAR">     1</i>
   <i type="int" name="NSIM">     4</i>
   <i type="int" name="NBLK">    -1</i>
   <i type="logical" name="LPLANE"> T  </i>
   <i type="logical" name="LSCALAPACK"> T  </i>
   <i type="logical" name="LSCAAWARE"> F  </i>
   <i type="logical" name="LSCALU"> F  </i>
   <i type="logical" name="LASYNC"> F  </i>
   <i type="logical" name="LORBITALREAL"> F  </i>
  </separator>
  <separator name="miscellaneous" >
   <i type="int" name="IDIOT">     3</i>
   <i type="int" name="PHON_NSTRUCT">    -1</i>
   <i type="logical" name="LMUSIC"> F  </i>
   <v name="POMASS">     16.00000000</v>
   <v name="DARWINR">      0.00000000</v>
   <v name="DARWINV">      1.00000000</v>
   <i type="logical" name="LCORR"> T  </i>
  </separator>
  <i type="logical" name="GGA_COMPAT"> T  </i>
  <i type="logical" name="LBERRY"> F  </i>
  <i type="int" name="ICORELEVEL">     0</i>
  <i type="logical" name="LDAU"> F  </i>
  <i type="int" name="I_CONSTRAINED_M">     0</i>
  <separator name="electronic exchange-correlation" >
   <i type="string" name="GGA">--</i>
   <i type="int" name="VOSKOWN">     0</i>
   <i type="logical" name="LHFCALC"> F  </i>
   <i type="string" name="PRECFOCK"></i>
   <i type="logical" name="LSYMGRAD"> F  </i>
   <i type="logical" name="LHFONE"> F  </i>
   <i type="logical" name="LRHFCALC"> F  </i>
   <i type="logical" name="LTHOMAS"> F  </i>
   <i type="logical" name="LMODELHF"> F  </i>
   <i type="logical" name="LFOCKACE"> F  </i>
   <i name="ENCUT4O">     -1.00000000</i>
   <i type="int" name="EXXOEP">     0</i>
   <i type="int" name="FOURORBIT">     0</i>
   <i name="AEXX">      0.00000000</i>
   <i name="HFALPHA">      0.00000000</i>
   <i name="MCALPHA">      0.00000000</i>
   <i name="ALDAX">      1.00000000</i>
   <i name="AGGAX">      1.00000000</i>
   <i name="ALDAC">      1.00000000</i>
   <i name="AGGAC">      1.00000000</i>
   <i type="int" name="NKREDX">     1</i>
   <i type="int" name="NKREDY">     1</i>
   <i type="int" name="NKREDZ">     1</i>
   <i type="logical" name="SHIFTRED"> F  </i>
   <i type="logical" name="ODDONLY"> F  </i>
   <i type="logical" name="EVENONLY"> F  </i>
   <i type="int" name="LMAXFOCK">     0</i>
   <i type="int" name="NMAXFOCKAE">     0</i>
   <i type="logical" name="LFOCKAEDFT"> F  </i>
   <i name="HFSCREEN">      0.00000000</i>
   <i name="HFSCREENC">      0.00000000</i>
   <i type="int" name="NBANDSGWLOW">     0</i>
  </separator>
  <separator name="vdW DFT" >
   <i type="logical" name="LUSE_VDW"> F  </i>
   <i name="Zab_VDW">     -0.84910000</i>
   <i name="PARAM1">      0.12340000</i>
   <i name="PARAM2">      1.00000000</i>
   <i name="PARAM3">      0.00000000</i>
  </separator>
  <separator name="model GW" >
   <i type="int" name="MODEL_GW">     0</i>
   <i name="MODEL_EPS0">   1326.38502066</i>
   <i name="MODEL_ALPHA">      1.00000000</i>
  </separator>
  <separator name="linear response parameters" >
   <i type="logical" name="LEPSILON"> F  </i>
   <i type="logical" name="LRPA"> F  </i>
   <i type="logical" name="LNABLA"> F  </i>
   <i type="logical" name="LVEL"> F  </i>
   <i name="CSHIFT">      0.10000000</i>
   <i name="OMEGAMAX">     -1.00000000</i>
   <i name="DEG_THRESHOLD">      0.00200000</i>
   <i name="RTIME">     -0.10000000</i>
   <i name="WPLASMAI">      0.00000000</i>
   <v name="DFIELD">      0.00000000      0.00000000      0.00000000</v>
   <v name="WPLASMA">      0.00000000      0.00000000      0.00000000      0.00000000      0.00000000      0.00000000      0.00000000      0.00000000      0.00000000</v>
  </separator>
  <separator name="orbital magnetization" >
   <i type="logical" name="NUCIND"> F  </i>
   <v name="MAGPOS">      0.00000000      0.00000000      0.00000000</v>
   <i type="logical" name="LNICSALL"> T  </i>
   <i type="logical" name="ORBITALMAG"> F  </i>
   <i type="logical" name="LMAGBLOCH"> F  </i>
   <i type="logical" name="LCHIMAG"> F  </i>
   <i type="logical" name="LGAUGE"> T  </i>
   <i type="int" name="MAGATOM">     0</i>
   <v name="MAGDIPOL">      0.00000000      0.00000000      0.00000000</v>
   <v name="AVECCONST">      0.00000000      0.00000000      0.00000000</v>
  </separator>
  <separator name="response functions" >
   <i type="logical" name="LFINITE_TEMPERATURE"> F  </i>
   <i type="logical" name="LADDER"> F  </i>
   <i type="logical" name="LRPAFORCE"> F  </i>
   <i type="logical" name="LFXC"> F  </i>
   <i type="logical" name="LHARTREE"> T  </i>
   <i type="int" name="IBSE">     0</i>
   <v type="int" name="KPOINT">    -1     0     0     0</v>
   <i type="logical" name="LTCTC"> F  </i>
   <i type="logical" name="LTCTE"> F  </i>
   <i type="logical" name="LTETE"> F  </i>
   <i type="logical" name="LTRIPLET"> F  </i>
   <i type="logical" name="LFXCEPS"> F  </i>
   <i type="logical" name="LFXHEG"> F  </i>
   <i type="int" name="NATURALO">     2</i>
   <i type="logical" name="LHOLEGF"> F  </i>
   <i type="logical" name="L2ORDER"> F  </i>
   <i type="logical" name="LDMP1"> F  </i>
   <i type="logical" name="LMP2LT"> F  </i>
   <i type="logical" name="LSMP2LT"> F  </i>
   <i type="logical" name="LGWLF"> F  </i>
   <i name="ENCUTGW">     -2.00000000</i>
   <i name="ENCUTGWSOFT">     -2.00000000</i>
   <i name="ENCUTLF">     -1.00000000</i>
   <i type="logical" name="LESF_SPLINES"> F  </i>
   <i type="int" name="LMAXMP2">    -1</i>
   <i name="SCISSOR">      0.00000000</i>
   <i type="int" name="NOMEGA">     0</i>
   <i type="int" name="NOMEGAR">     0</i>
   <i type="int" name="NBANDSGW">    -1</i>
   <i type="int" name="NBANDSO">    -1</i>
   <i type="int" name="NBANDSV">    -1</i>
   <i type="int" name="NELMGW">     1</i>
   <i type="int" name="NELMHF">     1</i>
   <i type="int" name="DIM">     3</i>
   <i type="int" name="IESPILON">     4</i>
   <i type="int" name="ANTIRES">     0</i>
   <i name="OMEGAMAX">    -30.00000000</i>
   <i name="OMEGAMIN">    -30.00000000</i>
   <i name="OMEGATL">   -200.00000000</i>
   <i type="int" name="OMEGAGRID">     0</i>
   <i name="CSHIFT">     -0.10000000</i>
   <i type="logical" name="LSELFENERGY"> F  </i>
   <i type="logical" name="LSPECTRAL"> F  </i>
   <i type="logical" name="LSPECTRALGW"> F  </i>
   <i type="logical" name="LSINGLES"> F  </i>
   <i type="logical" name="LFERMIGW"> F  </i>
   <i type="logical" name="ODDONLYGW"> F  </i>
   <i type="logical" name="EVENONLYGW"> F  </i>
   <i type="int" name="NKREDLFX">     1</i>
   <i type="int" name="NKREDLFY">     1</i>
   <i type="int" name="NKREDLFZ">     1</i>
   <i type="int" name="MAXMEM">  2800</i>
   <i type="int" name="TELESCOPE">     0</i>
   <i type="int" name="NTAUPAR">    -1</i>
   <i type="int" name="NOMEGAPAR">    -1</i>
   <i name="DAMP_NEWTON">      0.80000001</i>
   <i name="LAMBDA">      1.00000000</i>
  </separator>
  <separator name="External order field" >
   <i name="OFIELD_KAPPA">      0.00000000</i>
   <v name="OFIELD_K">      0.00000000      0.00000000      0.00000000</v>
   <i name="OFIELD_Q6_NEAR">      0.00000000</i>
   <i name="OFIELD_Q6_FAR">      0.00000000</i>
   <i name="OFIELD_A">      0.00000000</i>
  </separator>
  <separator name="optional k-points parameters" >
   <i type="int" name="KPOINTS_OPT_MODE">     1</i>
   <i type="logical" name="LKPOINTS_OPT"> F  </i>
  </separator>
  <separator name="solvation model" >
   <i type="logical" name="LSOL"> F  </i>
  </separator>
 </parameters>
 <atominfo>
  <atoms>       1 </atoms>
  <types>       1 </types>
  <array name="atoms" >
   <dimension dim="1">ion</dimension>
   <field type="string">element</field>
   <field type="int">atomtype</field>
   <set>
    <rc><c>O </c><c>   1</c></rc>
   </set>
  </array>
  <array name="atomtypes" >
   <dimension dim="1">type</dimension>
   <field type="int">atomspertype</field>
   <field type="string">element</field>
   <field>mass</field>
   <field>valence</field>
   <field type="string">pseudopotential</field>
   <set>
    <rc><c>   1</c><c>O </c><c>     16.00000000</c><c>      6.00000000</c><c>  PAW_PBE O 08Apr2002                   </c></rc>
   </set>
  </array>
 </atominfo>
 <structure name="initialpos" >
  <crystal>
   <varray name="basis" >
    <v>       9.49839973       0.00000000       0.00000000 </v>
    <v>       0.00000000       9.49839973       0.00000000 </v>
    <v>       0.00000000       0.00000000      24.50289917 </v>
   </varray>
   <i name="volume">   2210.64170109 </i>
   <varray name="rec_basis" >
    <v>       0.10528089       0.00000000       0.00000000 </v>
    <v>       0.00000000       0.10528089       0.00000000 </v>
    <v>       0.00000000       0.00000000       0.04081150 </v>
   </varray>
  </crystal>
  <varray name="positions" >
   <v>       0.49445739       0.50556100       0.41060090 </v>
  </varray>
  <varray name="selective"  type="logical" >
   <v type="logical" >  T  T  T </v>
  </varray>
  <nose>
   <v>      -3.00000000       0.00000000       0.00010000       0.00010000 </v>
  </nose>
 </structure>
 <calculation>
  <scstep>
   <time name="dav">    1.83    0.28</time>
   <time name="total">   11.25    1.73</time>
   <energy>
    <i name="alphaZ">      0.06285707 </i>
    <i name="ewald">    -32.71394480 </i>
    <i name="hartreedc">   -340.16700132 </i>
    <i name="XCdc">     26.06853473 </i>
    <i name="pawpsdc">    346.54947689 </i>
    <i name="pawaedc">   -348.34814756 </i>
    <i name="eentropy">     -0.02002652 </i>
    <i name="bandstr">    -34.69455605 </i>
    <i name="atom">    432.35852233 </i>
    <i name="e_fr_energy">     49.09571477 </i>
    <i name="e_wo_entrp">     49.11574129 </i>
    <i name="e_0_energy">     49.10572803 </i>
   </energy>
  </scstep>
  <scstep>
   <time name="dav">    1.67    0.24</time>
   <time name="total">    1.67    0.24</time>
   <energy>
    <i name="e_fr_energy">      8.68712030 </i>
    <i name="e_wo_entrp">      8.69417267 </i>
    <i name="e_0_energy">      8.69064648 </i>
   </energy>
  </scstep>
  <scstep>
   <time name="dav">    1.12    0.16</time>
   <time name="total">    1.12    0.16</time>
   <energy>
    <i name="e_fr_energy">      0.16604193 </i>
    <i name="e_wo_entrp">      0.18073330 </i>
    <i name="e_0_energy">      0.17338762 </i>
   </energy>
  </scstep>
  <scstep>
   <time name="dav">    0.95    0.14</time>
   <time name="total">    0.95    0.14</time>
   <energy>
    <i name="e_fr_energy">     -0.15891788 </i>
    <i name="e_wo_entrp">     -0.00471629 </i>
    <i name="e_0_energy">     -0.08181708 </i>
   </energy>
  </scstep>
  <scstep>
   <time name="dav">    1.30    0.19</time>
   <time name="total">    3.35    0.48</time>
   <energy>
    <i name="e_fr_energy">     -0.16690740 </i>
    <i name="e_wo_entrp">     -0.01264514 </i>
    <i name="e_0_energy">     -0.08977627 </i>
   </energy>
  </scstep>
  <scstep>
   <time name="dav">    1.29    0.19</time>
   <time name="total">   12.41    1.87</time>
   <energy>
    <i name="e_fr_energy">     -0.16706563 </i>
    <i name="e_wo_entrp">     -0.01280336 </i>
    <i name="e_0_energy">     -0.08993449 </i>
   </energy>
  </scstep>
  <scstep>
   <time name="dav">    1.12    0.16</time>
   <time name="total">   12.28    1.85</time>
   <energy>
    <i name="e_fr_energy">     -0.16719986 </i>
    <i name="e_wo_entrp">     -0.01293870 </i>
    <i name="e_0_energy">     -0.09006928 </i>
   </energy>
  </scstep>
  <scstep>
   <time name="dav">    1.29    0.19</time>
   <time name="total">   12.42    1.87</time>
   <energy>
    <i name="e_fr_energy">     -0.16723318 </i>
    <i name="e_wo_entrp">     -0.01297326 </i>
    <i name="e_0_energy">     -0.09010322 </i>
   </energy>
  </scstep>
  <scstep>
   <time name="dav">    1.12    0.16</time>
   <time name="total">   12.07    1.81</time>
   <energy>
    <i name="e_fr_energy">     -0.16722832 </i>
    <i name="e_wo_entrp">     -0.01296601 </i>
    <i name="e_0_energy">     -0.09009716 </i>
   </energy>
  </scstep>
  <scstep>
   <time name="dav">    0.94    0.14</time>
   <time name="total">   11.77    1.77</time>
   <energy>
    <i name="e_fr_energy">     -0.16725816 </i>
    <i name="e_wo_entrp">     -0.01299585 </i>
    <i name="e_0_energy">     -0.09012701 </i>
   </energy>
  </scstep>
  <scstep>
   <time name="dav">    1.30    0.19</time>
   <time name="total">   12.11    1.82</time>
   <energy>
    <i name="e_fr_energy">     -0.16725933 </i>
    <i name="e_wo_entrp">     -0.01299701 </i>
    <i name="e_0_energy">     -0.09012817 </i>
   </energy>
  </scstep>
  <scstep>
   <time name="dav">    1.12    0.16</time>
   <time name="total">    9.89    1.50</time>
   <energy>
    <i name="alphaZ">      0.06285707 </i>
    <i name="ewald">    -32.71394480 </i>
    <i name="hartreedc">   -340.16411436 </i>
    <i name="XCdc">     26.06843314 </i>
    <i name="pawpsdc">    347.11337397 </i>
    <i name="pawaedc">   -348.92078252 </i>
    <i name="eentropy">     -0.15426232 </i>
    <i name="bandstr">    -83.81734270 </i>
    <i name="atom">    432.35852233 </i>
    <i name="e_fr_energy">     -0.16726018 </i>
    <i name="e_wo_entrp">     -0.01299786 </i>
    <i name="e_0_energy">     -0.09012902 </i>
   </energy>
  </scstep>
  <structure>
   <crystal>
    <varray name="basis" >
     <v>       9.49839973       0.00000000       0.00000000 </v>
     <v>       0.00000000       9.49839973       0.00000000 </v>
     <v>       0.00000000       0.00000000      24.50289917 </v>
    </varray>
    <i name="volume">   2210.64170109 </i>
    <varray name="rec_basis" >
     <v>       0.10528089       0.00000000       0.00000000 </v>
     <v>       0.00000000       0.10528089       0.00000000 </v>
     <v>       0.00000000       0.00000000       0.04081150 </v>
    </varray>
   </crystal>
   <varray name="positions" >
    <v>       0.49445739       0.50556100       0.41060090 </v>
   </varray>
  </structure>
  <varray name="forces" >
   <v>       0.00000000       0.00000000       0.00000000 </v>
  </varray>
  <varray name="stress" >
   <v>      -0.01192351       0.00000000      -0.00000000 </v>
   <v>       0.00000000      -0.01192351       0.00000000 </v>
   <v>      -0.00000000       0.00000000      -0.01270404 </v>
  </varray>
  <energy>
   <i name="e_fr_energy">     -0.16726018 </i>
   <i name="e_wo_entrp">     -0.01299786 </i>
   <i name="e_0_energy">     -0.09012902 </i>
  </energy>
  <time name="totalsc">  160.13   36.14</time>
  <eigenvalues>
   <array>
    <dimension dim="1">band</dimension>
    <dimension dim="2">kpoint</dimension>
    <dimension dim="3">spin</dimension>
    <field>eigene</field>
    <field>occ</field>
    <set>
     <set comment="spin 1">
      <set comment="kpoint 1">
       <r>  -23.9263    1.0000 </r>
       <r>   -8.9912    0.6667 </r>
       <r>   -8.9912    0.6666 </r>
       <r>   -8.9912    0.6666 </r>
       <r>   -0.3311    0.0000 </r>
       <r>    0.1479    0.0000 </r>
       <r>    0.2167    0.0000 </r>
      </set>
      <set comment="kpoint 2">
       <r>  -23.9263    1.0000 </r>
       <r>   -8.9912    0.6667 </r>
       <r>   -8.9912    0.6666 </r>
       <r>   -8.9912    0.6666 </r>
       <r>   -0.2407    0.0000 </r>
       <r>    0.2488    0.0000 </r>
       <r>    0.3193    0.0000 </r>
      </set>
      <set comment="kpoint 3">
       <r>  -23.9263    1.0000 </r>
       <r>   -8.9912    0.6667 </r>
       <r>   -8.9912    0.6667 </r>
       <r>   -8.9912    0.6666 </r>
       <r>   -0.0815    0.0000 </r>
       <r>    0.3202    0.0000 </r>
       <r>    0.5553    0.0000 </r>
      </set>
      <set comment="kpoint 4">
       <r>  -23.9263    1.0000 </r>
       <r>   -8.9912    0.6667 </r>
       <r>   -8.9912    0.6666 </r>
       <r>   -8.9912    0.6666 </r>
       <r>   -0.1512    0.0000 </r>
       <r>    0.3495    0.0000 </r>
       <r>    0.4218    0.0000 </r>
      </set>
      <set comment="kpoint 5">
       <r>  -23.9263    1.0000 </r>
       <r>   -8.9912    0.6667 </r>
       <r>   -8.9912    0.6667 </r>
       <r>   -8.9912    0.6666 </r>
       <r>    0.0041    0.0000 </r>
       <r>    0.4194    0.0000 </r>
       <r>    0.6558    0.0000 </r>
      </set>
      <set comment="kpoint 6">
       <r>  -23.9263    1.0000 </r>
       <r>   -8.9912    0.6667 </r>
       <r>   -8.9912    0.6667 </r>
       <r>   -8.9912    0.6667 </r>
       <r>    0.1437    0.0000 </r>
       <r>    0.6435    0.0000 </r>
       <r>    0.6435    0.0000 </r>
      </set>
     </set>
    </set>
   </array>
  </eigenvalues>
  <separator name="orbital magnetization" >
   <v name="MAGDIPOLOUT">      0.00000000      0.00000000      0.00000000</v>
  </separator>
  <dos>
   <i name="efermi">     -8.96074302 </i>
   <total>
    <array>
     <dimension dim="1">gridpoints</dimension>
     <dimension dim="2">spin</dimension>
     <field>energy</field>
     <field>total</field>
     <field>integrated</field>
     <set>
      <set comment="spin 1">
       <r>   -25.1554     0.0000     0.0000 </r>
       <r>   -25.0653     0.0000     0.0000 </r>
       <r>   -24.9751     0.0000     0.0000 </r>
       <r>   -24.8850     0.0000     0.0000 </r>
       <r>   -24.7948     0.0000     0.0000 </r>
       <r>   -24.7047     0.0000     0.0000 </r>
       <r>   -24.6146     0.0000     0.0000 </r>
       <r>   -24.5244     0.0000     0.0000 </r>
       <r>   -24.4343     0.0000     0.0000 </r>
       <r>   -24.3442     0.0000     0.0000 </r>
       <r>   -24.2540     0.0000     0.0000 </r>
       <r>   -24.1639     0.0086     0.0008 </r>
       <r>   -24.0738     0.4017     0.0370 </r>
       <r>   -23.9836     4.2184     0.4172 </r>
       <r>   -23.8935    10.4258     1.3569 </r>
       <r>   -23.8034     6.2227     1.9178 </r>
       <r>   -23.7132     0.8832     1.9974 </r>
       <r>   -23.6231     0.0285     2.0000 </r>
       <r>   -23.5330     0.0002     2.0000 </r>
       <r>   -23.4428     0.0000     2.0000 </r>
       <r>   -23.3527     0.0000     2.0000 </r>
       <r>   -23.2626     0.0000     2.0000 </r>
       <r>   -23.1724     0.0000     2.0000 </r>
       <r>   -23.0823     0.0000     2.0000 </r>
       <r>   -22.9922     0.0000     2.0000 </r>
       <r>   -22.9020     0.0000     2.0000 </r>
       <r>   -22.8119     0.0000     2.0000 </r>
       <r>   -22.7218     0.0000     2.0000 </r>
       <r>   -22.6316     0.0000     2.0000 </r>
       <r>   -22.5415     0.0000     2.0000 </r>
       <r>   -22.4514     0.0000     2.0000 </r>
       <r>   -22.3612     0.0000     2.0000 </r>
       <r>   -22.2711     0.0000     2.0000 </r>
       <r>   -22.1809     0.0000     2.0000 </r>
       <r>   -22.0908     0.0000     2.0000 </r>
       <r>   -22.0007     0.0000     2.0000 </r>
       <r>   -21.9105     0.0000     2.0000 </r>
       <r>   -21.8204     0.0000     2.0000 </r>
       <r>   -21.7303     0.0000     2.0000 </r>
       <r>   -21.6401     0.0000     2.0000 </r>
       <r>   -21.5500     0.0000     2.0000 </r>
       <r>   -21.4599     0.0000     2.0000 </r>
       <r>   -21.3697     0.0000     2.0000 </r>
       <r>   -21.2796     0.0000     2.0000 </r>
       <r>   -21.1895     0.0000     2.0000 </r>
       <r>   -21.0993     0.0000     2.0000 </r>
       <r>   -21.0092     0.0000     2.0000 </r>
       <r>   -20.9191     0.0000     2.0000 </r>
       <r>   -20.8289     0.0000     2.0000 </r>
       <r>   -20.7388     0.0000     2.0000 </r>
       <r>   -20.6487     0.0000     2.0000 </r>
       <r>   -20.5585     0.0000     2.0000 </r>
       <r>   -20.4684     0.0000     2.0000 </r>
       <r>   -20.3783     0.0000     2.0000 </r>
       <r>   -20.2881     0.0000     2.0000 </r>
       <r>   -20.1980     0.0000     2.0000 </r>
       <r>   -20.1079     0.0000     2.0000 </r>
       <r>   -20.0177     0.0000     2.0000 </r>
       <r>   -19.9276     0.0000     2.0000 </r>
       <r>   -19.8375     0.0000     2.0000 </r>
       <r>   -19.7473     0.0000     2.0000 </r>
       <r>   -19.6572     0.0000     2.0000 </r>
       <r>   -19.5670     0.0000     2.0000 </r>
       <r>   -19.4769     0.0000     2.0000 </r>
       <r>   -19.3868     0.0000     2.0000 </r>
       <r>   -19.2966     0.0000     2.0000 </r>
       <r>   -19.2065     0.0000     2.0000 </r>
       <r>   -19.1164     0.0000     2.0000 </r>
       <r>   -19.0262     0.0000     2.0000 </r>
       <r>   -18.9361     0.0000     2.0000 </r>
       <r>   -18.8460     0.0000     2.0000 </r>
       <r>   -18.7558     0.0000     2.0000 </r>
       <r>   -18.6657     0.0000     2.0000 </r>
       <r>   -18.5756     0.0000     2.0000 </r>
       <r>   -18.4854     0.0000     2.0000 </r>
       <r>   -18.3953     0.0000     2.0000 </r>
       <r>   -18.3052     0.0000     2.0000 </r>
       <r>   -18.2150     0.0000     2.0000 </r>
       <r>   -18.1249     0.0000     2.0000 </r>
       <r>   -18.0348     0.0000     2.0000 </r>
       <r>   -17.9446     0.0000     2.0000 </r>
       <r>   -17.8545     0.0000     2.0000 </r>
       <r>   -17.7644     0.0000     2.0000 </r>
       <r>   -17.6742     0.0000     2.0000 </r>
       <r>   -17.5841     0.0000     2.0000 </r>
       <r>   -17.4940     0.0000     2.0000 </r>
       <r>   -17.4038     0.0000     2.0000 </r>
       <r>   -17.3137     0.0000     2.0000 </r>
       <r>   -17.2236     0.0000     2.0000 </r>
       <r>   -17.1334     0.0000     2.0000 </r>
       <r>   -17.0433     0.0000     2.0000 </r>
       <r>   -16.9532     0.0000     2.0000 </r>
       <r>   -16.8630     0.0000     2.0000 </r>
       <r>   -16.7729     0.0000     2.0000 </r>
       <r>   -16.6827     0.0000     2.0000 </r>
       <r>   -16.5926     0.0000     2.0000 </r>
       <r>   -16.5025     0.0000     2.0000 </r>
       <r>   -16.4123     0.0000     2.0000 </r>
       <r>   -16.3222     0.0000     2.0000 </r>
       <r>   -16.2321     0.0000     2.0000 </r>
       <r>   -16.1419     0.0000     2.0000 </r>
       <r>   -16.0518     0.0000     2.0000 </r>
       <r>   -15.9617     0.0000     2.0000 </r>
       <r>   -15.8715     0.0000     2.0000 </r>
       <r>   -15.7814     0.0000     2.0000 </r>
       <r>   -15.6913     0.0000     2.0000 </r>
       <r>   -15.6011     0.0000     2.0000 </r>
       <r>   -15.5110     0.0000     2.0000 </r>
       <r>   -15.4209     0.0000     2.0000 </r>
       <r>   -15.3307     0.0000     2.0000 </r>
       <r>   -15.2406     0.0000     2.0000 </r>
       <r>   -15.1505     0.0000     2.0000 </r>
       <r>   -15.0603     0.0000     2.0000 </r>
       <r>   -14.9702     0.0000     2.0000 </r>
       <r>   -14.8801     0.0000     2.0000 </r>
       <r>   -14.7899     0.0000     2.0000 </r>
       <r>   -14.6998     0.0000     2.0000 </r>
       <r>   -14.6097     0.0000     2.0000 </r>
       <r>   -14.5195     0.0000     2.0000 </r>
       <r>   -14.4294     0.0000     2.0000 </r>
       <r>   -14.3393     0.0000     2.0000 </r>
       <r>   -14.2491     0.0000     2.0000 </r>
       <r>   -14.1590     0.0000     2.0000 </r>
       <r>   -14.0688     0.0000     2.0000 </r>
       <r>   -13.9787     0.0000     2.0000 </r>
       <r>   -13.8886     0.0000     2.0000 </r>
       <r>   -13.7984     0.0000     2.0000 </r>
       <r>   -13.7083     0.0000     2.0000 </r>
       <r>   -13.6182     0.0000     2.0000 </r>
       <r>   -13.5280     0.0000     2.0000 </r>
       <r>   -13.4379     0.0000     2.0000 </r>
       <r>   -13.3478     0.0000     2.0000 </r>
       <r>   -13.2576     0.0000     2.0000 </r>
       <r>   -13.1675     0.0000     2.0000 </r>
       <r>   -13.0774     0.0000     2.0000 </r>
       <r>   -12.9872     0.0000     2.0000 </r>
       <r>   -12.8971     0.0000     2.0000 </r>
       <r>   -12.8070     0.0000     2.0000 </r>
       <r>   -12.7168     0.0000     2.0000 </r>
       <r>   -12.6267     0.0000     2.0000 </r>
       <r>   -12.5366     0.0000     2.0000 </r>
       <r>   -12.4464     0.0000     2.0000 </r>
       <r>   -12.3563     0.0000     2.0000 </r>
       <r>   -12.2662     0.0000     2.0000 </r>
       <r>   -12.1760     0.0000     2.0000 </r>
       <r>   -12.0859     0.0000     2.0000 </r>
       <r>   -11.9958     0.0000     2.0000 </r>
       <r>   -11.9056     0.0000     2.0000 </r>
       <r>   -11.8155     0.0000     2.0000 </r>
       <r>   -11.7254     0.0000     2.0000 </r>
       <r>   -11.6352     0.0000     2.0000 </r>
       <r>   -11.5451     0.0000     2.0000 </r>
       <r>   -11.4549     0.0000     2.0000 </r>
       <r>   -11.3648     0.0000     2.0000 </r>
       <r>   -11.2747     0.0000     2.0000 </r>
       <r>   -11.1845     0.0000     2.0000 </r>
       <r>   -11.0944     0.0000     2.0000 </r>
       <r>   -11.0043     0.0000     2.0000 </r>
       <r>   -10.9141     0.0000     2.0000 </r>
       <r>   -10.8240     0.0000     2.0000 </r>
       <r>   -10.7339     0.0000     2.0000 </r>
       <r>   -10.6437     0.0000     2.0000 </r>
       <r>   -10.5536     0.0000     2.0000 </r>
       <r>   -10.4635     0.0000     2.0000 </r>
       <r>   -10.3733     0.0000     2.0000 </r>
       <r>   -10.2832     0.0000     2.0000 </r>
       <r>   -10.1931     0.0000     2.0000 </r>
       <r>   -10.1029     0.0000     2.0000 </r>
       <r>   -10.0128     0.0000     2.0000 </r>
       <r>    -9.9227     0.0000     2.0000 </r>
       <r>    -9.8325     0.0000     2.0000 </r>
       <r>    -9.7424     0.0000     2.0000 </r>
       <r>    -9.6523     0.0000     2.0000 </r>
       <r>    -9.5621     0.0000     2.0000 </r>
       <r>    -9.4720     0.0000     2.0000 </r>
       <r>    -9.3819     0.0000     2.0000 </r>
       <r>    -9.2917     0.0007     2.0001 </r>
       <r>    -9.2016     0.0967     2.0088 </r>
       <r>    -9.1115     2.8652     2.2670 </r>
       <r>    -9.0213    19.3423     4.0104 </r>
       <r>    -8.9312    31.0813     6.8119 </r>
       <r>    -8.8411    12.0588     7.8988 </r>
       <r>    -8.7509     1.0996     7.9980 </r>
       <r>    -8.6608     0.0225     8.0000 </r>
       <r>    -8.5706     0.0001     8.0000 </r>
       <r>    -8.4805     0.0000     8.0000 </r>
       <r>    -8.3904     0.0000     8.0000 </r>
       <r>    -8.3002     0.0000     8.0000 </r>
       <r>    -8.2101     0.0000     8.0000 </r>
       <r>    -8.1200     0.0000     8.0000 </r>
       <r>    -8.0298     0.0000     8.0000 </r>
       <r>    -7.9397     0.0000     8.0000 </r>
       <r>    -7.8496     0.0000     8.0000 </r>
       <r>    -7.7594     0.0000     8.0000 </r>
       <r>    -7.6693     0.0000     8.0000 </r>
       <r>    -7.5792     0.0000     8.0000 </r>
       <r>    -7.4890     0.0000     8.0000 </r>
       <r>    -7.3989     0.0000     8.0000 </r>
       <r>    -7.3088     0.0000     8.0000 </r>
       <r>    -7.2186     0.0000     8.0000 </r>
       <r>    -7.1285     0.0000     8.0000 </r>
       <r>    -7.0384     0.0000     8.0000 </r>
       <r>    -6.9482     0.0000     8.0000 </r>
       <r>    -6.8581     0.0000     8.0000 </r>
       <r>    -6.7680     0.0000     8.0000 </r>
       <r>    -6.6778     0.0000     8.0000 </r>
       <r>    -6.5877     0.0000     8.0000 </r>
       <r>    -6.4976     0.0000     8.0000 </r>
       <r>    -6.4074     0.0000     8.0000 </r>
       <r>    -6.3173     0.0000     8.0000 </r>
       <r>    -6.2272     0.0000     8.0000 </r>
       <r>    -6.1370     0.0000     8.0000 </r>
       <r>    -6.0469     0.0000     8.0000 </r>
       <r>    -5.9567     0.0000     8.0000 </r>
       <r>    -5.8666     0.0000     8.0000 </r>
       <r>    -5.7765     0.0000     8.0000 </r>
       <r>    -5.6863     0.0000     8.0000 </r>
       <r>    -5.5962     0.0000     8.0000 </r>
       <r>    -5.5061     0.0000     8.0000 </r>
       <r>    -5.4159     0.0000     8.0000 </r>
       <r>    -5.3258     0.0000     8.0000 </r>
       <r>    -5.2357     0.0000     8.0000 </r>
       <r>    -5.1455     0.0000     8.0000 </r>
       <r>    -5.0554     0.0000     8.0000 </r>
       <r>    -4.9653     0.0000     8.0000 </r>
       <r>    -4.8751     0.0000     8.0000 </r>
       <r>    -4.7850     0.0000     8.0000 </r>
       <r>    -4.6949     0.0000     8.0000 </r>
       <r>    -4.6047     0.0000     8.0000 </r>
       <r>    -4.5146     0.0000     8.0000 </r>
       <r>    -4.4245     0.0000     8.0000 </r>
       <r>    -4.3343     0.0000     8.0000 </r>
       <r>    -4.2442     0.0000     8.0000 </r>
       <r>    -4.1541     0.0000     8.0000 </r>
       <r>    -4.0639     0.0000     8.0000 </r>
       <r>    -3.9738     0.0000     8.0000 </r>
       <r>    -3.8837     0.0000     8.0000 </r>
       <r>    -3.7935     0.0000     8.0000 </r>
       <r>    -3.7034     0.0000     8.0000 </r>
       <r>    -3.6133     0.0000     8.0000 </r>
       <r>    -3.5231     0.0000     8.0000 </r>
       <r>    -3.4330     0.0000     8.0000 </r>
       <r>    -3.3428     0.0000     8.0000 </r>
       <r>    -3.2527     0.0000     8.0000 </r>
       <r>    -3.1626     0.0000     8.0000 </r>
       <r>    -3.0724     0.0000     8.0000 </r>
       <r>    -2.9823     0.0000     8.0000 </r>
       <r>    -2.8922     0.0000     8.0000 </r>
       <r>    -2.8020     0.0000     8.0000 </r>
       <r>    -2.7119     0.0000     8.0000 </r>
       <r>    -2.6218     0.0000     8.0000 </r>
       <r>    -2.5316     0.0000     8.0000 </r>
       <r>    -2.4415     0.0000     8.0000 </r>
       <r>    -2.3514     0.0000     8.0000 </r>
       <r>    -2.2612     0.0000     8.0000 </r>
       <r>    -2.1711     0.0000     8.0000 </r>
       <r>    -2.0810     0.0000     8.0000 </r>
       <r>    -1.9908     0.0000     8.0000 </r>
       <r>    -1.9007     0.0000     8.0000 </r>
       <r>    -1.8106     0.0000     8.0000 </r>
       <r>    -1.7204     0.0000     8.0000 </r>
       <r>    -1.6303     0.0000     8.0000 </r>
       <r>    -1.5402     0.0000     8.0000 </r>
       <r>    -1.4500     0.0000     8.0000 </r>
       <r>    -1.3599     0.0000     8.0000 </r>
       <r>    -1.2698     0.0000     8.0000 </r>
       <r>    -1.1796     0.0000     8.0000 </r>
       <r>    -1.0895     0.0000     8.0000 </r>
       <r>    -0.9994     0.0000     8.0000 </r>
       <r>    -0.9092     0.0000     8.0000 </r>
       <r>    -0.8191     0.0000     8.0000 </r>
       <r>    -0.7289     0.0000     8.0000 </r>
       <r>    -0.6388     0.0000     8.0000 </r>
       <r>    -0.5487     0.0015     8.0001 </r>
       <r>    -0.4585     0.0538     8.0050 </r>
       <r>    -0.3684     0.5614     8.0556 </r>
       <r>    -0.2783     2.3126     8.2640 </r>
       <r>    -0.1881     4.5743     8.6763 </r>
       <r>    -0.0980     5.1462     9.1402 </r>
       <r>    -0.0079     4.5139     9.5470 </r>
       <r>     0.0823     3.4675     9.8596 </r>
       <r>     0.1724     3.2527    10.1528 </r>
       <r>     0.2625     6.2770    10.7185 </r>
       <r>     0.3527    10.3171    11.6485 </r>
       <r>     0.4428    10.1062    12.5594 </r>
       <r>     0.5329     5.6626    13.0698 </r>
       <r>     0.6231     4.3622    13.4630 </r>
       <r>     0.7132     4.3157    13.8519 </r>
       <r>     0.8033     1.5064    13.9877 </r>
       <r>     0.8935     0.1335    13.9998 </r>
       <r>     0.9836     0.0027    14.0000 </r>
       <r>     1.0737     0.0000    14.0000 </r>
       <r>     1.1639     0.0000    14.0000 </r>
       <r>     1.2540     0.0000    14.0000 </r>
       <r>     1.3441     0.0000    14.0000 </r>
       <r>     1.4343     0.0000    14.0000 </r>
       <r>     1.5244     0.0000    14.0000 </r>
       <r>     1.6145     0.0000    14.0000 </r>
       <r>     1.7047     0.0000    14.0000 </r>
       <r>     1.7948     0.0000    14.0000 </r>
       <r>     1.8849     0.0000    14.0000 </r>
      </set>
     </set>
    </array>
   </total>
  </dos>
 </calculation>
 <structure name="finalpos" >
  <crystal>
   <varray name="basis" >
    <v>       9.49839973       0.00000000       0.00000000 </v>
    <v>       0.00000000       9.49839973       0.00000000 </v>
    <v>       0.00000000       0.00000000      24.50289917 </v>
   </varray>
   <i name="volume">   2210.64170109 </i>
   <varray name="rec_basis" >
    <v>       0.10528089       0.00000000       0.00000000 </v>
    <v>       0.00000000       0.10528089       0.00000000 </v>
    <v>       0.00000000       0.00000000       0.04081150 </v>
   </varray>
  </crystal>
  <varray name="positions" >
   <v>       0.49445739       0.50556100       0.41060090 </v>
  </varray>
  <varray name="selective"  type="logical" >
   <v type="logical" >  T  T  T </v>
  </varray>
  <nose>
   <v>      -3.00000000       0.00000000       0.00010000       0.00010000 </v>
  </nose>
 </structure>
</modeling>
