   1   1   0   0
  0.2210642E+04  0.9498400E-09  0.9498400E-09  0.2450290E-08  0.5000000E-15
  1.000000000000000E-004
  CAR 
 ni3al                                   
      1.88402850    -25.15527447  301     -8.96068566      1.00000000
    -25.155  0.0000E+00  0.0000E+00
    -25.065  0.0000E+00  0.0000E+00
    -24.975  0.0000E+00  0.0000E+00
    -24.885  0.0000E+00  0.0000E+00
    -24.795  0.0000E+00  0.0000E+00
    -24.705  0.0000E+00  0.0000E+00
    -24.614  0.0000E+00  0.0000E+00
    -24.524  0.0000E+00  0.0000E+00
    -24.434  0.7485E-11  0.6747E-12
    -24.344  0.3799E-07  0.3425E-08
    -24.254  0.3953E-04  0.3566E-05
    -24.164  0.8591E-02  0.7779E-03
    -24.074  0.4018E+00  0.3699E-01
    -23.984  0.4219E+01  0.4172E+00
    -23.893  0.1043E+02  0.1357E+01
    -23.803  0.6223E+01  0.1918E+01
    -23.713  0.8833E+00  0.1997E+01
    -23.623  0.2853E-01  0.2000E+01
    -23.533  0.2003E-03  0.2000E+01
    -23.443  0.2959E-06  0.2000E+01
    -23.353  0.8996E-10  0.2000E+01
    -23.263  0.4927E-14  0.2000E+01
    -23.172  0.0000E+00  0.2000E+01
    -23.082  0.0000E+00  0.2000E+01
    -22.992  0.0000E+00  0.2000E+01
    -22.902  0.0000E+00  0.2000E+01
    -22.812  0.0000E+00  0.2000E+01
    -22.722  0.0000E+00  0.2000E+01
    -22.632  0.0000E+00  0.2000E+01
    -22.541  0.0000E+00  0.2000E+01
    -22.451  0.0000E+00  0.2000E+01
    -22.361  0.0000E+00  0.2000E+01
    -22.271  0.0000E+00  0.2000E+01
    -22.181  0.0000E+00  0.2000E+01
    -22.091  0.0000E+00  0.2000E+01
    -22.001  0.0000E+00  0.2000E+01
    -21.911  0.0000E+00  0.2000E+01
    -21.820  0.0000E+00  0.2000E+01
    -21.730  0.0000E+00  0.2000E+01
    -21.640  0.0000E+00  0.2000E+01
    -21.550  0.0000E+00  0.2000E+01
    -21.460  0.0000E+00  0.2000E+01
    -21.370  0.0000E+00  0.2000E+01
    -21.280  0.0000E+00  0.2000E+01
    -21.190  0.0000E+00  0.2000E+01
    -21.099  0.0000E+00  0.2000E+01
    -21.009  0.0000E+00  0.2000E+01
    -20.919  0.0000E+00  0.2000E+01
    -20.829  0.0000E+00  0.2000E+01
    -20.739  0.0000E+00  0.2000E+01
    -20.649  0.0000E+00  0.2000E+01
    -20.559  0.0000E+00  0.2000E+01
    -20.468  0.0000E+00  0.2000E+01
    -20.378  0.0000E+00  0.2000E+01
    -20.288  0.0000E+00  0.2000E+01
    -20.198  0.0000E+00  0.2000E+01
    -20.108  0.0000E+00  0.2000E+01
    -20.018  0.0000E+00  0.2000E+01
    -19.928  0.0000E+00  0.2000E+01
    -19.838  0.0000E+00  0.2000E+01
    -19.747  0.0000E+00  0.2000E+01
    -19.657  0.0000E+00  0.2000E+01
    -19.567  0.0000E+00  0.2000E+01
    -19.477  0.0000E+00  0.2000E+01
    -19.387  0.0000E+00  0.2000E+01
    -19.297  0.0000E+00  0.2000E+01
    -19.207  0.0000E+00  0.2000E+01
    -19.116  0.0000E+00  0.2000E+01
    -19.026  0.0000E+00  0.2000E+01
    -18.936  0.0000E+00  0.2000E+01
    -18.846  0.0000E+00  0.2000E+01
    -18.756  0.0000E+00  0.2000E+01
    -18.666  0.0000E+00  0.2000E+01
    -18.576  0.0000E+00  0.2000E+01
    -18.486  0.0000E+00  0.2000E+01
    -18.395  0.0000E+00  0.2000E+01
    -18.305  0.0000E+00  0.2000E+01
    -18.215  0.0000E+00  0.2000E+01
    -18.125  0.0000E+00  0.2000E+01
    -18.035  0.0000E+00  0.2000E+01
    -17.945  0.0000E+00  0.2000E+01
    -17.855  0.0000E+00  0.2000E+01
    -17.765  0.0000E+00  0.2000E+01
    -17.674  0.0000E+00  0.2000E+01
    -17.584  0.0000E+00  0.2000E+01
    -17.494  0.0000E+00  0.2000E+01
    -17.404  0.0000E+00  0.2000E+01
    -17.314  0.0000E+00  0.2000E+01
    -17.224  0.0000E+00  0.2000E+01
    -17.134  0.0000E+00  0.2000E+01
    -17.043  0.0000E+00  0.2000E+01
    -16.953  0.0000E+00  0.2000E+01
    -16.863  0.0000E+00  0.2000E+01
    -16.773  0.0000E+00  0.2000E+01
    -16.683  0.0000E+00  0.2000E+01
    -16.593  0.0000E+00  0.2000E+01
    -16.503  0.0000E+00  0.2000E+01
    -16.413  0.0000E+00  0.2000E+01
    -16.322  0.0000E+00  0.2000E+01
    -16.232  0.0000E+00  0.2000E+01
    -16.142  0.0000E+00  0.2000E+01
    -16.052  0.0000E+00  0.2000E+01
    -15.962  0.0000E+00  0.2000E+01
    -15.872  0.0000E+00  0.2000E+01
    -15.782  0.0000E+00  0.2000E+01
    -15.692  0.0000E+00  0.2000E+01
    -15.601  0.0000E+00  0.2000E+01
    -15.511  0.0000E+00  0.2000E+01
    -15.421  0.0000E+00  0.2000E+01
    -15.331  0.0000E+00  0.2000E+01
    -15.241  0.0000E+00  0.2000E+01
    -15.151  0.0000E+00  0.2000E+01
    -15.061  0.0000E+00  0.2000E+01
    -14.970  0.0000E+00  0.2000E+01
    -14.880  0.0000E+00  0.2000E+01
    -14.790  0.0000E+00  0.2000E+01
    -14.700  0.0000E+00  0.2000E+01
    -14.610  0.0000E+00  0.2000E+01
    -14.520  0.0000E+00  0.2000E+01
    -14.430  0.0000E+00  0.2000E+01
    -14.340  0.0000E+00  0.2000E+01
    -14.249  0.0000E+00  0.2000E+01
    -14.159  0.0000E+00  0.2000E+01
    -14.069  0.0000E+00  0.2000E+01
    -13.979  0.0000E+00  0.2000E+01
    -13.889  0.0000E+00  0.2000E+01
    -13.799  0.0000E+00  0.2000E+01
    -13.709  0.0000E+00  0.2000E+01
    -13.619  0.0000E+00  0.2000E+01
    -13.528  0.0000E+00  0.2000E+01
    -13.438  0.0000E+00  0.2000E+01
    -13.348  0.0000E+00  0.2000E+01
    -13.258  0.0000E+00  0.2000E+01
    -13.168  0.0000E+00  0.2000E+01
    -13.078  0.0000E+00  0.2000E+01
    -12.988  0.0000E+00  0.2000E+01
    -12.897  0.0000E+00  0.2000E+01
    -12.807  0.0000E+00  0.2000E+01
    -12.717  0.0000E+00  0.2000E+01
    -12.627  0.0000E+00  0.2000E+01
    -12.537  0.0000E+00  0.2000E+01
    -12.447  0.0000E+00  0.2000E+01
    -12.357  0.0000E+00  0.2000E+01
    -12.267  0.0000E+00  0.2000E+01
    -12.176  0.0000E+00  0.2000E+01
    -12.086  0.0000E+00  0.2000E+01
    -11.996  0.0000E+00  0.2000E+01
    -11.906  0.0000E+00  0.2000E+01
    -11.816  0.0000E+00  0.2000E+01
    -11.726  0.0000E+00  0.2000E+01
    -11.636  0.0000E+00  0.2000E+01
    -11.545  0.0000E+00  0.2000E+01
    -11.455  0.0000E+00  0.2000E+01
    -11.365  0.0000E+00  0.2000E+01
    -11.275  0.0000E+00  0.2000E+01
    -11.185  0.0000E+00  0.2000E+01
    -11.095  0.0000E+00  0.2000E+01
    -11.005  0.0000E+00  0.2000E+01
    -10.915  0.0000E+00  0.2000E+01
    -10.824  0.0000E+00  0.2000E+01
    -10.734  0.0000E+00  0.2000E+01
    -10.644  0.0000E+00  0.2000E+01
    -10.554  0.0000E+00  0.2000E+01
    -10.464  0.0000E+00  0.2000E+01
    -10.374  0.0000E+00  0.2000E+01
    -10.284  0.0000E+00  0.2000E+01
    -10.194  0.0000E+00  0.2000E+01
    -10.103  0.0000E+00  0.2000E+01
    -10.013  0.0000E+00  0.2000E+01
     -9.923  0.0000E+00  0.2000E+01
     -9.833  0.0000E+00  0.2000E+01
     -9.743  0.0000E+00  0.2000E+01
     -9.653  0.0000E+00  0.2000E+01
     -9.563  0.2217E-13  0.2000E+01
     -9.472  0.3314E-09  0.2000E+01
     -9.382  0.1051E-05  0.2000E+01
     -9.292  0.6860E-03  0.2000E+01
     -9.202  0.9426E-01  0.2009E+01
     -9.112  0.2819E+01  0.2263E+01
     -9.022  0.1920E+02  0.3993E+01
     -8.932  0.3113E+02  0.6799E+01
     -8.842  0.1219E+02  0.7897E+01
     -8.751  0.1122E+01  0.7998E+01
     -8.661  0.2316E-01  0.8000E+01
     -8.571  0.1028E-03  0.8000E+01
     -8.481  0.9524E-07  0.8000E+01
     -8.391  0.1809E-10  0.8000E+01
     -8.301  0.0000E+00  0.8000E+01
     -8.211  0.0000E+00  0.8000E+01
     -8.121  0.0000E+00  0.8000E+01
     -8.030  0.0000E+00  0.8000E+01
     -7.940  0.0000E+00  0.8000E+01
     -7.850  0.0000E+00  0.8000E+01
     -7.760  0.0000E+00  0.8000E+01
     -7.670  0.0000E+00  0.8000E+01
     -7.580  0.0000E+00  0.8000E+01
     -7.490  0.0000E+00  0.8000E+01
     -7.399  0.0000E+00  0.8000E+01
     -7.309  0.0000E+00  0.8000E+01
     -7.219  0.0000E+00  0.8000E+01
     -7.129  0.0000E+00  0.8000E+01
     -7.039  0.0000E+00  0.8000E+01
     -6.949  0.0000E+00  0.8000E+01
     -6.859  0.0000E+00  0.8000E+01
     -6.769  0.0000E+00  0.8000E+01
     -6.678  0.0000E+00  0.8000E+01
     -6.588  0.0000E+00  0.8000E+01
     -6.498  0.0000E+00  0.8000E+01
     -6.408  0.0000E+00  0.8000E+01
     -6.318  0.0000E+00  0.8000E+01
     -6.228  0.0000E+00  0.8000E+01
     -6.138  0.0000E+00  0.8000E+01
     -6.048  0.0000E+00  0.8000E+01
     -5.957  0.0000E+00  0.8000E+01
     -5.867  0.0000E+00  0.8000E+01
     -5.777  0.0000E+00  0.8000E+01
     -5.687  0.0000E+00  0.8000E+01
     -5.597  0.0000E+00  0.8000E+01
     -5.507  0.0000E+00  0.8000E+01
     -5.417  0.0000E+00  0.8000E+01
     -5.326  0.0000E+00  0.8000E+01
     -5.236  0.0000E+00  0.8000E+01
     -5.146  0.0000E+00  0.8000E+01
     -5.056  0.0000E+00  0.8000E+01
     -4.966  0.0000E+00  0.8000E+01
     -4.876  0.0000E+00  0.8000E+01
     -4.786  0.0000E+00  0.8000E+01
     -4.696  0.0000E+00  0.8000E+01
     -4.605  0.0000E+00  0.8000E+01
     -4.515  0.0000E+00  0.8000E+01
     -4.425  0.0000E+00  0.8000E+01
     -4.335  0.0000E+00  0.8000E+01
     -4.245  0.0000E+00  0.8000E+01
     -4.155  0.0000E+00  0.8000E+01
     -4.065  0.0000E+00  0.8000E+01
     -3.974  0.0000E+00  0.8000E+01
     -3.884  0.0000E+00  0.8000E+01
     -3.794  0.0000E+00  0.8000E+01
     -3.704  0.0000E+00  0.8000E+01
     -3.614  0.0000E+00  0.8000E+01
     -3.524  0.0000E+00  0.8000E+01
     -3.434  0.0000E+00  0.8000E+01
     -3.344  0.0000E+00  0.8000E+01
     -3.253  0.0000E+00  0.8000E+01
     -3.163  0.0000E+00  0.8000E+01
     -3.073  0.0000E+00  0.8000E+01
     -2.983  0.0000E+00  0.8000E+01
     -2.893  0.0000E+00  0.8000E+01
     -2.803  0.0000E+00  0.8000E+01
     -2.713  0.0000E+00  0.8000E+01
     -2.623  0.0000E+00  0.8000E+01
     -2.532  0.0000E+00  0.8000E+01
     -2.442  0.0000E+00  0.8000E+01
     -2.352  0.0000E+00  0.8000E+01
     -2.262  0.0000E+00  0.8000E+01
     -2.172  0.0000E+00  0.8000E+01
     -2.082  0.0000E+00  0.8000E+01
     -1.992  0.0000E+00  0.8000E+01
     -1.901  0.0000E+00  0.8000E+01
     -1.811  0.0000E+00  0.8000E+01
     -1.721  0.0000E+00  0.8000E+01
     -1.631  0.0000E+00  0.8000E+01
     -1.541  0.0000E+00  0.8000E+01
     -1.451  0.0000E+00  0.8000E+01
     -1.361  0.0000E+00  0.8000E+01
     -1.271  0.0000E+00  0.8000E+01
     -1.180  0.0000E+00  0.8000E+01
     -1.090  0.0000E+00  0.8000E+01
     -1.000  0.0000E+00  0.8000E+01
     -0.910  0.1540E-15  0.8000E+01
     -0.820  0.3374E-11  0.8000E+01
     -0.730  0.1216E-07  0.8000E+01
     -0.640  0.9048E-05  0.8000E+01
     -0.550  0.1436E-02  0.8000E+01
     -0.459  0.5281E-01  0.8005E+01
     -0.369  0.5549E+00  0.8055E+01
     -0.279  0.2297E+01  0.8262E+01
     -0.189  0.4562E+01  0.8673E+01
     -0.099  0.5146E+01  0.9137E+01
     -0.009  0.4518E+01  0.9544E+01
      0.081  0.3485E+01  0.9858E+01
      0.172  0.3268E+01  0.1015E+02
      0.262  0.6276E+01  0.1072E+02
      0.352  0.1030E+02  0.1165E+02
      0.442  0.1010E+02  0.1256E+02
      0.532  0.5682E+01  0.1307E+02
      0.622  0.4367E+01  0.1346E+02
      0.712  0.4318E+01  0.1385E+02
      0.802  0.1510E+01  0.1399E+02
      0.893  0.1340E+00  0.1400E+02
      0.983  0.2727E-02  0.1400E+02
      1.073  0.1204E-04  0.1400E+02
      1.163  0.1118E-07  0.1400E+02
      1.253  0.2141E-11  0.1400E+02
      1.343  0.0000E+00  0.1400E+02
      1.433  0.0000E+00  0.1400E+02
      1.524  0.0000E+00  0.1400E+02
      1.614  0.0000E+00  0.1400E+02
      1.704  0.0000E+00  0.1400E+02
      1.794  0.0000E+00  0.1400E+02
      1.884  0.0000E+00  0.1400E+02
