    1    1    1    1
  0.2210642E+04  0.9498400E-09  0.9498400E-09  0.2450290E-08  0.5000000E-15
  1.000000000000000E-004
  CAR 
 ni3al                                   
      6      6      7
 
  0.0000000E+00  0.0000000E+00  0.0000000E+00  0.6250000E-01
      1        -23.926215   1.000000
      2         -8.991149   0.666701
      3         -8.991132   0.666611
      4         -8.991127   0.666588
      5         -0.331330   0.000000
      6          0.146400   0.000000
      7          0.216528   0.000000
 
  0.2500000E+00  0.0000000E+00  0.0000000E+00  0.2500000E+00
      1        -23.926208   1.000000
      2         -8.991149   0.666698
      3         -8.991143   0.666667
      4         -8.991127   0.666585
      5         -0.240931   0.000000
      6          0.247348   0.000000
      7          0.319168   0.000000
 
  0.5000000E+00  0.0000000E+00  0.0000000E+00  0.1250000E+00
      1        -23.926215   1.000000
      2         -8.991155   0.666730
      3         -8.991147   0.666690
      4         -8.991126   0.666581
      5         -0.081640   0.000000
      6          0.319617   0.000000
      7          0.554430   0.000000
 
  0.2500000E+00  0.2500000E+00  0.0000000E+00  0.2500000E+00
      1        -23.926205   1.000000
      2         -8.991148   0.666694
      3         -8.991142   0.666664
      4         -8.991138   0.666642
      5         -0.151428   0.000000
      6          0.348069   0.000000
      7          0.421674   0.000000
 
  0.5000000E+00  0.2500000E+00  0.0000000E+00  0.2500000E+00
      1        -23.926204   1.000000
      2         -8.991154   0.666725
      3         -8.991147   0.666687
      4         -8.991137   0.666639
      5          0.004005   0.000000
      6          0.418860   0.000000
      7          0.654969   0.000000
 
  0.5000000E+00  0.5000000E+00  0.0000000E+00  0.6250000E-01
      1        -23.926202   1.000000
      2         -8.991153   0.666720
      3         -8.991148   0.666695
      4         -8.991146   0.666682
      5          0.143682   0.000000
      6          0.643008   0.000000
      7          0.643043   0.000000
