       N       E                     dE             d eps       ncg     rms          rms(c)
DAV:   1     0.491166286982E+02    0.49117E+02   -0.11049E+03   126   0.382E+02
DAV:   2     0.883394847626E+01   -0.40283E+02   -0.38985E+02   168   0.592E+01
DAV:   3     0.183526872310E+00   -0.86504E+01   -0.86496E+01    84   0.447E+01
DAV:   4    -0.158622428409E+00   -0.34215E+00   -0.20458E+00    84   0.975E+00
DAV:   5    -0.166992910537E+00   -0.83705E-02   -0.82989E-02    98   0.145E+00    0.674E-02
DAV:   6    -0.167146072452E+00   -0.15316E-03   -0.25910E-03   105   0.329E-01    0.412E-02
DAV:   7    -0.167299693651E+00   -0.15362E-03   -0.14012E-04   112   0.986E-02    0.172E-02
DAV:   8    -0.167350706869E+00   -0.51013E-04   -0.16682E-05    84   0.333E-02    0.282E-02
DAV:   9    -0.167333084760E+00    0.17622E-04   -0.25779E-06   105   0.157E-02    0.721E-03
DAV:  10    -0.167349416642E+00   -0.16332E-04   -0.47246E-06    84   0.195E-02    0.126E-03
DAV:  11    -0.167350563270E+00   -0.11466E-05   -0.31271E-07   133   0.370E-03    0.878E-04
DAV:  12    -0.167350961033E+00   -0.39776E-06   -0.83260E-08   119   0.222E-03
   1 F= -.16735096E+00 E0= -.90219802E-01  d E =-.154262E+00
