 vasp.6.3.2 27Jun22 (build Mar 15 2023 15:45:48) complex                        
  
 executed on             LinuxIFC date 2025.09.05  17:07:59
 running on    4 total cores
 distrk:  each k-point on    1 cores,    4 groups
 distr:  one band on NCORE=   1 cores,    1 groups


--------------------------------------------------------------------------------------------------------


 INCAR:
   SYSTEM = ni3al
   PREC = Accurate
   EDIFF = 1E-6
   ISTART = 0
   ICHARG = 2
   LREAL = Auto
   NSW = 0
   ISIF = 2
   IBRION = -1
   ISMEAR = 0
   SIGMA = 0.1
   ENCUT = 530
   ALGO = Normal
   LMAXMIX = 4
   AMIN = 0.01
   NELM = 150
   LCHARG = .T.
   LWAVE = .T.
   NCORE = 8
   KPAR = 4

 POTCAR:    PAW_PBE O 08Apr2002                   
 POTCAR:    PAW_PBE O 08Apr2002                   
   VRHFIN =O: s2p4                                                                                  
   LEXCH  = PE                                                                                      
   EATOM  =   432.3788 eV,   31.7789 Ry                                                             
                                                                                                    
   TITEL  = PAW_PBE O 08Apr2002                                                                     
   LULTRA =        F    use ultrasoft PP ?                                                          
   IUNSCR =        1    unscreen: 0-lin 1-nonlin 2-no                                               
   RPACOR =    1.200    partial core radius                                                         
   POMASS =   16.000; ZVAL   =    6.000    mass and valenz                                          
   RCORE  =    1.520    outmost cutoff radius                                                       
   RWIGS  =    1.550; RWIGS  =    0.820    wigner-seitz radius (au A)                               
   ENMAX  =  400.000; ENMIN  =  300.000 eV                                                          
   ICORE  =        2    local potential                                                             
   LCOR   =        T    correct aug charges                                                         
   LPAW   =        T    paw PP                                                                      
   EAUG   =  605.392                                                                                
   DEXC   =    0.000                                                                                
   RMAX   =    1.553    core radius for proj-oper                                                   
   RAUG   =    1.300    factor for augmentation sphere                                              
   RDEP   =    1.550    radius for radial grids                                                     
   RDEPT  =    1.329    core radius for aug-charge                                                  
                                                                                                    
   Atomic configuration                                                                             
    4 entries                                                                                       
     n  l   j            E        occ.                                                              
     1  0  0.50      -514.6923   2.0000                                                             
     2  0  0.50       -23.9615   2.0000                                                             
     2  1  0.50        -9.0305   4.0000                                                             
     3  2  1.50        -9.5241   0.0000                                                             
   Description                                                                                      
     l       E           TYP  RCUT    TYP  RCUT                                                     
     0    -23.9615318     23  1.200                                                                 
     0     -9.5240782     23  1.200                                                                 
     1     -9.0304911     23  1.520                                                                 
     1      8.1634956     23  1.520                                                                 
     2     -9.5240782      7  1.500                                                                 
  local pseudopotential read in
  partial core-charges read in
  partial kinetic energy density read in
  kinetic energy density of atom read in
  atomic valenz-charges read in
  non local Contribution for L=           0  read in
    real space projection operators read in
  non local Contribution for L=           0  read in
    real space projection operators read in
  non local Contribution for L=           1  read in
    real space projection operators read in
  non local Contribution for L=           1  read in
    real space projection operators read in
    PAW grid and wavefunctions read in
 
   number of l-projection  operators is LMAX  =           4
   number of lm-projection operators is LMMAX =           8
 
 -----------------------------------------------------------------------------
|                                                                             |
|               ----> ADVICE to this user running VASP <----                  |
|                                                                             |
|     You have a (more or less) 'small supercell' and for smaller cells       |
|     it is recommended to use the reciprocal-space projection scheme!        |
|     The real-space optimization is not efficient for small cells and it     |
|     is also less accurate ...                                               |
|     Therefore, set LREAL=.FALSE. in the INCAR file.                         |
|                                                                             |
 -----------------------------------------------------------------------------

 Optimization of the real space projectors (new method)

 maximal supplied QI-value         = 24.76
 optimisation between [QCUT,QGAM] = [ 11.64, 23.52] = [ 37.91,154.88] Ry 
 Optimized for a Real-space Cutoff    1.16 Angstroem

   l    n(q)    QCUT    max X(q) W(low)/X(q) W(high)/X(q)  e(spline) 
   0      8    11.635    20.381    0.63E-04    0.20E-03    0.27E-06
   0      8    11.635    15.268    0.67E-04    0.21E-03    0.29E-06
   1      8    11.635     5.964    0.19E-03    0.13E-03    0.31E-06
   1      8    11.635     5.382    0.18E-03    0.10E-03    0.27E-06
  PAW_PBE O 08Apr2002                   :
 energy of atom  1       EATOM= -432.3788
 kinetic energy error for atom=    0.0203 (will be added to EATOM!!)
 
 
 POSCAR: Generated by VASPKIT code
  positions in direct lattice
  No initial velocities read in
 exchange correlation table for  LEXCH =        8
   RHO(1)=    0.500       N(1)  =     2000
   RHO(2)=  100.500       N(2)  =     4000

 VTST: version 4.2, (08/11/21)

 CHAIN: initializing optimizer
 
 OPT: Using VASP Dynamics algorithm
 CHAIN: Read ICHAIN            0
 
 POSCAR: Generated by VASPKIT code
  positions in direct lattice
  No initial velocities read in
 


--------------------------------------------------------------------------------------------------------


 ion  position               nearest neighbor table
   1  0.518  0.518  0.408-
 
  LATTYP: Found a simple tetragonal cell.
 ALAT       =     9.4983997345
 C/A-ratio  =     2.5796870899
  
  Lattice vectors:
  
 A1 = (   9.4983997345,   0.0000000000,   0.0000000000)
 A2 = (   0.0000000000,   9.4983997345,   0.0000000000)
 A3 = (   0.0000000000,   0.0000000000,  24.5028991699)


Analysis of symmetry for initial positions (statically):
=====================================================================
 Subroutine PRICEL returns:
 Original cell was already a primitive cell.
 

 Routine SETGRP: Setting up the symmetry group for a 
 simple tetragonal supercell.


 Subroutine GETGRP returns: Found 16 space group operations
 (whereof  1 operations were pure point group operations)
 out of a pool of 16 trial point group operations.


The static configuration has the point symmetry C_1 .
 The point group associated with its full space group is D_4h.


Analysis of symmetry for dynamics (positions and initial velocities):
=====================================================================
 Subroutine PRICEL returns:
 Original cell was already a primitive cell.
 

 Routine SETGRP: Setting up the symmetry group for a 
 simple tetragonal supercell.


 Subroutine GETGRP returns: Found 16 space group operations
 (whereof  1 operations were pure point group operations)
 out of a pool of 16 trial point group operations.


The dynamic configuration has the point symmetry C_1 .
 The point group associated with its full space group is D_4h.


Analysis of constrained symmetry for selective dynamics:
=====================================================================
 Subroutine PRICEL returns:
 Original cell was already a primitive cell.
 

 Routine SETGRP: Setting up the symmetry group for a 
 simple tetragonal supercell.


 Subroutine GETGRP returns: Found 16 space group operations
 (whereof  1 operations were pure point group operations)
 out of a pool of 16 trial point group operations.


The constrained configuration has the point symmetry C_1 .
 The point group associated with its full space group is D_4h.


 Subroutine INISYM returns: Found 16 space group operations
 (whereof  1 operations are pure point group operations),
 and found     1 'primitive' translations


----------------------------------------------------------------------------------------

                                     Primitive cell                                     

  volume of cell :    2210.6417

  direct lattice vectors                    reciprocal lattice vectors
     9.498399734  0.000000000  0.000000000     0.105280892  0.000000000  0.000000000
     0.000000000  9.498399734  0.000000000     0.000000000  0.105280892  0.000000000
     0.000000000  0.000000000 24.502899170     0.000000000  0.000000000  0.040811497

  length of vectors
     9.498399734  9.498399734 24.502899170     0.105280892  0.105280892  0.040811497

  position of ions in fractional coordinates (direct lattice)
     0.517592845  0.518150687  0.408481096

  ion indices of the primitive-cell ions
   primitive index   ion index
                 1           1

----------------------------------------------------------------------------------------

 
 
 KPOINTS: K-Spacing Value to Generate K-Mesh: 0.03

Automatic generation of k-mesh.
 Grid dimensions read from file:
 generate k-points for:    4    4    1

 Generating k-lattice:

  Cartesian coordinates                     Fractional coordinates (reciprocal lattice)
     0.026320223  0.000000000  0.000000000     0.250000000  0.000000000  0.000000000
     0.000000000  0.026320223  0.000000000     0.000000000  0.250000000  0.000000000
     0.000000000  0.000000000  0.040811497     0.000000000  0.000000000  1.000000000

  Length of vectors
     0.026320223  0.026320223  0.040811497

  Shift w.r.t. Gamma in fractional coordinates (k-lattice)
     0.000000000  0.000000000  0.000000000

 
 Subroutine IBZKPT returns following result:
 ===========================================
 
 Found      6 irreducible k-points:
 
 Following reciprocal coordinates:
            Coordinates               Weight
  0.000000  0.000000  0.000000      1.000000
  0.250000  0.000000  0.000000      4.000000
  0.500000  0.000000  0.000000      2.000000
  0.250000  0.250000  0.000000      4.000000
  0.500000  0.250000  0.000000      4.000000
  0.500000  0.500000  0.000000      1.000000
 
 Following cartesian coordinates:
            Coordinates               Weight
  0.000000  0.000000  0.000000      1.000000
  0.026320  0.000000  0.000000      4.000000
  0.052640  0.000000  0.000000      2.000000
  0.026320  0.026320  0.000000      4.000000
  0.052640  0.026320  0.000000      4.000000
  0.052640  0.052640  0.000000      1.000000
 


--------------------------------------------------------------------------------------------------------




 Dimension of arrays:
   k-points           NKPTS =      6   k-points in BZ     NKDIM =      6   number of bands    NBANDS=      7
   number of dos      NEDOS =    301   number of ions     NIONS =      1
   non local maximal  LDIM  =      4   non local SUM 2l+1 LMDIM =      8
   total plane-waves  NPLWV = 995328
   max r-space proj   IRMAX =   3027   max aug-charges    IRDMAX=   6040
   dimension x,y,z NGX =    72 NGY =   72 NGZ =  192
   dimension x,y,z NGXF=   144 NGYF=  144 NGZF=  384
   support grid    NGXF=   144 NGYF=  144 NGZF=  384
   ions per type =               1
   NGX,Y,Z   is equivalent  to a cutoff of  12.60, 12.60, 13.03 a.u.
   NGXF,Y,Z  is equivalent  to a cutoff of  25.20, 25.20, 26.05 a.u.

 SYSTEM =  ni3al                                   
 POSCAR =  Generated by VASPKIT code               

 Startparameter for this run:
   NWRITE =      2    write-flag & timer
   PREC   = accura    normal or accurate (medium, high low for compatibility)
   ISTART =      0    job   : 0-new  1-cont  2-samecut
   ICHARG =      2    charge: 1-file 2-atom 10-const
   ISPIN  =      1    spin polarized calculation?
   LNONCOLLINEAR =      F non collinear calculations
   LSORBIT =      F    spin-orbit coupling
   INIWAV =      1    electr: 0-lowe 1-rand  2-diag
   LASPH  =      F    aspherical Exc in radial PAW
 Electronic Relaxation 1
   ENCUT  =  530.0 eV  38.95 Ry    6.24 a.u.  17.83 17.83 46.00*2*pi/ulx,y,z
   ENINI  =  530.0     initial cutoff
   ENAUG  =  605.4 eV  augmentation charge cutoff
   NELM   =    150;   NELMIN=  2; NELMDL= -5     # of ELM steps 
   EDIFF  = 0.1E-05   stopping-criterion for ELM
   LREAL  =      T    real-space projection
   NLSPLINE    = F    spline interpolate recip. space projectors
   LCOMPAT=      F    compatible to vasp.4.4
   GGA_COMPAT  = T    GGA compatible to vasp.4.4-vasp.4.6
   LMAXPAW     = -100 max onsite density
   LMAXMIX     =    4 max onsite mixed and CHGCAR
   VOSKOWN=      0    Vosko Wilk Nusair interpolation
   ROPT   =   -0.00025
 Ionic relaxation
   EDIFFG = 0.1E-04   stopping-criterion for IOM
   NSW    =      0    number of steps for IOM
   NBLOCK =      1;   KBLOCK =      1    inner block; outer block 
   IBRION =     -1    ionic relax: 0-MD 1-quasi-New 2-CG
   NFREE  =      0    steps in history (QN), initial steepest desc. (CG)
   ISIF   =      2    stress and relaxation
   IWAVPR =     10    prediction:  0-non 1-charg 2-wave 3-comb
   ISYM   =      2    0-nonsym 1-usesym 2-fastsym
   LCORR  =      T    Harris-Foulkes like correction to forces

   POTIM  = 0.5000    time-step for ionic-motion
   TEIN   =    0.0    initial temperature
   TEBEG  =    0.0;   TEEND  =   0.0 temperature during run
   SMASS  =  -3.00    Nose mass-parameter (am)
   estimated Nose-frequenzy (Omega)   =  0.10E-29 period in steps = 0.13E+47 mass=  -0.206E-26a.u.
   SCALEE = 1.0000    scale energy and forces
   NPACO  =    256;   APACO  = 10.0  distance and # of slots for P.C.
   PSTRESS=    0.0 pullay stress

  Mass of Ions in am
   POMASS =  16.00
  Ionic Valenz
   ZVAL   =   6.00
  Atomic Wigner-Seitz radii
   RWIGS  =  -1.00
  virtual crystal weights 
   VCA    =   1.00
   NELECT =       6.0000    total number of electrons
   NUPDOWN=      -1.0000    fix difference up-down

 DOS related values:
   EMIN   =  10.00;   EMAX   =-10.00  energy-range for DOS
   EFERMI =   0.00
   ISMEAR =     0;   SIGMA  =   0.10  broadening in eV -4-tet -1-fermi 0-gaus

 Electronic relaxation 2 (details)
   IALGO  =     38    algorithm
   LDIAG  =      T    sub-space diagonalisation (order eigenvalues)
   LSUBROT=      F    optimize rotation matrix (better conditioning)
   TURBO    =      0    0=normal 1=particle mesh
   IRESTART =      0    0=no restart 2=restart with 2 vectors
   NREBOOT  =      0    no. of reboots
   NMIN     =      0    reboot dimension
   EREF     =   0.00    reference energy to select bands
   IMIX   =      4    mixing-type and parameters
     AMIX     =   0.40;   BMIX     =  1.00
     AMIX_MAG =   1.60;   BMIX_MAG =  1.00
     AMIN     =   0.01
     WC   =   100.;   INIMIX=   1;  MIXPRE=   1;  MAXMIX= -45

 Intra band minimization:
   WEIMIN = 0.0000     energy-eigenvalue tresh-hold
   EBREAK =  0.36E-07  absolut break condition
   DEPER  =   0.30     relativ break condition  

   TIME   =   0.40     timestep for ELM

  volume/ion in A,a.u.               =    2210.64     14918.15
  Fermi-wavevector in a.u.,A,eV,Ry     =   0.228360  0.431537  0.709518  0.052148
  Thomas-Fermi vector in A             =   1.018975
 
 Write flags
   LWAVE        =      T    write WAVECAR
   LDOWNSAMPLE  =      F    k-point downsampling of WAVECAR
   LCHARG       =      T    write CHGCAR
   LVTOT        =      F    write LOCPOT, total local potential
   LVHAR        =      F    write LOCPOT, Hartree potential only
   LELF         =      F    write electronic localiz. function (ELF)
   LORBIT       =      0    0 simple, 1 ext, 2 COOP (PROOUT), +10 PAW based schemes


 Dipole corrections
   LMONO  =      F    monopole corrections only (constant potential shift)
   LDIPOL =      F    correct potential (dipole corrections)
   IDIPOL =      0    1-x, 2-y, 3-z, 4-all directions 
   EPSILON=  1.0000000 bulk dielectric constant

 Exchange correlation treatment:
   GGA     =    --    GGA type
   LEXCH   =     8    internal setting for exchange type
   LIBXC   =     F    Libxc                    
   VOSKOWN =     0    Vosko Wilk Nusair interpolation
   LHFCALC =     F    Hartree Fock is set to
   LHFONE  =     F    Hartree Fock one center treatment
   AEXX    =    0.0000 exact exchange contribution

 Linear response parameters
   LEPSILON=     F    determine dielectric tensor
   LRPA    =     F    only Hartree local field effects (RPA)
   LNABLA  =     F    use nabla operator in PAW spheres
   LVEL    =     F    velocity operator in full k-point grid
   CSHIFT  =0.1000    complex shift for real part using Kramers Kronig
   OMEGAMAX=  -1.0    maximum frequency
   DEG_THRESHOLD= 0.2000000E-02 threshold for treating states as degnerate
   RTIME   =   -0.100 relaxation time in fs
  (WPLASMAI=    0.000 imaginary part of plasma frequency in eV, 0.658/RTIME)
   DFIELD  = 0.0000000 0.0000000 0.0000000 field for delta impulse in time
 
  Optional k-point grid parameters
   LKPOINTS_OPT  =     F    use optional k-point grid
   KPOINTS_OPT_MODE=     1    mode for optional k-point grid
 
 Orbital magnetization related:
   ORBITALMAG=     F  switch on orbital magnetization
   LCHIMAG   =     F  perturbation theory with respect to B field
   DQ        =  0.001000  dq finite difference perturbation B field
   LLRAUG    =     F  two centre corrections for induced B field



--------------------------------------------------------------------------------------------------------


 Static calculation
 charge density and potential will be updated during run
 non-spin polarized calculation
 Variant of blocked Davidson
 Davidson routine will perform the subspace rotation
 perform sub-space diagonalisation
    after iterative eigenvector-optimisation
 modified Broyden-mixing scheme, WC =      100.0
 initial mixing is a Kerker type mixing with AMIX =  0.4000 and BMIX =      1.0000
 Hartree-type preconditioning will be used
 using additional bands            4
 real space projection scheme for non local part
 use partial core corrections
 calculate Harris-corrections to forces 
   (improved forces if not selfconsistent)
 use gradient corrections 
 use of overlap-Matrix (Vanderbilt PP)
 Gauss-broadening in eV      SIGMA  =   0.10


--------------------------------------------------------------------------------------------------------


  energy-cutoff  :      530.00
  volume of cell :     2210.64
      direct lattice vectors                 reciprocal lattice vectors
     9.498399734  0.000000000  0.000000000     0.105280892  0.000000000  0.000000000
     0.000000000  9.498399734  0.000000000     0.000000000  0.105280892  0.000000000
     0.000000000  0.000000000 24.502899170     0.000000000  0.000000000  0.040811497

  length of vectors
     9.498399734  9.498399734 24.502899170     0.105280892  0.105280892  0.040811497


 
 k-points in units of 2pi/SCALE and weight: K-Spacing Value to Generate K-Mesh: 0.03
   0.00000000  0.00000000  0.00000000       0.062
   0.02632022  0.00000000  0.00000000       0.250
   0.05264045  0.00000000  0.00000000       0.125
   0.02632022  0.02632022  0.00000000       0.250
   0.05264045  0.02632022  0.00000000       0.250
   0.05264045  0.05264045  0.00000000       0.062
 
 k-points in reciprocal lattice and weights: K-Spacing Value to Generate K-Mesh: 0.03
   0.00000000  0.00000000  0.00000000       0.062
   0.25000000  0.00000000  0.00000000       0.250
   0.50000000  0.00000000  0.00000000       0.125
   0.25000000  0.25000000  0.00000000       0.250
   0.50000000  0.25000000  0.00000000       0.250
   0.50000000  0.50000000  0.00000000       0.062
 
 position of ions in fractional coordinates (direct lattice) 
   0.51759285  0.51815069  0.40848110
 
 position of ions in cartesian coordinates  (Angst):
   4.91630374  4.92160235 10.00897111
 


--------------------------------------------------------------------------------------------------------


 k-point   1 :   0.0000 0.0000 0.0000  plane waves:   61279
 k-point   2 :   0.2500 0.0000 0.0000  plane waves:   61234
 k-point   3 :   0.5000 0.0000 0.0000  plane waves:   61280
 k-point   4 :   0.2500 0.2500 0.0000  plane waves:   61217
 k-point   5 :   0.5000 0.2500 0.0000  plane waves:   61214
 k-point   6 :   0.5000 0.5000 0.0000  plane waves:   61212

 maximum and minimum number of plane-waves per node :     61280    61212

 maximum number of plane-waves:     61280
 maximum index in each direction: 
   IXMAX=   17   IYMAX=   17   IZMAX=   45
   IXMIN=  -18   IYMIN=  -18   IZMIN=  -45


 serial   3D FFT for wavefunctions
 parallel 3D FFT for charge:
    minimum data exchange during FFTs selected (reduces bandwidth)


 total amount of memory used by VASP MPI-rank0   739630. kBytes
=======================================================================

   base      :      30000. kBytes
   nonlr-proj:        254. kBytes
   fftplans  :     272216. kBytes
   grid      :     423429. kBytes
   one-center:          3. kBytes
   wavefun   :      13728. kBytes
 
     INWAV:  cpu time      0.0003: real time      0.0000
 Broyden mixing: mesh for mixing (old mesh)
   NGX = 35   NGY = 35   NGZ = 91
  (NGX  =144   NGY  =144   NGZ  =384)
  gives a total of 111475 points

 initial charge density was supplied:
 charge density of overlapping atoms calculated
 number of electron       6.0000000 magnetization 
 keeping initial charge density in first step


--------------------------------------------------------------------------------------------------------


 Maximum index for non-local projection operator         2898
 Maximum index for augmentation-charges         5686 (set IRDMAX)


--------------------------------------------------------------------------------------------------------


 First call to EWALD:  gamma=   0.136
 Maximum number of real-space cells 4x 4x 2
 Maximum number of reciprocal cells 2x 2x 5

    FEWALD:  cpu time      0.0033: real time      0.0017


--------------------------------------- Iteration      1(   1)  ---------------------------------------


    POTLOK:  cpu time      9.3778: real time      1.4389
    SETDIJ:  cpu time      1.0033: real time      0.1433
     EDDAV:  cpu time      1.0915: real time      0.2246
       DOS:  cpu time      0.0119: real time      0.0020
    --------------------------------------------
      LOOP:  cpu time     11.4850: real time      1.8090

 eigenvalue-minimisations  :   126
 total energy-change (2. order) : 0.4911663E+02  (-0.1104920E+03)
 number of electron       6.0000000 magnetization 
 augmentation part        6.0000000 magnetization 

 Free energy of the ion-electron system (eV)
  ---------------------------------------------------
  alpha Z        PSCENC =         0.06285707
  Ewald energy   TEWEN  =       -32.71394480
  -Hartree energ DENC   =      -340.16700132
  -exchange      EXHF   =         0.00000000
  -V(xc)+E(xc)   XCENC  =        26.06853411
  PAW double counting   =       346.54947689     -348.34814756
  entropy T*S    EENTRO =        -0.02255321
  eigenvalues    EBANDS =       -34.67111482
  atomic energy  EATOM  =       432.35852233
  Solvation  Ediel_sol  =         0.00000000
  ---------------------------------------------------
  free energy    TOTEN  =        49.11662870 eV

  energy without entropy =       49.13918191  energy(sigma->0) =       49.12790530


--------------------------------------------------------------------------------------------------------




--------------------------------------- Iteration      1(   2)  ---------------------------------------


     EDDAV:  cpu time      1.4127: real time      0.2373
       DOS:  cpu time      0.0022: real time      0.0004
    --------------------------------------------
      LOOP:  cpu time      1.4146: real time      0.2376

 eigenvalue-minimisations  :   168
 total energy-change (2. order) :-0.4028268E+02  (-0.3898501E+02)
 number of electron       6.0000000 magnetization 
 augmentation part        6.0000000 magnetization 

 Free energy of the ion-electron system (eV)
  ---------------------------------------------------
  alpha Z        PSCENC =         0.06285707
  Ewald energy   TEWEN  =       -32.71394480
  -Hartree energ DENC   =      -340.16700132
  -exchange      EXHF   =         0.00000000
  -V(xc)+E(xc)   XCENC  =        26.06853411
  PAW double counting   =       346.54947689     -348.34814756
  entropy T*S    EENTRO =        -0.00705237
  eigenvalues    EBANDS =       -74.96929588
  atomic energy  EATOM  =       432.35852233
  Solvation  Ediel_sol  =         0.00000000
  ---------------------------------------------------
  free energy    TOTEN  =         8.83394848 eV

  energy without entropy =        8.84100085  energy(sigma->0) =        8.83747466


--------------------------------------------------------------------------------------------------------




--------------------------------------- Iteration      1(   3)  ---------------------------------------


     EDDAV:  cpu time      0.9248: real time      0.1335
       DOS:  cpu time      0.0026: real time      0.0004
    --------------------------------------------
      LOOP:  cpu time      0.9275: real time      0.1339

 eigenvalue-minimisations  :    84
 total energy-change (2. order) :-0.8650422E+01  (-0.8649617E+01)
 number of electron       6.0000000 magnetization 
 augmentation part        6.0000000 magnetization 

 Free energy of the ion-electron system (eV)
  ---------------------------------------------------
  alpha Z        PSCENC =         0.06285707
  Ewald energy   TEWEN  =       -32.71394480
  -Hartree energ DENC   =      -340.16700132
  -exchange      EXHF   =         0.00000000
  -V(xc)+E(xc)   XCENC  =        26.06853411
  PAW double counting   =       346.54947689     -348.34814756
  entropy T*S    EENTRO =        -0.01173504
  eigenvalues    EBANDS =       -83.61503481
  atomic energy  EATOM  =       432.35852233
  Solvation  Ediel_sol  =         0.00000000
  ---------------------------------------------------
  free energy    TOTEN  =         0.18352687 eV

  energy without entropy =        0.19526192  energy(sigma->0) =        0.18939439


--------------------------------------------------------------------------------------------------------




--------------------------------------- Iteration      1(   4)  ---------------------------------------


     EDDAV:  cpu time      0.9324: real time      0.1335
       DOS:  cpu time      0.0029: real time      0.0004
    --------------------------------------------
      LOOP:  cpu time      0.9353: real time      0.1340

 eigenvalue-minimisations  :    84
 total energy-change (2. order) :-0.3421493E+00  (-0.2045817E+00)
 number of electron       6.0000000 magnetization 
 augmentation part        6.0000000 magnetization 

 Free energy of the ion-electron system (eV)
  ---------------------------------------------------
  alpha Z        PSCENC =         0.06285707
  Ewald energy   TEWEN  =       -32.71394480
  -Hartree energ DENC   =      -340.16700132
  -exchange      EXHF   =         0.00000000
  -V(xc)+E(xc)   XCENC  =        26.06853411
  PAW double counting   =       346.54947689     -348.34814756
  entropy T*S    EENTRO =        -0.15418850
  eigenvalues    EBANDS =       -83.81473066
  atomic energy  EATOM  =       432.35852233
  Solvation  Ediel_sol  =         0.00000000
  ---------------------------------------------------
  free energy    TOTEN  =        -0.15862243 eV

  energy without entropy =       -0.00443393  energy(sigma->0) =       -0.08152818


--------------------------------------------------------------------------------------------------------




--------------------------------------- Iteration      1(   5)  ---------------------------------------


     EDDAV:  cpu time      1.2828: real time      0.1836
       DOS:  cpu time      0.0025: real time      0.0004
    CHARGE:  cpu time      1.4702: real time      0.2102
    MIXING:  cpu time      0.7815: real time      0.1118
    --------------------------------------------
      LOOP:  cpu time      3.5377: real time      0.5061

 eigenvalue-minimisations  :    98
 total energy-change (2. order) :-0.8370482E-02  (-0.8298899E-02)
 number of electron       6.0000004 magnetization 
 augmentation part        0.5112350 magnetization 

 Broyden mixing:
  rms(total) = 0.67387E-02    rms(broyden)= 0.59969E-02
  rms(prec ) = 0.60428E-02
  weight for this iteration     100.00
  WARNING: grid for Broyden might be to small

 Free energy of the ion-electron system (eV)
  ---------------------------------------------------
  alpha Z        PSCENC =         0.06285707
  Ewald energy   TEWEN  =       -32.71394480
  -Hartree energ DENC   =      -340.16700132
  -exchange      EXHF   =         0.00000000
  -V(xc)+E(xc)   XCENC  =        26.06853411
  PAW double counting   =       346.54947689     -348.34814756
  entropy T*S    EENTRO =        -0.15426227
  eigenvalues    EBANDS =       -83.82302737
  atomic energy  EATOM  =       432.35852233
  Solvation  Ediel_sol  =         0.00000000
  ---------------------------------------------------
  free energy    TOTEN  =        -0.16699291 eV

  energy without entropy =       -0.01273064  energy(sigma->0) =       -0.08986178


--------------------------------------------------------------------------------------------------------




--------------------------------------- Iteration      1(   6)  ---------------------------------------


    POTLOK:  cpu time      9.1687: real time      1.4013
    SETDIJ:  cpu time      0.5007: real time      0.0723
     EDDAV:  cpu time      1.2762: real time      0.1848
       DOS:  cpu time      0.0028: real time      0.0004
    CHARGE:  cpu time      1.2606: real time      0.1809
    MIXING:  cpu time      0.7460: real time      0.1075
    --------------------------------------------
      LOOP:  cpu time     12.9549: real time      1.9472

 eigenvalue-minimisations  :   105
 total energy-change (2. order) :-0.1531619E-03  (-0.2590995E-03)
 number of electron       6.0000004 magnetization 
 augmentation part        0.5119486 magnetization 

 Broyden mixing:
  rms(total) = 0.41214E-02    rms(broyden)= 0.40727E-02
  rms(prec ) = 0.41162E-02
  weight for this iteration     100.00

 eigenvalues of (default mixing * dielectric matrix)
  average eigenvalue GAMMA=   1.4781
  1.4781

 Free energy of the ion-electron system (eV)
  ---------------------------------------------------
  alpha Z        PSCENC =         0.06285707
  Ewald energy   TEWEN  =       -32.71394480
  -Hartree energ DENC   =      -340.13997616
  -exchange      EXHF   =         0.00000000
  -V(xc)+E(xc)   XCENC  =        26.06682640
  PAW double counting   =       346.71217549     -348.51328512
  entropy T*S    EENTRO =        -0.15426232
  eigenvalues    EBANDS =       -83.84605896
  atomic energy  EATOM  =       432.35852233
  Solvation  Ediel_sol  =         0.00000000
  ---------------------------------------------------
  free energy    TOTEN  =        -0.16714607 eV

  energy without entropy =       -0.01288376  energy(sigma->0) =       -0.09001491


--------------------------------------------------------------------------------------------------------




--------------------------------------- Iteration      1(   7)  ---------------------------------------


    POTLOK:  cpu time      9.2510: real time      1.4128
    SETDIJ:  cpu time      0.2869: real time      0.0410
     EDDAV:  cpu time      1.1252: real time      0.1612
       DOS:  cpu time      0.0027: real time      0.0004
    CHARGE:  cpu time      1.2569: real time      0.1797
    MIXING:  cpu time      0.7034: real time      0.1005
    --------------------------------------------
      LOOP:  cpu time     12.6260: real time      1.8956

 eigenvalue-minimisations  :   112
 total energy-change (2. order) :-0.1536212E-03  (-0.1401189E-04)
 number of electron       6.0000004 magnetization 
 augmentation part        0.5117181 magnetization 

 Broyden mixing:
  rms(total) = 0.17171E-02    rms(broyden)= 0.17107E-02
  rms(prec ) = 0.17263E-02
  weight for this iteration     100.00

 eigenvalues of (default mixing * dielectric matrix)
  average eigenvalue GAMMA=   1.5508
  0.7134  2.3882

 Free energy of the ion-electron system (eV)
  ---------------------------------------------------
  alpha Z        PSCENC =         0.06285707
  Ewald energy   TEWEN  =       -32.71394480
  -Hartree energ DENC   =      -340.17779554
  -exchange      EXHF   =         0.00000000
  -V(xc)+E(xc)   XCENC  =        26.06937434
  PAW double counting   =       346.93655378     -348.74182943
  entropy T*S    EENTRO =        -0.15426226
  eigenvalues    EBANDS =       -83.80677519
  atomic energy  EATOM  =       432.35852233
  Solvation  Ediel_sol  =         0.00000000
  ---------------------------------------------------
  free energy    TOTEN  =        -0.16729969 eV

  energy without entropy =       -0.01303744  energy(sigma->0) =       -0.09016857


--------------------------------------------------------------------------------------------------------




--------------------------------------- Iteration      1(   8)  ---------------------------------------


    POTLOK:  cpu time      9.1861: real time      1.3992
    SETDIJ:  cpu time      0.4143: real time      0.0592
     EDDAV:  cpu time      0.9473: real time      0.1357
       DOS:  cpu time      0.0028: real time      0.0004
    CHARGE:  cpu time      1.2552: real time      0.1795
    MIXING:  cpu time      0.7034: real time      0.1005
    --------------------------------------------
      LOOP:  cpu time     12.5091: real time      1.8744

 eigenvalue-minimisations  :    84
 total energy-change (2. order) :-0.5101322E-04  (-0.1668195E-05)
 number of electron       6.0000004 magnetization 
 augmentation part        0.5116586 magnetization 

 Broyden mixing:
  rms(total) = 0.28155E-02    rms(broyden)= 0.27929E-02
  rms(prec ) = 0.28498E-02
  weight for this iteration     100.00

 eigenvalues of (default mixing * dielectric matrix)
  average eigenvalue GAMMA=   1.1373
  2.4657  0.7033  0.2429

 Free energy of the ion-electron system (eV)
  ---------------------------------------------------
  alpha Z        PSCENC =         0.06285707
  Ewald energy   TEWEN  =       -32.71394480
  -Hartree energ DENC   =      -340.18316551
  -exchange      EXHF   =         0.00000000
  -V(xc)+E(xc)   XCENC  =        26.06971370
  PAW double counting   =       347.09060349     -348.89828475
  entropy T*S    EENTRO =        -0.15426145
  eigenvalues    EBANDS =       -83.79939078
  atomic energy  EATOM  =       432.35852233
  Solvation  Ediel_sol  =         0.00000000
  ---------------------------------------------------
  free energy    TOTEN  =        -0.16735071 eV

  energy without entropy =       -0.01308925  energy(sigma->0) =       -0.09021998


--------------------------------------------------------------------------------------------------------




--------------------------------------- Iteration      1(   9)  ---------------------------------------


    POTLOK:  cpu time      9.1221: real time      1.3920
    SETDIJ:  cpu time      0.3541: real time      0.0506
     EDDAV:  cpu time      0.9967: real time      0.1620
       DOS:  cpu time      0.0029: real time      0.0004
    CHARGE:  cpu time      1.2574: real time      0.1799
    MIXING:  cpu time      0.7089: real time      0.1015
    --------------------------------------------
      LOOP:  cpu time     12.4421: real time      1.8864

 eigenvalue-minimisations  :   105
 total energy-change (2. order) : 0.1762211E-04  (-0.2577865E-06)
 number of electron       6.0000004 magnetization 
 augmentation part        0.5116662 magnetization 

 Broyden mixing:
  rms(total) = 0.72124E-03    rms(broyden)= 0.68174E-03
  rms(prec ) = 0.70565E-03
  weight for this iteration     100.00

 eigenvalues of (default mixing * dielectric matrix)
  average eigenvalue GAMMA=   1.2753
  2.5124  1.3666  0.9892  0.2332

 Free energy of the ion-electron system (eV)
  ---------------------------------------------------
  alpha Z        PSCENC =         0.06285707
  Ewald energy   TEWEN  =       -32.71394480
  -Hartree energ DENC   =      -340.18074398
  -exchange      EXHF   =         0.00000000
  -V(xc)+E(xc)   XCENC  =        26.06956327
  PAW double counting   =       347.09991749     -348.90768111
  entropy T*S    EENTRO =        -0.15426232
  eigenvalues    EBANDS =       -83.80156103
  atomic energy  EATOM  =       432.35852233
  Solvation  Ediel_sol  =         0.00000000
  ---------------------------------------------------
  free energy    TOTEN  =        -0.16733308 eV

  energy without entropy =       -0.01307077  energy(sigma->0) =       -0.09020193


--------------------------------------------------------------------------------------------------------




--------------------------------------- Iteration      1(  10)  ---------------------------------------


    POTLOK:  cpu time      9.0748: real time      1.3842
    SETDIJ:  cpu time      0.3729: real time      0.0533
     EDDAV:  cpu time      0.8817: real time      0.1359
       DOS:  cpu time      0.0029: real time      0.0004
    CHARGE:  cpu time      1.2540: real time      0.1793
    MIXING:  cpu time      0.7368: real time      0.1053
    --------------------------------------------
      LOOP:  cpu time     12.3230: real time      1.8585

 eigenvalue-minimisations  :    84
 total energy-change (2. order) :-0.1633188E-04  (-0.4724644E-06)
 number of electron       6.0000004 magnetization 
 augmentation part        0.5117362 magnetization 

 Broyden mixing:
  rms(total) = 0.12560E-03    rms(broyden)= 0.12310E-03
  rms(prec ) = 0.12549E-03
  weight for this iteration     100.00

 eigenvalues of (default mixing * dielectric matrix)
  average eigenvalue GAMMA=   1.2171
  2.5408  1.7450  0.8242  0.7438  0.2316

 Free energy of the ion-electron system (eV)
  ---------------------------------------------------
  alpha Z        PSCENC =         0.06285707
  Ewald energy   TEWEN  =       -32.71394480
  -Hartree energ DENC   =      -340.16522690
  -exchange      EXHF   =         0.00000000
  -V(xc)+E(xc)   XCENC  =        26.06849386
  PAW double counting   =       347.10263178     -348.91009766
  entropy T*S    EENTRO =        -0.15426232
  eigenvalues    EBANDS =       -83.81632278
  atomic energy  EATOM  =       432.35852233
  Solvation  Ediel_sol  =         0.00000000
  ---------------------------------------------------
  free energy    TOTEN  =        -0.16734942 eV

  energy without entropy =       -0.01308710  energy(sigma->0) =       -0.09021826


--------------------------------------------------------------------------------------------------------




--------------------------------------- Iteration      1(  11)  ---------------------------------------


    POTLOK:  cpu time      8.9908: real time      1.3716
    SETDIJ:  cpu time      0.3775: real time      0.0539
     EDDAV:  cpu time      1.4560: real time      0.2087
       DOS:  cpu time      0.0027: real time      0.0004
    CHARGE:  cpu time      1.2534: real time      0.1795
    MIXING:  cpu time      0.7446: real time      0.1069
    --------------------------------------------
      LOOP:  cpu time     12.8250: real time      1.9210

 eigenvalue-minimisations  :   133
 total energy-change (2. order) :-0.1146628E-05  (-0.3127114E-07)
 number of electron       6.0000004 magnetization 
 augmentation part        0.5117513 magnetization 

 Broyden mixing:
  rms(total) = 0.87809E-04    rms(broyden)= 0.86745E-04
  rms(prec ) = 0.91016E-04
  weight for this iteration     100.00

 eigenvalues of (default mixing * dielectric matrix)
  average eigenvalue GAMMA=   1.3873
  2.5318  2.0764  1.2599  1.2599  0.9637  0.2318

 Free energy of the ion-electron system (eV)
  ---------------------------------------------------
  alpha Z        PSCENC =         0.06285707
  Ewald energy   TEWEN  =       -32.71394480
  -Hartree energ DENC   =      -340.16219001
  -exchange      EXHF   =         0.00000000
  -V(xc)+E(xc)   XCENC  =        26.06829352
  PAW double counting   =       347.10814084     -348.91553462
  entropy T*S    EENTRO =        -0.15426232
  eigenvalues    EBANDS =       -83.81923258
  atomic energy  EATOM  =       432.35852233
  Solvation  Ediel_sol  =         0.00000000
  ---------------------------------------------------
  free energy    TOTEN  =        -0.16735056 eV

  energy without entropy =       -0.01308824  energy(sigma->0) =       -0.09021940


--------------------------------------------------------------------------------------------------------




--------------------------------------- Iteration      1(  12)  ---------------------------------------


    POTLOK:  cpu time      8.8267: real time      1.3536
    SETDIJ:  cpu time      0.4154: real time      0.0593
     EDDAV:  cpu time      1.2928: real time      0.1852
       DOS:  cpu time      0.0028: real time      0.0004
    --------------------------------------------
      LOOP:  cpu time     10.5369: real time      1.5984

 eigenvalue-minimisations  :   119
 total energy-change (2. order) :-0.3977635E-06  (-0.8326033E-08)
 number of electron       6.0000004 magnetization 
 augmentation part        0.5117513 magnetization 

 Free energy of the ion-electron system (eV)
  ---------------------------------------------------
  alpha Z        PSCENC =         0.06285707
  Ewald energy   TEWEN  =       -32.71394480
  -Hartree energ DENC   =      -340.16460717
  -exchange      EXHF   =         0.00000000
  -V(xc)+E(xc)   XCENC  =        26.06846686
  PAW double counting   =       347.11445145     -348.92184875
  entropy T*S    EENTRO =        -0.15426232
  eigenvalues    EBANDS =       -83.81698562
  atomic energy  EATOM  =       432.35852233
  Solvation  Ediel_sol  =         0.00000000
  ---------------------------------------------------
  free energy    TOTEN  =        -0.16735096 eV

  energy without entropy =       -0.01308864  energy(sigma->0) =       -0.09021980


--------------------------------------------------------------------------------------------------------




 average (electrostatic) potential at core
  the test charge radii are     0.7215
  (the norm of the test charge is              1.0000)
       1 -83.5462
 
 
 
 E-fermi :  -8.9607     XC(G=0):  -0.1979     alpha+bet : -0.0339

 Fermi energy:        -8.9606856578

 k-point     1 :       0.0000    0.0000    0.0000
  band No.  band energies     occupation 
      1     -23.9262      2.00000
      2      -8.9911      1.33340
      3      -8.9911      1.33322
      4      -8.9911      1.33318
      5      -0.3313      0.00000
      6       0.1464      0.00000
      7       0.2165      0.00000

 k-point     2 :       0.2500    0.0000    0.0000
  band No.  band energies     occupation 
      1     -23.9262      2.00000
      2      -8.9911      1.33340
      3      -8.9911      1.33333
      4      -8.9911      1.33317
      5      -0.2409      0.00000
      6       0.2473      0.00000
      7       0.3192      0.00000

 k-point     3 :       0.5000    0.0000    0.0000
  band No.  band energies     occupation 
      1     -23.9262      2.00000
      2      -8.9912      1.33346
      3      -8.9911      1.33338
      4      -8.9911      1.33316
      5      -0.0816      0.00000
      6       0.3196      0.00000
      7       0.5544      0.00000

 k-point     4 :       0.2500    0.2500    0.0000
  band No.  band energies     occupation 
      1     -23.9262      2.00000
      2      -8.9911      1.33339
      3      -8.9911      1.33333
      4      -8.9911      1.33328
      5      -0.1514      0.00000
      6       0.3481      0.00000
      7       0.4217      0.00000

 k-point     5 :       0.5000    0.2500    0.0000
  band No.  band energies     occupation 
      1     -23.9262      2.00000
      2      -8.9912      1.33345
      3      -8.9911      1.33337
      4      -8.9911      1.33328
      5       0.0040      0.00000
      6       0.4189      0.00000
      7       0.6550      0.00000

 k-point     6 :       0.5000    0.5000    0.0000
  band No.  band energies     occupation 
      1     -23.9262      2.00000
      2      -8.9912      1.33344
      3      -8.9911      1.33339
      4      -8.9911      1.33336
      5       0.1437      0.00000
      6       0.6430      0.00000
      7       0.6430      0.00000


--------------------------------------------------------------------------------------------------------


 soft charge-density along one line, spin component           1
         0         1         2         3         4         5         6         7         8         9
 total charge-density along one line
 
 pseudopotential strength for first ion, spin component:           1
 14.291 -17.557   0.000  -0.000   0.000  -0.000   0.000  -0.000
-17.557  21.605  -0.000   0.000  -0.000   0.000  -0.000   0.000
  0.000  -0.000 -11.134  -0.000   0.000  13.913   0.000  -0.000
 -0.000   0.000  -0.000 -11.134  -0.000   0.000  13.913   0.000
  0.000  -0.000   0.000  -0.000 -11.134  -0.000   0.000  13.913
 -0.000   0.000  13.913   0.000  -0.000 -17.337  -0.000   0.000
  0.000  -0.000   0.000  13.913   0.000  -0.000 -17.337  -0.000
 -0.000   0.000  -0.000   0.000  13.913   0.000  -0.000 -17.337
 total augmentation occupancy for first ion, spin component:           1
  2.036   0.014   0.000   0.000   0.000   0.000   0.000   0.000
  0.014   0.000   0.000   0.000   0.000   0.000   0.000   0.000
  0.000   0.000   1.328   0.000   0.000  -0.002  -0.000   0.000
  0.000   0.000   0.000   1.328  -0.000   0.000  -0.002   0.000
  0.000   0.000   0.000  -0.000   1.328   0.000  -0.000  -0.002
  0.000   0.000  -0.002   0.000   0.000   0.000   0.000   0.000
  0.000   0.000  -0.000  -0.002  -0.000   0.000   0.000   0.000
  0.000   0.000   0.000   0.000  -0.002   0.000   0.000   0.000


------------------------ aborting loop because EDIFF is reached ----------------------------------------


    CHARGE:  cpu time      1.7264: real time      0.2468
    FORLOC:  cpu time      0.7383: real time      0.1055
    FORNL :  cpu time      0.2270: real time      0.0326
    STRESS:  cpu time      0.7322: real time      0.1051
    FORCOR:  cpu time      9.0085: real time      1.3580
    FORHAR:  cpu time      0.7317: real time      0.2817
    MIXING:  cpu time      0.5289: real time      0.1073
    OFIELD:  cpu time      0.0014: real time      0.0002

  FORCE on cell =-STRESS in cart. coord.  units (eV):
  Direction    XX          YY          ZZ          XY          YZ          ZX
  --------------------------------------------------------------------------------------
  Alpha Z     0.06286     0.06286     0.06286
  Ewald      20.50188    20.50188   -73.71772     0.00000    -0.00000     0.00000
  Hartree   144.47592   144.47592    51.21348    -0.00000     0.00000     0.00000
  E(xc)     -27.96100   -27.96100   -27.96100    -0.00000     0.00000     0.00000
  Local    -248.76818  -248.76817   -61.28823     0.00000    -0.00000    -0.00000
  n-local   -20.23884   -20.23838   -20.24042     0.00030     0.00033     0.00058
  augment     5.58963     5.58955     5.58948    -0.00001     0.00002     0.00001
  Kinetic   126.32199   126.31868   126.32234     0.00023     0.00009    -0.00043
  Fock        0.00000     0.00000     0.00000     0.00000     0.00000     0.00000
  -------------------------------------------------------------------------------------
  Total      -0.01721    -0.01721    -0.01921     0.00000    -0.00000     0.00000
  in kB      -0.01248    -0.01248    -0.01392     0.00000    -0.00000     0.00000
  external pressure =       -0.01 kB  Pullay stress =        0.00 kB


 VOLUME and BASIS-vectors are now :
 -----------------------------------------------------------------------------
  energy-cutoff  :      530.00
  volume of cell :     2210.64
      direct lattice vectors                 reciprocal lattice vectors
     9.498399734  0.000000000  0.000000000     0.105280892  0.000000000  0.000000000
     0.000000000  9.498399734  0.000000000     0.000000000  0.105280892  0.000000000
     0.000000000  0.000000000 24.502899170     0.000000000  0.000000000  0.040811497

  length of vectors
     9.498399734  9.498399734 24.502899170     0.105280892  0.105280892  0.040811497


 FORCES acting on ions
    electron-ion (+dipol)            ewald-force                    non-local-force                 convergence-correction
 -----------------------------------------------------------------------------------------------
   -.745E-05 -.240E-04 -.167E-04   0.176E-15 0.382E-16 -.528E-16   0.162E-20 0.105E-20 0.229E-20   0.754E-07 0.244E-06 -.154E-06
 -----------------------------------------------------------------------------------------------
   -.745E-05 -.240E-04 -.167E-04   0.176E-15 0.382E-16 -.528E-16   0.162E-20 0.105E-20 0.229E-20   0.754E-07 0.244E-06 -.154E-06
 
 
 POSITION                                       TOTAL-FORCE (eV/Angst)
 -----------------------------------------------------------------------------------
      4.91630      4.92160     10.00897        -0.000000      0.000000      0.000000
 -----------------------------------------------------------------------------------
    total drift:                               -0.000007     -0.000024     -0.000017


--------------------------------------------------------------------------------------------------------



  FREE ENERGIE OF THE ION-ELECTRON SYSTEM (eV)
  ---------------------------------------------------
  free  energy   TOTEN  =        -0.16735096 eV

  energy  without entropy=       -0.01308864  energy(sigma->0) =       -0.09021980
 


--------------------------------------------------------------------------------------------------------


    POTLOK:  cpu time      9.2390: real time      1.4163


--------------------------------------------------------------------------------------------------------


 stress matrix after NEB project (eV)
     -0.01721      0.00000      0.00000
      0.00000     -0.01721     -0.00000
      0.00000     -0.00000     -0.01921
  FORCES: max atom, RMS     0.000000    0.000000
  FORCE total and by dimension    0.000000    0.000000
  Stress total and by dimension    0.031012    0.019211
 writing wavefunctions
     LOOP+:  cpu time    161.7440: real time     36.0253
    4ORBIT:  cpu time      0.0000: real time      0.0000

 total amount of memory used by VASP MPI-rank0   739630. kBytes
=======================================================================

   base      :      30000. kBytes
   nonlr-proj:        254. kBytes
   fftplans  :     272216. kBytes
   grid      :     423429. kBytes
   one-center:          3. kBytes
   wavefun   :      13728. kBytes
 
  
  
 General timing and accounting informations for this job:
 ========================================================
  
                  Total CPU time used (sec):      237.945
                            User time (sec):      178.092
                          System time (sec):       59.853
                         Elapsed time (sec):       71.869
  
                   Maximum memory used (kb):     2598392.
                   Average memory used (kb):          N/A
  
                          Minor page faults:       364284
                          Major page faults:          125
                 Voluntary context switches:        35448
 
 PROFILE, used timers:     225
 =============================
 
 index                 routine                    time                            calls level
----------------------------------------------------------------------------------------------
    1    total_time                           71.869484                                1   1
    2      init_hip                              0.456579                              1   2
    3      crpa_reader                           0.000059                              1   2
    4      hip_init_hipblas                      0.000267                              1   2
    5      hip_init_rocsolver                    0.000184                              1   2
    6      m_bcast_d                             0.000780                              5   2
    7      inisym                                0.011576                              1   2
    8        posmap                                0.000017                            2   3
    9      hip_hipfft_makeplans                  0.002780                              3   2
   10        hip_hipfft_makeplan                   0.002777                            6   3
   11      brgrid                                0.024020                              1   2
   12      stufak                                0.014509                              1   2
   13      fft3d_mpi                             0.140975                              3   2
   14        fftbrc_mpi                            0.113583                            3   3
   15          fftbas_plan_mpi                       0.113579                          3   4
   16            dfftw_execute                         0.070603                        9   5
   17            map_forward                           0.042170                        6   5
   18              map_scatter                           0.024186                      3   6
   19      rspher_all                            0.000606                              2   2
   20      m_sumb_d                              0.262887                              1   2
   21      setdij_                               0.001166                              2   2
   22      vectorpot                             0.000009                              1   2
   23      proall                                0.452928                              1   2
   24        phaser                                0.000645                            2   3
   25        rpro_isp                              0.445920                            2   3
   26          fftwav_mpi                            0.422811                         14   4
   27            fftwav                                0.422775                       14   5
   28              fft3d                                 0.353063                     14   6
   29          rpromu_acc                            0.021570                          4   4
   30      orthch                                3.697429                              1   2
   31        overl                                 0.001437                            2   3
   32        orth1                                 3.327634                            2   3
   33        choleski                              0.228254                            2   3
   34        lincom                                0.133427                            2   3
   35      redis_pw_over_bands                   0.000000                              1   2
   36      m_bcast_z                             0.000042                              2   2
   37      fewald                                0.001566                              1   2
   38        rsp                                   0.000012                            1   3
   39        rcp                                   0.000011                            1   3
   40        m_sumb_d                              0.000019                            5   3
   41      elmin                                15.834959                              1   2
   42        potlok                               11.132301                            8   3
   43          fft3d_mpi                             4.310899                        104   4
   44            fftbrc_mpi                            3.446939                      104   5
   45              fftbas_plan_mpi                       3.446775                    104   6
   46                dfftw_execute                         2.214075                  312   7
   47                map_forward                           0.611552                  112   7
   48                  map_scatter                           0.357466                 56   8
   49                map_backward                          0.609449                   96   7
   50                  map_gather                            0.396919                 48   8
   51          ggaall_grid                           1.430912                          8   4
   52          pothar                                0.389445                          8   4
   53        potlok_metagga                        0.000010                            8   3
   54        vectorpot                             0.000048                            8   3
   55        setdij_                               0.003812                            8   3
   56        set_dd_magatom                        0.000043                            8   3
   57        set_dd_paw                            0.527792                            8   3
   58          m_sumb_d                              0.527484                         56   4
   59        eddav                                 2.082081                           12   3
   60          phaser                                0.006605                         24   4
   61          newband                               0.095559                        111   4
   62            w1_copy                               0.032608                      336   5
   63            fftwav_mpi                            0.003510                      168   5
   64              fftwav                                0.003243                    168   6
   65                fft3d                                 0.002058                  168   7
   66            eccp                                  0.004427                      168   5
   67            truncate_high_frequency_w1            0.000021                      168   5
   68            setup_precond                         0.001157                      168   5
   69          hamiltmu                              0.208376                         87   4
   70            vhamil                                0.001834                      609   5
   71            raccmu_                               0.049038                       87   5
   72              overl_mu                              0.006085                     87   6
   73              racc0mu_acc                           0.003708                     87   6
   74            kinhamil                              0.011689                      609   5
   75              fftext_mpi                            0.009321                    609   6
   76                fft3d_mpi                             0.007021                  609   7
   77                  fft3d                                 0.006710                609   8
   78          overl                                 0.006605                       1050   4
   79          truncate_high_frequency_w1            0.000067                        609   4
   80          w1_copy                               0.010768                       1491   4
   81          orth1                                 0.008395                        237   4
   82          lapack                                0.087121                         87   4
   83          apply_precond                         0.001841                        441   4
   84          fftwav_mpi                            0.017514                        882   4
   85            fftwav                                0.016193                      882   5
   86              fft3d                                 0.010021                    882   6
   87          w1_projall                            0.016700                         63   4
   88            rpromu_acc                            0.016613                       63   5
   89          ggemm                                 0.004595                         87   4
   90          m_bcast_z                             0.000217                         12   4
   91          m_sumb_d                              0.000106                         24   4
   92        m_sumb_d                              0.000946                           24   3
   93        densta                                0.003394                           12   3
   94          m_sumb_d                              0.001869                        447   4
   95        set_charge                            1.248073                            7   3
   96          soft_charge                           0.137789                          7   4
   97            fftwav_mpi                            0.001732                       56   5
   98              fftwav                                0.001636                     56   6
   99                fft3d                                 0.001217                   56   7
  100            pw_charge                             0.000262                       56   5
  101            m_sumb_d                              0.052156                        7   5
  102            fft_gq                                0.059959                        7   5
  103              fft3d_mpi                             0.056277                      7   6
  104                fftbrc_mpi                            0.022711                    7   7
  105                  fftbas_plan_mpi                       0.022701                  7   8
  106                    dfftw_execute                         0.014825               21   9
  107                    map_backward                          0.007056               14   9
  108                      map_gather                            0.004275              7  10
  109          depsum                                0.022522                          7   4
  110            m_sumb_d                              0.020327                        7   5
  111          augmentation_charge                   0.498647                          7   4
  112            fft3d_mpi                             0.307714                        7   5
  113              fftbrc_mpi                            0.249125                      7   6
  114                fftbas_plan_mpi                       0.249110                    7   7
  115                  dfftw_execute                         0.158470                 21   8
  116                  map_backward                          0.089755                 14   8
  117                    map_gather                            0.058746                7   9
  118        brmix                                 0.732632                            7   3
  119          brpre                                 0.010091                          7   4
  120          setg0                                 0.292276                          8   4
  121          broyd                                 0.055244                          7   4
  122            brsav                                 0.013486                       57   5
  123            brget                                 0.013032                      162   5
  124          m_bcast_z                             0.248924                          7   4
  125          m_bcast_d                             0.013928                          7   4
  126        m_bcast_z                             0.000008                            1   3
  127      rotate_active_occupied_orbital        0.000007                              1   2
  128      force_and_stress                      2.240354                              1   2
  129        set_charge                            0.192121                            1   3
  130          soft_charge                           0.019937                          1   4
  131            fftwav_mpi                            0.000222                        8   5
  132              fftwav                                0.000207                      8   6
  133                fft3d                                 0.000144                    8   7
  134            pw_charge                             0.000029                        8   5
  135            m_sumb_d                              0.007747                        1   5
  136            fft_gq                                0.008746                        1   5
  137              fft3d_mpi                             0.008224                      1   6
  138                fftbrc_mpi                            0.003177                    1   7
  139                  fftbas_plan_mpi                       0.003176                  1   8
  140                    dfftw_execute                         0.002104                3   9
  141                    map_backward                          0.000949                2   9
  142                      map_gather                            0.000563              1  10
  143          depsum                                0.018464                          1   4
  144            m_sumb_d                              0.018259                        1   5
  145          augmentation_charge                   0.070589                          1   4
  146            fft3d_mpi                             0.043797                        1   5
  147              fftbrc_mpi                            0.035465                      1   6
  148                fftbas_plan_mpi                       0.035463                    1   7
  149                  dfftw_execute                         0.022579                  3   8
  150                  map_backward                          0.012762                  2   8
  151                    map_gather                            0.008314                1   9
  152        forloc                                0.099412                            1   3
  153        fornlr                                0.029880                            1   3
  154          rspher_all                            0.005564                          3   4
  155          phaser                                0.001675                          6   4
  156          rpro_isp                              0.015512                          6   4
  157            fftwav_mpi                            0.001051                       42   5
  158              fftwav                                0.000989                     42   6
  159                fft3d                                 0.000607                   42   7
  160            rpromu_acc                            0.012020                       12   5
  161          m_sumb_d                              0.006554                          1   4
  162        fordep                                0.002561                            1   3
  163          setdij_                               0.002539                          6   4
  164        setdij_                               0.007211                           20   3
  165        set_dd_magatom                        0.000004                            1   3
  166        set_dd_paw                            0.000983                            1   3
  167          m_sumb_d                              0.000969                          7   4
  168        strkin                                0.000682                            1   3
  169          m_sumb_d                              0.000025                          1   4
  170        strelo                                0.022354                            1   3
  171        strnlr                                0.074911                            1   3
  172          rspher_all                            0.017713                          9   4
  173          phaser                                0.004940                         18   4
  174          rpro_isp                              0.045388                         18   4
  175            fftwav_mpi                            0.003204                      126   5
  176              fftwav                                0.003014                    126   6
  177                fft3d                                 0.001819                  126   7
  178            rpromu_acc                            0.035906                       36   5
  179          m_sumb_d                              0.005378                          9   4
  180        fft3d_mpi                             0.485130                           11   3
  181          fftbrc_mpi                            0.391304                         11   4
  182            fftbas_plan_mpi                       0.391286                       11   5
  183              dfftw_execute                         0.251541                     33   6
  184              map_forward                           0.062691                     10   6
  185                map_scatter                           0.036400                    5   7
  186              map_backward                          0.075818                     12   6
  187                map_gather                            0.049276                    6   7
  188        ggaall_grid                           0.284802                            1   3
  189        forhar                                0.196776                            2   3
  190        strehar                               0.013213                            1   3
  191        chggra                                0.183372                            1   3
  192          fft3d_mpi                             0.173096                          3   4
  193            fftbrc_mpi                            0.169729                        3   5
  194              fftbas_plan_mpi                       0.169724                      3   6
  195                map_forward                           0.000066                    4   7
  196                  map_scatter                           0.000011                  2   8
  197                map_backward                          0.000015                    2   7
  198                  map_gather                            0.000005                  1   8
  199          pothar                                0.001436                          1   4
  200        brmix                                 0.107281                            1   3
  201          brpre                                 0.001718                          1   4
  202          setg0                                 0.041387                          1   4
  203          broyd                                 0.015299                          1   4
  204            brget                                 0.003468                       44   5
  205            brsav                                 0.002612                       12   5
  206          m_bcast_z                             0.031425                          1   4
  207          m_bcast_d                             0.000338                          1   4
  208        m_bcast_d                             0.000018                            2   3
  209      potlok                                1.351661                              1   2
  210        fft3d_mpi                             0.542044                           13   3
  211          fftbrc_mpi                            0.434036                         13   4
  212            fftbas_plan_mpi                       0.434012                       13   5
  213              dfftw_execute                         0.276496                     39   6
  214              map_forward                           0.078024                     14   6
  215                map_scatter                           0.045849                    7   7
  216              map_backward                          0.077742                     12   6
  217                map_gather                            0.050875                    6   7
  218        ggaall_grid                           0.136995                            1   3
  219        pothar                                0.048456                            1   3
  220      potlok_metagga                        0.000001                              1   2
  221      set_dd_magatom                        0.000004                              1   2
  222      set_dd_paw                            0.000064                              1   2
  223        m_sumb_d                              0.000041                            7   3
  224      densta                                0.000229                              1   2
  225        m_sumb_d                              0.000117                           38   3
 
 Flat profile
 ============
 
             routine name                   CPU           calls
 ---------------------------------------------------------------
 total_time                             47.373842           1
 potlok                                  5.625212           9
 orth1                                   3.336030         239
 dfftw_execute                           3.010693         441
 ggaall_grid                             1.852709          10
 eddav                                   1.617611          12
 fft3d_mpi                               1.202399         759
 m_sumb_d                                0.904884         636
 set_charge                              0.672246           8
 map_gather                              0.568972          77
 force_and_stress                        0.539642           1
 map_scatter                             0.463913          73
 init_hip                                0.456579           1
 pothar                                  0.439337          10
 fft3d                                   0.375640        1905
 setg0                                   0.333663           9
 map_forward                             0.330589         146
 map_backward                            0.304574         154
 m_bcast_z                               0.280616          23
 choleski                                0.228254           2
 augmentation_charge                     0.217725           8
 forhar                                  0.196776           2
 fftbas_plan_mpi                         0.187085         150
 hamiltmu                                0.145816          87
 lincom                                  0.133427           2
 brmix                                   0.129283           8
 elmin                                   0.103819           1
 forloc                                  0.099412           1
 lapack                                  0.087121          87
 rpromu_acc                              0.086109         115
 fftwav                                  0.079126        1296
 newband                                 0.053838         111
 w1_copy                                 0.043376        1827
 raccmu_                                 0.039246          87
 broyd                                   0.037944           8
 soft_charge                             0.026873           8
 brgrid                                  0.024020           1
 rspher_all                              0.023883          14
 strelo                                  0.022354           1
 brget                                   0.016500         206
 brsav                                   0.016098          69
 m_bcast_d                               0.015065          15
 setdij_                                 0.014728          36
 stufak                                  0.014509           1
 phaser                                  0.013866          50
 strehar                                 0.013213           1
 brpre                                   0.011809           8
 inisym                                  0.011559           1
 rpro_isp                                0.010259          26
 chggra                                  0.008840           1
 overl                                   0.008041        1052
 orthch                                  0.006677           1
 proall                                  0.006363           1
 overl_mu                                0.006085          87
 ggemm                                   0.004595          87
 eccp                                    0.004427         168
 fft_gq                                  0.004204           8
 racc0mu_acc                             0.003708          87
 hip_hipfft_makeplan                     0.002777           6
 depsum                                  0.002400           8
 kinhamil                                0.002368         609
 fftext_mpi                              0.002300         609
 fftwav_mpi                              0.001987        1296
 apply_precond                           0.001841         441
 vhamil                                  0.001834         609
 densta                                  0.001637          13
 fewald                                  0.001524           1
 strnlr                                  0.001491           1
 setup_precond                           0.001157         168
 strkin                                  0.000657           1
 fornlr                                  0.000574           1
 set_dd_paw                              0.000345          10
 pw_charge                               0.000291          64
 hip_init_hipblas                        0.000267           1
 fftbrc_mpi                              0.000242         150
 hip_init_rocsolver                      0.000184           1
 truncate_high_frequency_w1              0.000088         777
 w1_projall                              0.000087          63
 crpa_reader                             0.000059           1
 vectorpot                               0.000057           9
 set_dd_magatom                          0.000051          10
 fordep                                  0.000022           1
 posmap                                  0.000017           2
 rsp                                     0.000012           1
 potlok_metagga                          0.000011           9
 rcp                                     0.000011           1
 rotate_active_occupied_orbital          0.000007           1
 hip_hipfft_makeplans                    0.000003           3
 redis_pw_over_bands                     0.000000           1
 ---------------------------------------------------------------
  summed up times    71.8694839477539     
 
 Accumulative profile
 ====================
 
             routine name                   CPU           calls
 ---------------------------------------------------------------
 total_time                             71.869484           1
 elmin                                  15.834959           1
 potlok                                 12.483962           9
 fft3d_mpi                               6.075177         759
 fftbrc_mpi                              4.866068         150
 fftbas_plan_mpi                         4.865827         150
 orthch                                  3.697429           1
 orth1                                   3.336030         239
 dfftw_execute                           3.010693         441
 force_and_stress                        2.240354           1
 eddav                                   2.082081          12
 ggaall_grid                             1.852709          10
 set_charge                              1.440194           8
 m_sumb_d                                0.904884         636
 map_backward                            0.873547         154
 brmix                                   0.839913           8
 map_forward                             0.794502         146
 augmentation_charge                     0.569236           8
 map_gather                              0.568972          77
 set_dd_paw                              0.528839          10
 rpro_isp                                0.506821          26
 map_scatter                             0.463913          73
 init_hip                                0.456579           1
 proall                                  0.452928           1
 fftwav_mpi                              0.450044        1296
 fftwav                                  0.448056        1296
 pothar                                  0.439337          10
 fft3d                                   0.375640        1905
 setg0                                   0.333663           9
 m_bcast_z                               0.280616          23
 choleski                                0.228254           2
 hamiltmu                                0.208376          87
 forhar                                  0.196776           2
 chggra                                  0.183372           1
 soft_charge                             0.157726           8
 lincom                                  0.133427           2
 forloc                                  0.099412           1
 newband                                 0.095559         111
 lapack                                  0.087121          87
 rpromu_acc                              0.086109         115
 strnlr                                  0.074911           1
 broyd                                   0.070543           8
 fft_gq                                  0.068705           8
 raccmu_                                 0.049038          87
 w1_copy                                 0.043376        1827
 depsum                                  0.040986           8
 fornlr                                  0.029880           1
 brgrid                                  0.024020           1
 rspher_all                              0.023883          14
 strelo                                  0.022354           1
 w1_projall                              0.016700          63
 brget                                   0.016500         206
 brsav                                   0.016098          69
 m_bcast_d                               0.015065          15
 setdij_                                 0.014728          36
 stufak                                  0.014509           1
 phaser                                  0.013866          50
 strehar                                 0.013213           1
 brpre                                   0.011809           8
 kinhamil                                0.011689         609
 inisym                                  0.011576           1
 fftext_mpi                              0.009321         609
 overl                                   0.008041        1052
 overl_mu                                0.006085          87
 ggemm                                   0.004595          87
 eccp                                    0.004427         168
 racc0mu_acc                             0.003708          87
 densta                                  0.003623          13
 hip_hipfft_makeplans                    0.002780           3
 hip_hipfft_makeplan                     0.002777           6
 fordep                                  0.002561           1
 apply_precond                           0.001841         441
 vhamil                                  0.001834         609
 fewald                                  0.001566           1
 setup_precond                           0.001157         168
 strkin                                  0.000682           1
 pw_charge                               0.000291          64
 hip_init_hipblas                        0.000267           1
 hip_init_rocsolver                      0.000184           1
 truncate_high_frequency_w1              0.000088         777
 crpa_reader                             0.000059           1
 vectorpot                               0.000057           9
 set_dd_magatom                          0.000051          10
 posmap                                  0.000017           2
 rsp                                     0.000012           1
 potlok_metagga                          0.000011           9
 rcp                                     0.000011           1
 rotate_active_occupied_orbital          0.000007           1
 redis_pw_over_bands                     0.000000           1
 ---------------------------------------------------------------
 
Profiling took   0.006357  0.004440  0.002924  0.002795 seconds
Profiling took   0.002933 seconds
