<?xml version="1.0" encoding="ISO-8859-1"?>
<modeling>
 <generator>
  <i name="program" type="string">vasp </i>
  <i name="version" type="string">6.3.2  </i>
  <i name="subversion" type="string">27Jun22 (build Mar 15 2023 15:45:48) complex                          parallel </i>
  <i name="platform" type="string">LinuxIFC </i>
  <i name="date" type="string">2025 09 05 </i>
  <i name="time" type="string">17:07:59 </i>
 </generator>
 <incar>
  <i type="string" name="SYSTEM">ni3al</i>
  <i type="int" name="ISTART">     0</i>
  <i type="string" name="PREC">Accurate</i>
  <i type="string" name="ALGO">Normal</i>
  <i name="AMIN">      0.01000000</i>
  <i type="int" name="ICHARG">     2</i>
  <i type="int" name="NELM">   150</i>
  <i type="int" name="IBRION">    -1</i>
  <i name="EDIFF">      0.00000100</i>
  <i type="int" name="NSW">     0</i>
  <i type="int" name="ISIF">     2</i>
  <i name="ENCUT">    530.00000000</i>
  <i type="string" name="LREAL">Auto</i>
  <i type="int" name="ISMEAR">     0</i>
  <i name="SIGMA">      0.10000000</i>
  <i type="int" name="LMAXMIX">     4</i>
  <i type="logical" name="LWAVE"> T  </i>
  <i type="logical" name="LCHARG"> T  </i>
 </incar>
 <primitive_cell>
  <structure name="primitive_cell" >
   <crystal>
    <varray name="basis" >
     <v>       9.49839973       0.00000000       0.00000000 </v>
     <v>       0.00000000       9.49839973       0.00000000 </v>
     <v>       0.00000000       0.00000000      24.50289917 </v>
    </varray>
    <i name="volume">   2210.64170109 </i>
    <varray name="rec_basis" >
     <v>       0.10528089       0.00000000       0.00000000 </v>
     <v>       0.00000000       0.10528089       0.00000000 </v>
     <v>       0.00000000       0.00000000       0.04081150 </v>
    </varray>
   </crystal>
   <varray name="positions" >
    <v>       0.51759285       0.51815069       0.40848110 </v>
   </varray>
  </structure>
  <varray name="primitive_index" >
   <v type="int" >        1 </v>
  </varray>
 </primitive_cell>
 <kpoints>
  <generation param="Gamma">
   <v type="int" name="divisions">       4        4        1 </v>
   <v name="usershift">      0.00000000       0.00000000       0.00000000 </v>
   <v name="genvec1">      0.25000000       0.00000000       0.00000000 </v>
   <v name="genvec2">      0.00000000       0.25000000       0.00000000 </v>
   <v name="genvec3">      0.00000000       0.00000000       1.00000000 </v>
   <v name="shift">      0.00000000       0.00000000       0.00000000 </v>
  </generation>
  <varray name="kpointlist" >
   <v>       0.00000000       0.00000000       0.00000000 </v>
   <v>       0.25000000       0.00000000       0.00000000 </v>
   <v>       0.50000000       0.00000000       0.00000000 </v>
   <v>       0.25000000       0.25000000       0.00000000 </v>
   <v>       0.50000000       0.25000000       0.00000000 </v>
   <v>       0.50000000       0.50000000       0.00000000 </v>
  </varray>
  <varray name="weights" >
   <v>       0.06250000 </v>
   <v>       0.25000000 </v>
   <v>       0.12500000 </v>
   <v>       0.25000000 </v>
   <v>       0.25000000 </v>
   <v>       0.06250000 </v>
  </varray>
 </kpoints>
 <parameters>
  <separator name="general" >
   <i type="string" name="SYSTEM">ni3al</i>
   <i type="logical" name="LCOMPAT"> F  </i>
  </separator>
  <separator name="electronic" >
   <i type="string" name="PREC">accura</i>
   <i name="ENMAX">    530.00000000</i>
   <i name="ENAUG">    605.39200000</i>
   <i name="EDIFF">      0.00000100</i>
   <i type="int" name="IALGO">    38</i>
   <i type="int" name="IWAVPR">    10</i>
   <i type="int" name="NBANDS">     7</i>
   <i type="int" name="NBANDSLOW">    -1</i>
   <i type="int" name="NBANDSHIGH">    -1</i>
   <i name="NELECT">      6.00000000</i>
   <i type="int" name="TURBO">     0</i>
   <i type="int" name="IRESTART">     0</i>
   <i type="int" name="NREBOOT">     0</i>
   <i type="int" name="NMIN">     0</i>
   <i name="EREF">      0.00000000</i>
   <separator name="electronic smearing" >
    <i type="int" name="ISMEAR">     0</i>
    <i name="SIGMA">      0.10000000</i>
    <i name="KSPACING">      0.50000000</i>
    <i type="logical" name="KGAMMA"> T  </i>
    <i type="logical" name="KBLOWUP"> T  </i>
   </separator>
   <separator name="electronic projectors" >
    <i type="logical" name="LREAL"> T  </i>
    <v name="ROPT">     -0.00025000</v>
    <i type="int" name="LMAXPAW">  -100</i>
    <i type="int" name="LMAXMIX">     4</i>
    <i type="logical" name="NLSPLINE"> F  </i>
   </separator>
   <separator name="electronic startup" >
    <i type="int" name="ISTART">     0</i>
    <i type="int" name="ICHARG">     2</i>
    <i type="int" name="INIWAV">     1</i>
   </separator>
   <separator name="electronic spin" >
    <i type="int" name="ISPIN">     1</i>
    <i type="logical" name="LNONCOLLINEAR"> F  </i>
    <v name="MAGMOM">      1.00000000</v>
    <i name="NUPDOWN">     -1.00000000</i>
    <i type="logical" name="LSORBIT"> F  </i>
    <v name="SAXIS">      0.00000000      0.00000000      1.00000000</v>
    <i type="logical" name="LSPIRAL"> F  </i>
    <v name="QSPIRAL">      0.00000000      0.00000000      0.00000000</v>
    <i type="logical" name="LZEROZ"> F  </i>
   </separator>
   <separator name="electronic exchange-correlation" >
    <i type="logical" name="LASPH"> F  </i>
    <i type="logical" name="LMETAGGA"> F  </i>
   </separator>
   <separator name="electronic convergence" >
    <i type="int" name="NELM">   150</i>
    <i type="int" name="NELMDL">    -5</i>
    <i type="int" name="NELMIN">     2</i>
    <i name="ENINI">    530.00000000</i>
    <separator name="electronic convergence detail" >
     <i type="logical" name="LDIAG"> T  </i>
     <i type="logical" name="LSUBROT"> F  </i>
     <i name="WEIMIN">      0.00000000</i>
     <i name="EBREAK">      0.00000004</i>
     <i name="DEPER">      0.30000000</i>
     <i type="int" name="NRMM">     4</i>
     <i name="TIME">      0.40000000</i>
    </separator>
   </separator>
   <separator name="electronic mixer" >
    <i name="AMIX">      0.40000000</i>
    <i name="BMIX">      1.00000000</i>
    <i name="AMIN">      0.01000000</i>
    <i name="AMIX_MAG">      1.60000000</i>
    <i name="BMIX_MAG">      1.00000000</i>
    <separator name="electronic mixer details" >
     <i type="int" name="IMIX">     4</i>
     <i type="logical" name="MIXFIRST"> F  </i>
     <i type="int" name="MAXMIX">   -45</i>
     <i name="WC">    100.00000000</i>
     <i type="int" name="INIMIX">     1</i>
     <i type="int" name="MIXPRE">     1</i>
     <i type="int" name="MREMOVE">     5</i>
    </separator>
   </separator>
   <separator name="electronic dipolcorrection" >
    <i type="logical" name="LDIPOL"> F  </i>
    <i type="logical" name="LMONO"> F  </i>
    <i type="int" name="IDIPOL">     0</i>
    <i name="EPSILON">      1.00000000</i>
    <v name="DIPOL">   -100.00000000   -100.00000000   -100.00000000</v>
    <i name="EFIELD">      0.00000000</i>
   </separator>
  </separator>
  <separator name="grids" >
   <i type="int" name="NGX">    72</i>
   <i type="int" name="NGY">    72</i>
   <i type="int" name="NGZ">   192</i>
   <i type="int" name="NGXF">   144</i>
   <i type="int" name="NGYF">   144</i>
   <i type="int" name="NGZF">   384</i>
   <i type="logical" name="ADDGRID"> F  </i>
  </separator>
  <separator name="ionic" >
   <i type="int" name="NSW">     0</i>
   <i type="int" name="IBRION">    -1</i>
   <i type="int" name="MDALGO">     0</i>
   <i type="int" name="ISIF">     2</i>
   <i name="PSTRESS">      0.00000000</i>
   <i name="EDIFFG">      0.00001000</i>
   <i type="int" name="NFREE">     0</i>
   <i name="POTIM">      0.50000000</i>
   <i name="SMASS">     -3.00000000</i>
   <i name="SCALEE">      1.00000000</i>
  </separator>
  <separator name="ionic md" >
   <i name="TEBEG">      0.00010000</i>
   <i name="TEEND">      0.00010000</i>
   <i type="int" name="NBLOCK">     1</i>
   <i type="int" name="KBLOCK">     1</i>
   <i type="int" name="NPACO">   256</i>
   <i name="APACO">     10.00000000</i>
  </separator>
  <separator name="symmetry" >
   <i type="int" name="ISYM">     2</i>
   <i name="SYMPREC">      0.00001000</i>
  </separator>
  <separator name="dos" >
   <i type="int" name="LORBIT">     0</i>
   <v name="RWIGS">     -1.00000000</v>
   <i type="int" name="NEDOS">   301</i>
   <i name="EMIN">     10.00000000</i>
   <i name="EMAX">    -10.00000000</i>
   <i name="EFERMI">      0.00000000</i>
  </separator>
  <separator name="writing" >
   <i type="int" name="NWRITE">     2</i>
   <i type="logical" name="LWAVE"> T  </i>
   <i type="logical" name="LDOWNSAMPLE"> F  </i>
   <i type="logical" name="LCHARG"> T  </i>
   <i type="logical" name="LPARD"> F  </i>
   <i type="logical" name="LVTOT"> F  </i>
   <i type="logical" name="LVHAR"> F  </i>
   <i type="logical" name="LELF"> F  </i>
   <i type="logical" name="LOPTICS"> F  </i>
   <v name="STM">      0.00000000      0.00000000      0.00000000      0.00000000      0.00000000      0.00000000      0.00000000</v>
  </separator>
  <separator name="performance" >
   <i type="int" name="NPAR">     1</i>
   <i type="int" name="NSIM">     4</i>
   <i type="int" name="NBLK">    -1</i>
   <i type="logical" name="LPLANE"> T  </i>
   <i type="logical" name="LSCALAPACK"> T  </i>
   <i type="logical" name="LSCAAWARE"> F  </i>
   <i type="logical" name="LSCALU"> F  </i>
   <i type="logical" name="LASYNC"> F  </i>
   <i type="logical" name="LORBITALREAL"> F  </i>
  </separator>
  <separator name="miscellaneous" >
   <i type="int" name="IDIOT">     3</i>
   <i type="int" name="PHON_NSTRUCT">    -1</i>
   <i type="logical" name="LMUSIC"> F  </i>
   <v name="POMASS">     16.00000000</v>
   <v name="DARWINR">      0.00000000</v>
   <v name="DARWINV">      1.00000000</v>
   <i type="logical" name="LCORR"> T  </i>
  </separator>
  <i type="logical" name="GGA_COMPAT"> T  </i>
  <i type="logical" name="LBERRY"> F  </i>
  <i type="int" name="ICORELEVEL">     0</i>
  <i type="logical" name="LDAU"> F  </i>
  <i type="int" name="I_CONSTRAINED_M">     0</i>
  <separator name="electronic exchange-correlation" >
   <i type="string" name="GGA">--</i>
   <i type="int" name="VOSKOWN">     0</i>
   <i type="logical" name="LHFCALC"> F  </i>
   <i type="string" name="PRECFOCK"></i>
   <i type="logical" name="LSYMGRAD"> F  </i>
   <i type="logical" name="LHFONE"> F  </i>
   <i type="logical" name="LRHFCALC"> F  </i>
   <i type="logical" name="LTHOMAS"> F  </i>
   <i type="logical" name="LMODELHF"> F  </i>
   <i type="logical" name="LFOCKACE"> F  </i>
   <i name="ENCUT4O">     -1.00000000</i>
   <i type="int" name="EXXOEP">     0</i>
   <i type="int" name="FOURORBIT">     0</i>
   <i name="AEXX">      0.00000000</i>
   <i name="HFALPHA">      0.00000000</i>
   <i name="MCALPHA">      0.00000000</i>
   <i name="ALDAX">      1.00000000</i>
   <i name="AGGAX">      1.00000000</i>
   <i name="ALDAC">      1.00000000</i>
   <i name="AGGAC">      1.00000000</i>
   <i type="int" name="NKREDX">     1</i>
   <i type="int" name="NKREDY">     1</i>
   <i type="int" name="NKREDZ">     1</i>
   <i type="logical" name="SHIFTRED"> F  </i>
   <i type="logical" name="ODDONLY"> F  </i>
   <i type="logical" name="EVENONLY"> F  </i>
   <i type="int" name="LMAXFOCK">     0</i>
   <i type="int" name="NMAXFOCKAE">     0</i>
   <i type="logical" name="LFOCKAEDFT"> F  </i>
   <i name="HFSCREEN">      0.00000000</i>
   <i name="HFSCREENC">      0.00000000</i>
   <i type="int" name="NBANDSGWLOW">     0</i>
  </separator>
  <separator name="vdW DFT" >
   <i type="logical" name="LUSE_VDW"> F  </i>
   <i name="Zab_VDW">     -0.84910000</i>
   <i name="PARAM1">      0.12340000</i>
   <i name="PARAM2">      1.00000000</i>
   <i name="PARAM3">      0.00000000</i>
  </separator>
  <separator name="model GW" >
   <i type="int" name="MODEL_GW">     0</i>
   <i name="MODEL_EPS0">   1326.38502066</i>
   <i name="MODEL_ALPHA">      1.00000000</i>
  </separator>
  <separator name="linear response parameters" >
   <i type="logical" name="LEPSILON"> F  </i>
   <i type="logical" name="LRPA"> F  </i>
   <i type="logical" name="LNABLA"> F  </i>
   <i type="logical" name="LVEL"> F  </i>
   <i name="CSHIFT">      0.10000000</i>
   <i name="OMEGAMAX">     -1.00000000</i>
   <i name="DEG_THRESHOLD">      0.00200000</i>
   <i name="RTIME">     -0.10000000</i>
   <i name="WPLASMAI">      0.00000000</i>
   <v name="DFIELD">      0.00000000      0.00000000      0.00000000</v>
   <v name="WPLASMA">      0.00000000      0.00000000      0.00000000      0.00000000      0.00000000      0.00000000      0.00000000      0.00000000      0.00000000</v>
  </separator>
  <separator name="orbital magnetization" >
   <i type="logical" name="NUCIND"> F  </i>
   <v name="MAGPOS">      0.00000000      0.00000000      0.00000000</v>
   <i type="logical" name="LNICSALL"> T  </i>
   <i type="logical" name="ORBITALMAG"> F  </i>
   <i type="logical" name="LMAGBLOCH"> F  </i>
   <i type="logical" name="LCHIMAG"> F  </i>
   <i type="logical" name="LGAUGE"> T  </i>
   <i type="int" name="MAGATOM">     0</i>
   <v name="MAGDIPOL">      0.00000000      0.00000000      0.00000000</v>
   <v name="AVECCONST">      0.00000000      0.00000000      0.00000000</v>
  </separator>
  <separator name="response functions" >
   <i type="logical" name="LFINITE_TEMPERATURE"> F  </i>
   <i type="logical" name="LADDER"> F  </i>
   <i type="logical" name="LRPAFORCE"> F  </i>
   <i type="logical" name="LFXC"> F  </i>
   <i type="logical" name="LHARTREE"> T  </i>
   <i type="int" name="IBSE">     0</i>
   <v type="int" name="KPOINT">    -1     0     0     0</v>
   <i type="logical" name="LTCTC"> F  </i>
   <i type="logical" name="LTCTE"> F  </i>
   <i type="logical" name="LTETE"> F  </i>
   <i type="logical" name="LTRIPLET"> F  </i>
   <i type="logical" name="LFXCEPS"> F  </i>
   <i type="logical" name="LFXHEG"> F  </i>
   <i type="int" name="NATURALO">     2</i>
   <i type="logical" name="LHOLEGF"> F  </i>
   <i type="logical" name="L2ORDER"> F  </i>
   <i type="logical" name="LDMP1"> F  </i>
   <i type="logical" name="LMP2LT"> F  </i>
   <i type="logical" name="LSMP2LT"> F  </i>
   <i type="logical" name="LGWLF"> F  </i>
   <i name="ENCUTGW">     -2.00000000</i>
   <i name="ENCUTGWSOFT">     -2.00000000</i>
   <i name="ENCUTLF">     -1.00000000</i>
   <i type="logical" name="LESF_SPLINES"> F  </i>
   <i type="int" name="LMAXMP2">    -1</i>
   <i name="SCISSOR">      0.00000000</i>
   <i type="int" name="NOMEGA">     0</i>
   <i type="int" name="NOMEGAR">     0</i>
   <i type="int" name="NBANDSGW">    -1</i>
   <i type="int" name="NBANDSO">    -1</i>
   <i type="int" name="NBANDSV">    -1</i>
   <i type="int" name="NELMGW">     1</i>
   <i type="int" name="NELMHF">     1</i>
   <i type="int" name="DIM">     3</i>
   <i type="int" name="IESPILON">     4</i>
   <i type="int" name="ANTIRES">     0</i>
   <i name="OMEGAMAX">    -30.00000000</i>
   <i name="OMEGAMIN">    -30.00000000</i>
   <i name="OMEGATL">   -200.00000000</i>
   <i type="int" name="OMEGAGRID">     0</i>
   <i name="CSHIFT">     -0.10000000</i>
   <i type="logical" name="LSELFENERGY"> F  </i>
   <i type="logical" name="LSPECTRAL"> F  </i>
   <i type="logical" name="LSPECTRALGW"> F  </i>
   <i type="logical" name="LSINGLES"> F  </i>
   <i type="logical" name="LFERMIGW"> F  </i>
   <i type="logical" name="ODDONLYGW"> F  </i>
   <i type="logical" name="EVENONLYGW"> F  </i>
   <i type="int" name="NKREDLFX">     1</i>
   <i type="int" name="NKREDLFY">     1</i>
   <i type="int" name="NKREDLFZ">     1</i>
   <i type="int" name="MAXMEM">  2800</i>
   <i type="int" name="TELESCOPE">     0</i>
   <i type="int" name="NTAUPAR">    -1</i>
   <i type="int" name="NOMEGAPAR">    -1</i>
   <i name="DAMP_NEWTON">      0.80000001</i>
   <i name="LAMBDA">      1.00000000</i>
  </separator>
  <separator name="External order field" >
   <i name="OFIELD_KAPPA">      0.00000000</i>
   <v name="OFIELD_K">      0.00000000      0.00000000      0.00000000</v>
   <i name="OFIELD_Q6_NEAR">      0.00000000</i>
   <i name="OFIELD_Q6_FAR">      0.00000000</i>
   <i name="OFIELD_A">      0.00000000</i>
  </separator>
  <separator name="optional k-points parameters" >
   <i type="int" name="KPOINTS_OPT_MODE">     1</i>
   <i type="logical" name="LKPOINTS_OPT"> F  </i>
  </separator>
  <separator name="solvation model" >
   <i type="logical" name="LSOL"> F  </i>
  </separator>
 </parameters>
 <atominfo>
  <atoms>       1 </atoms>
  <types>       1 </types>
  <array name="atoms" >
   <dimension dim="1">ion</dimension>
   <field type="string">element</field>
   <field type="int">atomtype</field>
   <set>
    <rc><c>O </c><c>   1</c></rc>
   </set>
  </array>
  <array name="atomtypes" >
   <dimension dim="1">type</dimension>
   <field type="int">atomspertype</field>
   <field type="string">element</field>
   <field>mass</field>
   <field>valence</field>
   <field type="string">pseudopotential</field>
   <set>
    <rc><c>   1</c><c>O </c><c>     16.00000000</c><c>      6.00000000</c><c>  PAW_PBE O 08Apr2002                   </c></rc>
   </set>
  </array>
 </atominfo>
 <structure name="initialpos" >
  <crystal>
   <varray name="basis" >
    <v>       9.49839973       0.00000000       0.00000000 </v>
    <v>       0.00000000       9.49839973       0.00000000 </v>
    <v>       0.00000000       0.00000000      24.50289917 </v>
   </varray>
   <i name="volume">   2210.64170109 </i>
   <varray name="rec_basis" >
    <v>       0.10528089       0.00000000       0.00000000 </v>
    <v>       0.00000000       0.10528089       0.00000000 </v>
    <v>       0.00000000       0.00000000       0.04081150 </v>
   </varray>
  </crystal>
  <varray name="positions" >
   <v>       0.51759285       0.51815069       0.40848110 </v>
  </varray>
  <varray name="selective"  type="logical" >
   <v type="logical" >  T  T  T </v>
  </varray>
  <nose>
   <v>      -3.00000000       0.00000000       0.00010000       0.00010000 </v>
  </nose>
 </structure>
 <calculation>
  <scstep>
   <time name="dav">    1.09    0.22</time>
   <time name="total">   11.48    1.81</time>
   <energy>
    <i name="alphaZ">      0.06285707 </i>
    <i name="ewald">    -32.71394480 </i>
    <i name="hartreedc">   -340.16700132 </i>
    <i name="XCdc">     26.06853411 </i>
    <i name="pawpsdc">    346.54947689 </i>
    <i name="pawaedc">   -348.34814756 </i>
    <i name="eentropy">     -0.02255321 </i>
    <i name="bandstr">    -34.67111482 </i>
    <i name="atom">    432.35852233 </i>
    <i name="e_fr_energy">     49.11662870 </i>
    <i name="e_wo_entrp">     49.13918191 </i>
    <i name="e_0_energy">     49.12790530 </i>
   </energy>
  </scstep>
  <scstep>
   <time name="dav">    1.41    0.24</time>
   <time name="total">    1.41    0.24</time>
   <energy>
    <i name="e_fr_energy">      8.83394848 </i>
    <i name="e_wo_entrp">      8.84100085 </i>
    <i name="e_0_energy">      8.83747466 </i>
   </energy>
  </scstep>
  <scstep>
   <time name="dav">    0.92    0.13</time>
   <time name="total">    0.93    0.13</time>
   <energy>
    <i name="e_fr_energy">      0.18352687 </i>
    <i name="e_wo_entrp">      0.19526192 </i>
    <i name="e_0_energy">      0.18939439 </i>
   </energy>
  </scstep>
  <scstep>
   <time name="dav">    0.93    0.13</time>
   <time name="total">    0.94    0.13</time>
   <energy>
    <i name="e_fr_energy">     -0.15862243 </i>
    <i name="e_wo_entrp">     -0.00443393 </i>
    <i name="e_0_energy">     -0.08152818 </i>
   </energy>
  </scstep>
  <scstep>
   <time name="dav">    1.28    0.18</time>
   <time name="total">    3.54    0.51</time>
   <energy>
    <i name="e_fr_energy">     -0.16699291 </i>
    <i name="e_wo_entrp">     -0.01273064 </i>
    <i name="e_0_energy">     -0.08986178 </i>
   </energy>
  </scstep>
  <scstep>
   <time name="dav">    1.28    0.18</time>
   <time name="total">   12.95    1.95</time>
   <energy>
    <i name="e_fr_energy">     -0.16714607 </i>
    <i name="e_wo_entrp">     -0.01288376 </i>
    <i name="e_0_energy">     -0.09001491 </i>
   </energy>
  </scstep>
  <scstep>
   <time name="dav">    1.13    0.16</time>
   <time name="total">   12.63    1.90</time>
   <energy>
    <i name="e_fr_energy">     -0.16729969 </i>
    <i name="e_wo_entrp">     -0.01303744 </i>
    <i name="e_0_energy">     -0.09016857 </i>
   </energy>
  </scstep>
  <scstep>
   <time name="dav">    0.95    0.14</time>
   <time name="total">   12.51    1.87</time>
   <energy>
    <i name="e_fr_energy">     -0.16735071 </i>
    <i name="e_wo_entrp">     -0.01308925 </i>
    <i name="e_0_energy">     -0.09021998 </i>
   </energy>
  </scstep>
  <scstep>
   <time name="dav">    1.00    0.16</time>
   <time name="total">   12.44    1.89</time>
   <energy>
    <i name="e_fr_energy">     -0.16733308 </i>
    <i name="e_wo_entrp">     -0.01307077 </i>
    <i name="e_0_energy">     -0.09020193 </i>
   </energy>
  </scstep>
  <scstep>
   <time name="dav">    0.88    0.14</time>
   <time name="total">   12.32    1.86</time>
   <energy>
    <i name="e_fr_energy">     -0.16734942 </i>
    <i name="e_wo_entrp">     -0.01308710 </i>
    <i name="e_0_energy">     -0.09021826 </i>
   </energy>
  </scstep>
  <scstep>
   <time name="dav">    1.46    0.21</time>
   <time name="total">   12.83    1.92</time>
   <energy>
    <i name="e_fr_energy">     -0.16735056 </i>
    <i name="e_wo_entrp">     -0.01308824 </i>
    <i name="e_0_energy">     -0.09021940 </i>
   </energy>
  </scstep>
  <scstep>
   <time name="dav">    1.29    0.19</time>
   <time name="total">   10.54    1.60</time>
   <energy>
    <i name="alphaZ">      0.06285707 </i>
    <i name="ewald">    -32.71394480 </i>
    <i name="hartreedc">   -340.16460717 </i>
    <i name="XCdc">     26.06846686 </i>
    <i name="pawpsdc">    347.11445145 </i>
    <i name="pawaedc">   -348.92184875 </i>
    <i name="eentropy">     -0.15426232 </i>
    <i name="bandstr">    -83.81698562 </i>
    <i name="atom">    432.35852233 </i>
    <i name="e_fr_energy">     -0.16735096 </i>
    <i name="e_wo_entrp">     -0.01308864 </i>
    <i name="e_0_energy">     -0.09021980 </i>
   </energy>
  </scstep>
  <structure>
   <crystal>
    <varray name="basis" >
     <v>       9.49839973       0.00000000       0.00000000 </v>
     <v>       0.00000000       9.49839973       0.00000000 </v>
     <v>       0.00000000       0.00000000      24.50289917 </v>
    </varray>
    <i name="volume">   2210.64170109 </i>
    <varray name="rec_basis" >
     <v>       0.10528089       0.00000000       0.00000000 </v>
     <v>       0.00000000       0.10528089       0.00000000 </v>
     <v>       0.00000000       0.00000000       0.04081150 </v>
    </varray>
   </crystal>
   <varray name="positions" >
    <v>       0.51759285       0.51815069       0.40848110 </v>
   </varray>
  </structure>
  <varray name="forces" >
   <v>      -0.00000000       0.00000000       0.00000000 </v>
  </varray>
  <varray name="stress" >
   <v>      -0.01247619       0.00000000       0.00000000 </v>
   <v>       0.00000000      -0.01247619      -0.00000000 </v>
   <v>       0.00000000      -0.00000000      -0.01392342 </v>
  </varray>
  <energy>
   <i name="e_fr_energy">     -0.16735096 </i>
   <i name="e_wo_entrp">     -0.01308864 </i>
   <i name="e_0_energy">     -0.09021980 </i>
  </energy>
  <time name="totalsc">  161.74   36.03</time>
  <eigenvalues>
   <array>
    <dimension dim="1">band</dimension>
    <dimension dim="2">kpoint</dimension>
    <dimension dim="3">spin</dimension>
    <field>eigene</field>
    <field>occ</field>
    <set>
     <set comment="spin 1">
      <set comment="kpoint 1">
       <r>  -23.9262    1.0000 </r>
       <r>   -8.9911    0.6667 </r>
       <r>   -8.9911    0.6666 </r>
       <r>   -8.9911    0.6666 </r>
       <r>   -0.3313    0.0000 </r>
       <r>    0.1464    0.0000 </r>
       <r>    0.2165    0.0000 </r>
      </set>
      <set comment="kpoint 2">
       <r>  -23.9262    1.0000 </r>
       <r>   -8.9911    0.6667 </r>
       <r>   -8.9911    0.6667 </r>
       <r>   -8.9911    0.6666 </r>
       <r>   -0.2409    0.0000 </r>
       <r>    0.2473    0.0000 </r>
       <r>    0.3192    0.0000 </r>
      </set>
      <set comment="kpoint 3">
       <r>  -23.9262    1.0000 </r>
       <r>   -8.9912    0.6667 </r>
       <r>   -8.9911    0.6667 </r>
       <r>   -8.9911    0.6666 </r>
       <r>   -0.0816    0.0000 </r>
       <r>    0.3196    0.0000 </r>
       <r>    0.5544    0.0000 </r>
      </set>
      <set comment="kpoint 4">
       <r>  -23.9262    1.0000 </r>
       <r>   -8.9911    0.6667 </r>
       <r>   -8.9911    0.6667 </r>
       <r>   -8.9911    0.6666 </r>
       <r>   -0.1514    0.0000 </r>
       <r>    0.3481    0.0000 </r>
       <r>    0.4217    0.0000 </r>
      </set>
      <set comment="kpoint 5">
       <r>  -23.9262    1.0000 </r>
       <r>   -8.9912    0.6667 </r>
       <r>   -8.9911    0.6667 </r>
       <r>   -8.9911    0.6666 </r>
       <r>    0.0040    0.0000 </r>
       <r>    0.4189    0.0000 </r>
       <r>    0.6550    0.0000 </r>
      </set>
      <set comment="kpoint 6">
       <r>  -23.9262    1.0000 </r>
       <r>   -8.9912    0.6667 </r>
       <r>   -8.9911    0.6667 </r>
       <r>   -8.9911    0.6667 </r>
       <r>    0.1437    0.0000 </r>
       <r>    0.6430    0.0000 </r>
       <r>    0.6430    0.0000 </r>
      </set>
     </set>
    </set>
   </array>
  </eigenvalues>
  <separator name="orbital magnetization" >
   <v name="MAGDIPOLOUT">      0.00000000      0.00000000      0.00000000</v>
  </separator>
  <dos>
   <i name="efermi">     -8.96068566 </i>
   <total>
    <array>
     <dimension dim="1">gridpoints</dimension>
     <dimension dim="2">spin</dimension>
     <field>energy</field>
     <field>total</field>
     <field>integrated</field>
     <set>
      <set comment="spin 1">
       <r>   -25.1553     0.0000     0.0000 </r>
       <r>   -25.0651     0.0000     0.0000 </r>
       <r>   -24.9750     0.0000     0.0000 </r>
       <r>   -24.8849     0.0000     0.0000 </r>
       <r>   -24.7948     0.0000     0.0000 </r>
       <r>   -24.7046     0.0000     0.0000 </r>
       <r>   -24.6145     0.0000     0.0000 </r>
       <r>   -24.5244     0.0000     0.0000 </r>
       <r>   -24.4342     0.0000     0.0000 </r>
       <r>   -24.3441     0.0000     0.0000 </r>
       <r>   -24.2540     0.0000     0.0000 </r>
       <r>   -24.1638     0.0086     0.0008 </r>
       <r>   -24.0737     0.4018     0.0370 </r>
       <r>   -23.9836     4.2187     0.4172 </r>
       <r>   -23.8934    10.4259     1.3569 </r>
       <r>   -23.8033     6.2229     1.9178 </r>
       <r>   -23.7132     0.8833     1.9974 </r>
       <r>   -23.6230     0.0285     2.0000 </r>
       <r>   -23.5329     0.0002     2.0000 </r>
       <r>   -23.4428     0.0000     2.0000 </r>
       <r>   -23.3527     0.0000     2.0000 </r>
       <r>   -23.2625     0.0000     2.0000 </r>
       <r>   -23.1724     0.0000     2.0000 </r>
       <r>   -23.0823     0.0000     2.0000 </r>
       <r>   -22.9921     0.0000     2.0000 </r>
       <r>   -22.9020     0.0000     2.0000 </r>
       <r>   -22.8119     0.0000     2.0000 </r>
       <r>   -22.7217     0.0000     2.0000 </r>
       <r>   -22.6316     0.0000     2.0000 </r>
       <r>   -22.5415     0.0000     2.0000 </r>
       <r>   -22.4513     0.0000     2.0000 </r>
       <r>   -22.3612     0.0000     2.0000 </r>
       <r>   -22.2711     0.0000     2.0000 </r>
       <r>   -22.1810     0.0000     2.0000 </r>
       <r>   -22.0908     0.0000     2.0000 </r>
       <r>   -22.0007     0.0000     2.0000 </r>
       <r>   -21.9106     0.0000     2.0000 </r>
       <r>   -21.8204     0.0000     2.0000 </r>
       <r>   -21.7303     0.0000     2.0000 </r>
       <r>   -21.6402     0.0000     2.0000 </r>
       <r>   -21.5500     0.0000     2.0000 </r>
       <r>   -21.4599     0.0000     2.0000 </r>
       <r>   -21.3698     0.0000     2.0000 </r>
       <r>   -21.2796     0.0000     2.0000 </r>
       <r>   -21.1895     0.0000     2.0000 </r>
       <r>   -21.0994     0.0000     2.0000 </r>
       <r>   -21.0092     0.0000     2.0000 </r>
       <r>   -20.9191     0.0000     2.0000 </r>
       <r>   -20.8290     0.0000     2.0000 </r>
       <r>   -20.7389     0.0000     2.0000 </r>
       <r>   -20.6487     0.0000     2.0000 </r>
       <r>   -20.5586     0.0000     2.0000 </r>
       <r>   -20.4685     0.0000     2.0000 </r>
       <r>   -20.3783     0.0000     2.0000 </r>
       <r>   -20.2882     0.0000     2.0000 </r>
       <r>   -20.1981     0.0000     2.0000 </r>
       <r>   -20.1079     0.0000     2.0000 </r>
       <r>   -20.0178     0.0000     2.0000 </r>
       <r>   -19.9277     0.0000     2.0000 </r>
       <r>   -19.8375     0.0000     2.0000 </r>
       <r>   -19.7474     0.0000     2.0000 </r>
       <r>   -19.6573     0.0000     2.0000 </r>
       <r>   -19.5672     0.0000     2.0000 </r>
       <r>   -19.4770     0.0000     2.0000 </r>
       <r>   -19.3869     0.0000     2.0000 </r>
       <r>   -19.2968     0.0000     2.0000 </r>
       <r>   -19.2066     0.0000     2.0000 </r>
       <r>   -19.1165     0.0000     2.0000 </r>
       <r>   -19.0264     0.0000     2.0000 </r>
       <r>   -18.9362     0.0000     2.0000 </r>
       <r>   -18.8461     0.0000     2.0000 </r>
       <r>   -18.7560     0.0000     2.0000 </r>
       <r>   -18.6658     0.0000     2.0000 </r>
       <r>   -18.5757     0.0000     2.0000 </r>
       <r>   -18.4856     0.0000     2.0000 </r>
       <r>   -18.3954     0.0000     2.0000 </r>
       <r>   -18.3053     0.0000     2.0000 </r>
       <r>   -18.2152     0.0000     2.0000 </r>
       <r>   -18.1251     0.0000     2.0000 </r>
       <r>   -18.0349     0.0000     2.0000 </r>
       <r>   -17.9448     0.0000     2.0000 </r>
       <r>   -17.8547     0.0000     2.0000 </r>
       <r>   -17.7645     0.0000     2.0000 </r>
       <r>   -17.6744     0.0000     2.0000 </r>
       <r>   -17.5843     0.0000     2.0000 </r>
       <r>   -17.4941     0.0000     2.0000 </r>
       <r>   -17.4040     0.0000     2.0000 </r>
       <r>   -17.3139     0.0000     2.0000 </r>
       <r>   -17.2237     0.0000     2.0000 </r>
       <r>   -17.1336     0.0000     2.0000 </r>
       <r>   -17.0435     0.0000     2.0000 </r>
       <r>   -16.9534     0.0000     2.0000 </r>
       <r>   -16.8632     0.0000     2.0000 </r>
       <r>   -16.7731     0.0000     2.0000 </r>
       <r>   -16.6830     0.0000     2.0000 </r>
       <r>   -16.5928     0.0000     2.0000 </r>
       <r>   -16.5027     0.0000     2.0000 </r>
       <r>   -16.4126     0.0000     2.0000 </r>
       <r>   -16.3224     0.0000     2.0000 </r>
       <r>   -16.2323     0.0000     2.0000 </r>
       <r>   -16.1422     0.0000     2.0000 </r>
       <r>   -16.0520     0.0000     2.0000 </r>
       <r>   -15.9619     0.0000     2.0000 </r>
       <r>   -15.8718     0.0000     2.0000 </r>
       <r>   -15.7816     0.0000     2.0000 </r>
       <r>   -15.6915     0.0000     2.0000 </r>
       <r>   -15.6014     0.0000     2.0000 </r>
       <r>   -15.5113     0.0000     2.0000 </r>
       <r>   -15.4211     0.0000     2.0000 </r>
       <r>   -15.3310     0.0000     2.0000 </r>
       <r>   -15.2409     0.0000     2.0000 </r>
       <r>   -15.1507     0.0000     2.0000 </r>
       <r>   -15.0606     0.0000     2.0000 </r>
       <r>   -14.9705     0.0000     2.0000 </r>
       <r>   -14.8803     0.0000     2.0000 </r>
       <r>   -14.7902     0.0000     2.0000 </r>
       <r>   -14.7001     0.0000     2.0000 </r>
       <r>   -14.6099     0.0000     2.0000 </r>
       <r>   -14.5198     0.0000     2.0000 </r>
       <r>   -14.4297     0.0000     2.0000 </r>
       <r>   -14.3396     0.0000     2.0000 </r>
       <r>   -14.2494     0.0000     2.0000 </r>
       <r>   -14.1593     0.0000     2.0000 </r>
       <r>   -14.0692     0.0000     2.0000 </r>
       <r>   -13.9790     0.0000     2.0000 </r>
       <r>   -13.8889     0.0000     2.0000 </r>
       <r>   -13.7988     0.0000     2.0000 </r>
       <r>   -13.7086     0.0000     2.0000 </r>
       <r>   -13.6185     0.0000     2.0000 </r>
       <r>   -13.5284     0.0000     2.0000 </r>
       <r>   -13.4382     0.0000     2.0000 </r>
       <r>   -13.3481     0.0000     2.0000 </r>
       <r>   -13.2580     0.0000     2.0000 </r>
       <r>   -13.1679     0.0000     2.0000 </r>
       <r>   -13.0777     0.0000     2.0000 </r>
       <r>   -12.9876     0.0000     2.0000 </r>
       <r>   -12.8975     0.0000     2.0000 </r>
       <r>   -12.8073     0.0000     2.0000 </r>
       <r>   -12.7172     0.0000     2.0000 </r>
       <r>   -12.6271     0.0000     2.0000 </r>
       <r>   -12.5369     0.0000     2.0000 </r>
       <r>   -12.4468     0.0000     2.0000 </r>
       <r>   -12.3567     0.0000     2.0000 </r>
       <r>   -12.2665     0.0000     2.0000 </r>
       <r>   -12.1764     0.0000     2.0000 </r>
       <r>   -12.0863     0.0000     2.0000 </r>
       <r>   -11.9961     0.0000     2.0000 </r>
       <r>   -11.9060     0.0000     2.0000 </r>
       <r>   -11.8159     0.0000     2.0000 </r>
       <r>   -11.7258     0.0000     2.0000 </r>
       <r>   -11.6356     0.0000     2.0000 </r>
       <r>   -11.5455     0.0000     2.0000 </r>
       <r>   -11.4554     0.0000     2.0000 </r>
       <r>   -11.3652     0.0000     2.0000 </r>
       <r>   -11.2751     0.0000     2.0000 </r>
       <r>   -11.1850     0.0000     2.0000 </r>
       <r>   -11.0948     0.0000     2.0000 </r>
       <r>   -11.0047     0.0000     2.0000 </r>
       <r>   -10.9146     0.0000     2.0000 </r>
       <r>   -10.8244     0.0000     2.0000 </r>
       <r>   -10.7343     0.0000     2.0000 </r>
       <r>   -10.6442     0.0000     2.0000 </r>
       <r>   -10.5541     0.0000     2.0000 </r>
       <r>   -10.4639     0.0000     2.0000 </r>
       <r>   -10.3738     0.0000     2.0000 </r>
       <r>   -10.2837     0.0000     2.0000 </r>
       <r>   -10.1935     0.0000     2.0000 </r>
       <r>   -10.1034     0.0000     2.0000 </r>
       <r>   -10.0133     0.0000     2.0000 </r>
       <r>    -9.9231     0.0000     2.0000 </r>
       <r>    -9.8330     0.0000     2.0000 </r>
       <r>    -9.7429     0.0000     2.0000 </r>
       <r>    -9.6527     0.0000     2.0000 </r>
       <r>    -9.5626     0.0000     2.0000 </r>
       <r>    -9.4725     0.0000     2.0000 </r>
       <r>    -9.3823     0.0000     2.0000 </r>
       <r>    -9.2922     0.0007     2.0001 </r>
       <r>    -9.2021     0.0943     2.0086 </r>
       <r>    -9.1120     2.8187     2.2626 </r>
       <r>    -9.0218    19.1997     3.9931 </r>
       <r>    -8.9317    31.1263     6.7985 </r>
       <r>    -8.8416    12.1853     7.8968 </r>
       <r>    -8.7514     1.1216     7.9979 </r>
       <r>    -8.6613     0.0232     8.0000 </r>
       <r>    -8.5712     0.0001     8.0000 </r>
       <r>    -8.4810     0.0000     8.0000 </r>
       <r>    -8.3909     0.0000     8.0000 </r>
       <r>    -8.3008     0.0000     8.0000 </r>
       <r>    -8.2106     0.0000     8.0000 </r>
       <r>    -8.1205     0.0000     8.0000 </r>
       <r>    -8.0304     0.0000     8.0000 </r>
       <r>    -7.9403     0.0000     8.0000 </r>
       <r>    -7.8501     0.0000     8.0000 </r>
       <r>    -7.7600     0.0000     8.0000 </r>
       <r>    -7.6699     0.0000     8.0000 </r>
       <r>    -7.5797     0.0000     8.0000 </r>
       <r>    -7.4896     0.0000     8.0000 </r>
       <r>    -7.3995     0.0000     8.0000 </r>
       <r>    -7.3093     0.0000     8.0000 </r>
       <r>    -7.2192     0.0000     8.0000 </r>
       <r>    -7.1291     0.0000     8.0000 </r>
       <r>    -7.0389     0.0000     8.0000 </r>
       <r>    -6.9488     0.0000     8.0000 </r>
       <r>    -6.8587     0.0000     8.0000 </r>
       <r>    -6.7685     0.0000     8.0000 </r>
       <r>    -6.6784     0.0000     8.0000 </r>
       <r>    -6.5883     0.0000     8.0000 </r>
       <r>    -6.4982     0.0000     8.0000 </r>
       <r>    -6.4080     0.0000     8.0000 </r>
       <r>    -6.3179     0.0000     8.0000 </r>
       <r>    -6.2278     0.0000     8.0000 </r>
       <r>    -6.1376     0.0000     8.0000 </r>
       <r>    -6.0475     0.0000     8.0000 </r>
       <r>    -5.9574     0.0000     8.0000 </r>
       <r>    -5.8672     0.0000     8.0000 </r>
       <r>    -5.7771     0.0000     8.0000 </r>
       <r>    -5.6870     0.0000     8.0000 </r>
       <r>    -5.5968     0.0000     8.0000 </r>
       <r>    -5.5067     0.0000     8.0000 </r>
       <r>    -5.4166     0.0000     8.0000 </r>
       <r>    -5.3265     0.0000     8.0000 </r>
       <r>    -5.2363     0.0000     8.0000 </r>
       <r>    -5.1462     0.0000     8.0000 </r>
       <r>    -5.0561     0.0000     8.0000 </r>
       <r>    -4.9659     0.0000     8.0000 </r>
       <r>    -4.8758     0.0000     8.0000 </r>
       <r>    -4.7857     0.0000     8.0000 </r>
       <r>    -4.6955     0.0000     8.0000 </r>
       <r>    -4.6054     0.0000     8.0000 </r>
       <r>    -4.5153     0.0000     8.0000 </r>
       <r>    -4.4251     0.0000     8.0000 </r>
       <r>    -4.3350     0.0000     8.0000 </r>
       <r>    -4.2449     0.0000     8.0000 </r>
       <r>    -4.1547     0.0000     8.0000 </r>
       <r>    -4.0646     0.0000     8.0000 </r>
       <r>    -3.9745     0.0000     8.0000 </r>
       <r>    -3.8844     0.0000     8.0000 </r>
       <r>    -3.7942     0.0000     8.0000 </r>
       <r>    -3.7041     0.0000     8.0000 </r>
       <r>    -3.6140     0.0000     8.0000 </r>
       <r>    -3.5238     0.0000     8.0000 </r>
       <r>    -3.4337     0.0000     8.0000 </r>
       <r>    -3.3436     0.0000     8.0000 </r>
       <r>    -3.2534     0.0000     8.0000 </r>
       <r>    -3.1633     0.0000     8.0000 </r>
       <r>    -3.0732     0.0000     8.0000 </r>
       <r>    -2.9830     0.0000     8.0000 </r>
       <r>    -2.8929     0.0000     8.0000 </r>
       <r>    -2.8028     0.0000     8.0000 </r>
       <r>    -2.7127     0.0000     8.0000 </r>
       <r>    -2.6225     0.0000     8.0000 </r>
       <r>    -2.5324     0.0000     8.0000 </r>
       <r>    -2.4423     0.0000     8.0000 </r>
       <r>    -2.3521     0.0000     8.0000 </r>
       <r>    -2.2620     0.0000     8.0000 </r>
       <r>    -2.1719     0.0000     8.0000 </r>
       <r>    -2.0817     0.0000     8.0000 </r>
       <r>    -1.9916     0.0000     8.0000 </r>
       <r>    -1.9015     0.0000     8.0000 </r>
       <r>    -1.8113     0.0000     8.0000 </r>
       <r>    -1.7212     0.0000     8.0000 </r>
       <r>    -1.6311     0.0000     8.0000 </r>
       <r>    -1.5409     0.0000     8.0000 </r>
       <r>    -1.4508     0.0000     8.0000 </r>
       <r>    -1.3607     0.0000     8.0000 </r>
       <r>    -1.2706     0.0000     8.0000 </r>
       <r>    -1.1804     0.0000     8.0000 </r>
       <r>    -1.0903     0.0000     8.0000 </r>
       <r>    -1.0002     0.0000     8.0000 </r>
       <r>    -0.9100     0.0000     8.0000 </r>
       <r>    -0.8199     0.0000     8.0000 </r>
       <r>    -0.7298     0.0000     8.0000 </r>
       <r>    -0.6396     0.0000     8.0000 </r>
       <r>    -0.5495     0.0014     8.0001 </r>
       <r>    -0.4594     0.0528     8.0049 </r>
       <r>    -0.3692     0.5549     8.0549 </r>
       <r>    -0.2791     2.2970     8.2619 </r>
       <r>    -0.1890     4.5623     8.6731 </r>
       <r>    -0.0989     5.1463     9.1370 </r>
       <r>    -0.0087     4.5181     9.5442 </r>
       <r>     0.0814     3.4847     9.8583 </r>
       <r>     0.1715     3.2677    10.1528 </r>
       <r>     0.2617     6.2761    10.7185 </r>
       <r>     0.3518    10.2964    11.6465 </r>
       <r>     0.4419    10.0988    12.5567 </r>
       <r>     0.5321     5.6815    13.0688 </r>
       <r>     0.6222     4.3666    13.4624 </r>
       <r>     0.7123     4.3183    13.8516 </r>
       <r>     0.8025     1.5099    13.9877 </r>
       <r>     0.8926     0.1340    13.9998 </r>
       <r>     0.9827     0.0027    14.0000 </r>
       <r>     1.0728     0.0000    14.0000 </r>
       <r>     1.1630     0.0000    14.0000 </r>
       <r>     1.2531     0.0000    14.0000 </r>
       <r>     1.3432     0.0000    14.0000 </r>
       <r>     1.4334     0.0000    14.0000 </r>
       <r>     1.5235     0.0000    14.0000 </r>
       <r>     1.6136     0.0000    14.0000 </r>
       <r>     1.7038     0.0000    14.0000 </r>
       <r>     1.7939     0.0000    14.0000 </r>
       <r>     1.8840     0.0000    14.0000 </r>
      </set>
     </set>
    </array>
   </total>
  </dos>
 </calculation>
 <structure name="finalpos" >
  <crystal>
   <varray name="basis" >
    <v>       9.49839973       0.00000000       0.00000000 </v>
    <v>       0.00000000       9.49839973       0.00000000 </v>
    <v>       0.00000000       0.00000000      24.50289917 </v>
   </varray>
   <i name="volume">   2210.64170109 </i>
   <varray name="rec_basis" >
    <v>       0.10528089       0.00000000       0.00000000 </v>
    <v>       0.00000000       0.10528089       0.00000000 </v>
    <v>       0.00000000       0.00000000       0.04081150 </v>
   </varray>
  </crystal>
  <varray name="positions" >
   <v>       0.51759285       0.51815069       0.40848110 </v>
  </varray>
  <varray name="selective"  type="logical" >
   <v type="logical" >  T  T  T </v>
  </varray>
  <nose>
   <v>      -3.00000000       0.00000000       0.00010000       0.00010000 </v>
  </nose>
 </structure>
</modeling>
