  63  63   0   0
  0.3508955E+02  0.9498400E-09  0.9498400E-09  0.2450290E-08  0.5000000E-15
  1.000000000000000E-004
  CAR 
 ni3al                                   
      8.82471485    -60.91580415  301      3.45688552      1.00000000
    -60.916  0.0000E+00  0.0000E+00
    -60.683  0.0000E+00  0.0000E+00
    -60.451  0.0000E+00  0.0000E+00
    -60.218  0.0000E+00  0.0000E+00
    -59.986  0.0000E+00  0.0000E+00
    -59.753  0.0000E+00  0.0000E+00
    -59.521  0.0000E+00  0.0000E+00
    -59.289  0.0000E+00  0.0000E+00
    -59.056  0.0000E+00  0.0000E+00
    -58.824  0.0000E+00  0.0000E+00
    -58.591  0.0000E+00  0.0000E+00
    -58.359  0.0000E+00  0.0000E+00
    -58.126  0.1109E-06  0.2578E-07
    -57.894  0.1260E+00  0.2930E-01
    -57.661  0.4679E+02  0.1091E+02
    -57.429  0.2535E+03  0.6983E+02
    -57.196  0.1945E+03  0.1150E+03
    -56.964  0.4711E+02  0.1260E+03
    -56.731  0.4111E-01  0.1260E+03
    -56.499  0.4624E-08  0.1260E+03
    -56.266  0.0000E+00  0.1260E+03
    -56.034  0.0000E+00  0.1260E+03
    -55.801  0.0000E+00  0.1260E+03
    -55.569  0.0000E+00  0.1260E+03
    -55.337  0.0000E+00  0.1260E+03
    -55.104  0.0000E+00  0.1260E+03
    -54.872  0.0000E+00  0.1260E+03
    -54.639  0.0000E+00  0.1260E+03
    -54.407  0.0000E+00  0.1260E+03
    -54.174  0.0000E+00  0.1260E+03
    -53.942  0.0000E+00  0.1260E+03
    -53.709  0.0000E+00  0.1260E+03
    -53.477  0.0000E+00  0.1260E+03
    -53.244  0.0000E+00  0.1260E+03
    -53.012  0.0000E+00  0.1260E+03
    -52.779  0.0000E+00  0.1260E+03
    -52.547  0.0000E+00  0.1260E+03
    -52.314  0.0000E+00  0.1260E+03
    -52.082  0.0000E+00  0.1260E+03
    -51.850  0.0000E+00  0.1260E+03
    -51.617  0.0000E+00  0.1260E+03
    -51.385  0.0000E+00  0.1260E+03
    -51.152  0.0000E+00  0.1260E+03
    -50.920  0.0000E+00  0.1260E+03
    -50.687  0.0000E+00  0.1260E+03
    -50.455  0.0000E+00  0.1260E+03
    -50.222  0.0000E+00  0.1260E+03
    -49.990  0.0000E+00  0.1260E+03
    -49.757  0.0000E+00  0.1260E+03
    -49.525  0.0000E+00  0.1260E+03
    -49.292  0.0000E+00  0.1260E+03
    -49.060  0.0000E+00  0.1260E+03
    -48.827  0.0000E+00  0.1260E+03
    -48.595  0.0000E+00  0.1260E+03
    -48.363  0.0000E+00  0.1260E+03
    -48.130  0.0000E+00  0.1260E+03
    -47.898  0.0000E+00  0.1260E+03
    -47.665  0.0000E+00  0.1260E+03
    -47.433  0.0000E+00  0.1260E+03
    -47.200  0.0000E+00  0.1260E+03
    -46.968  0.0000E+00  0.1260E+03
    -46.735  0.0000E+00  0.1260E+03
    -46.503  0.0000E+00  0.1260E+03
    -46.270  0.0000E+00  0.1260E+03
    -46.038  0.0000E+00  0.1260E+03
    -45.805  0.0000E+00  0.1260E+03
    -45.573  0.0000E+00  0.1260E+03
    -45.340  0.0000E+00  0.1260E+03
    -45.108  0.0000E+00  0.1260E+03
    -44.875  0.0000E+00  0.1260E+03
    -44.643  0.0000E+00  0.1260E+03
    -44.411  0.0000E+00  0.1260E+03
    -44.178  0.0000E+00  0.1260E+03
    -43.946  0.0000E+00  0.1260E+03
    -43.713  0.0000E+00  0.1260E+03
    -43.481  0.0000E+00  0.1260E+03
    -43.248  0.0000E+00  0.1260E+03
    -43.016  0.0000E+00  0.1260E+03
    -42.783  0.0000E+00  0.1260E+03
    -42.551  0.0000E+00  0.1260E+03
    -42.318  0.0000E+00  0.1260E+03
    -42.086  0.0000E+00  0.1260E+03
    -41.853  0.0000E+00  0.1260E+03
    -41.621  0.0000E+00  0.1260E+03
    -41.388  0.0000E+00  0.1260E+03
    -41.156  0.0000E+00  0.1260E+03
    -40.924  0.0000E+00  0.1260E+03
    -40.691  0.0000E+00  0.1260E+03
    -40.459  0.0000E+00  0.1260E+03
    -40.226  0.0000E+00  0.1260E+03
    -39.994  0.0000E+00  0.1260E+03
    -39.761  0.0000E+00  0.1260E+03
    -39.529  0.0000E+00  0.1260E+03
    -39.296  0.0000E+00  0.1260E+03
    -39.064  0.0000E+00  0.1260E+03
    -38.831  0.0000E+00  0.1260E+03
    -38.599  0.0000E+00  0.1260E+03
    -38.366  0.0000E+00  0.1260E+03
    -38.134  0.0000E+00  0.1260E+03
    -37.901  0.0000E+00  0.1260E+03
    -37.669  0.0000E+00  0.1260E+03
    -37.436  0.0000E+00  0.1260E+03
    -37.204  0.0000E+00  0.1260E+03
    -36.972  0.0000E+00  0.1260E+03
    -36.739  0.0000E+00  0.1260E+03
    -36.507  0.0000E+00  0.1260E+03
    -36.274  0.0000E+00  0.1260E+03
    -36.042  0.0000E+00  0.1260E+03
    -35.809  0.0000E+00  0.1260E+03
    -35.577  0.0000E+00  0.1260E+03
    -35.344  0.0000E+00  0.1260E+03
    -35.112  0.0000E+00  0.1260E+03
    -34.879  0.0000E+00  0.1260E+03
    -34.647  0.0000E+00  0.1260E+03
    -34.414  0.0000E+00  0.1260E+03
    -34.182  0.0000E+00  0.1260E+03
    -33.949  0.0000E+00  0.1260E+03
    -33.717  0.0000E+00  0.1260E+03
    -33.485  0.0000E+00  0.1260E+03
    -33.252  0.0000E+00  0.1260E+03
    -33.020  0.0000E+00  0.1260E+03
    -32.787  0.6493E-08  0.1260E+03
    -32.555  0.3792E-01  0.1260E+03
    -32.322  0.2644E+02  0.1322E+03
    -32.090  0.1866E+03  0.1755E+03
    -31.857  0.2084E+03  0.2240E+03
    -31.625  0.2325E+03  0.2780E+03
    -31.392  0.2890E+03  0.3452E+03
    -31.160  0.3339E+03  0.4228E+03
    -30.927  0.3067E+03  0.4941E+03
    -30.695  0.4246E+02  0.5040E+03
    -30.462  0.2045E-01  0.5040E+03
    -30.230  0.7662E-09  0.5040E+03
    -29.998  0.0000E+00  0.5040E+03
    -29.765  0.0000E+00  0.5040E+03
    -29.533  0.0000E+00  0.5040E+03
    -29.300  0.0000E+00  0.5040E+03
    -29.068  0.0000E+00  0.5040E+03
    -28.835  0.0000E+00  0.5040E+03
    -28.603  0.0000E+00  0.5040E+03
    -28.370  0.0000E+00  0.5040E+03
    -28.138  0.0000E+00  0.5040E+03
    -27.905  0.0000E+00  0.5040E+03
    -27.673  0.0000E+00  0.5040E+03
    -27.440  0.0000E+00  0.5040E+03
    -27.208  0.0000E+00  0.5040E+03
    -26.975  0.0000E+00  0.5040E+03
    -26.743  0.0000E+00  0.5040E+03
    -26.510  0.0000E+00  0.5040E+03
    -26.278  0.0000E+00  0.5040E+03
    -26.046  0.0000E+00  0.5040E+03
    -25.813  0.0000E+00  0.5040E+03
    -25.581  0.0000E+00  0.5040E+03
    -25.348  0.0000E+00  0.5040E+03
    -25.116  0.0000E+00  0.5040E+03
    -24.883  0.0000E+00  0.5040E+03
    -24.651  0.0000E+00  0.5040E+03
    -24.418  0.0000E+00  0.5040E+03
    -24.186  0.0000E+00  0.5040E+03
    -23.953  0.0000E+00  0.5040E+03
    -23.721  0.0000E+00  0.5040E+03
    -23.488  0.0000E+00  0.5040E+03
    -23.256  0.0000E+00  0.5040E+03
    -23.023  0.0000E+00  0.5040E+03
    -22.791  0.0000E+00  0.5040E+03
    -22.559  0.0000E+00  0.5040E+03
    -22.326  0.0000E+00  0.5040E+03
    -22.094  0.0000E+00  0.5040E+03
    -21.861  0.0000E+00  0.5040E+03
    -21.629  0.0000E+00  0.5040E+03
    -21.396  0.0000E+00  0.5040E+03
    -21.164  0.0000E+00  0.5040E+03
    -20.931  0.0000E+00  0.5040E+03
    -20.699  0.0000E+00  0.5040E+03
    -20.466  0.0000E+00  0.5040E+03
    -20.234  0.0000E+00  0.5040E+03
    -20.001  0.0000E+00  0.5040E+03
    -19.769  0.0000E+00  0.5040E+03
    -19.536  0.0000E+00  0.5040E+03
    -19.304  0.0000E+00  0.5040E+03
    -19.071  0.0000E+00  0.5040E+03
    -18.839  0.0000E+00  0.5040E+03
    -18.607  0.0000E+00  0.5040E+03
    -18.374  0.0000E+00  0.5040E+03
    -18.142  0.0000E+00  0.5040E+03
    -17.909  0.0000E+00  0.5040E+03
    -17.677  0.0000E+00  0.5040E+03
    -17.444  0.0000E+00  0.5040E+03
    -17.212  0.0000E+00  0.5040E+03
    -16.979  0.0000E+00  0.5040E+03
    -16.747  0.0000E+00  0.5040E+03
    -16.514  0.0000E+00  0.5040E+03
    -16.282  0.0000E+00  0.5040E+03
    -16.049  0.0000E+00  0.5040E+03
    -15.817  0.0000E+00  0.5040E+03
    -15.584  0.0000E+00  0.5040E+03
    -15.352  0.0000E+00  0.5040E+03
    -15.120  0.0000E+00  0.5040E+03
    -14.887  0.0000E+00  0.5040E+03
    -14.655  0.0000E+00  0.5040E+03
    -14.422  0.0000E+00  0.5040E+03
    -14.190  0.0000E+00  0.5040E+03
    -13.957  0.0000E+00  0.5040E+03
    -13.725  0.0000E+00  0.5040E+03
    -13.492  0.0000E+00  0.5040E+03
    -13.260  0.0000E+00  0.5040E+03
    -13.027  0.0000E+00  0.5040E+03
    -12.795  0.0000E+00  0.5040E+03
    -12.562  0.0000E+00  0.5040E+03
    -12.330  0.0000E+00  0.5040E+03
    -12.097  0.0000E+00  0.5040E+03
    -11.865  0.0000E+00  0.5040E+03
    -11.633  0.0000E+00  0.5040E+03
    -11.400  0.0000E+00  0.5040E+03
    -11.168  0.0000E+00  0.5040E+03
    -10.935  0.0000E+00  0.5040E+03
    -10.703  0.0000E+00  0.5040E+03
    -10.470  0.0000E+00  0.5040E+03
    -10.238  0.0000E+00  0.5040E+03
    -10.005  0.0000E+00  0.5040E+03
     -9.773  0.0000E+00  0.5040E+03
     -9.540  0.0000E+00  0.5040E+03
     -9.308  0.0000E+00  0.5040E+03
     -9.075  0.0000E+00  0.5040E+03
     -8.843  0.0000E+00  0.5040E+03
     -8.610  0.0000E+00  0.5040E+03
     -8.378  0.0000E+00  0.5040E+03
     -8.145  0.0000E+00  0.5040E+03
     -7.913  0.0000E+00  0.5040E+03
     -7.681  0.0000E+00  0.5040E+03
     -7.448  0.0000E+00  0.5040E+03
     -7.216  0.0000E+00  0.5040E+03
     -6.983  0.0000E+00  0.5040E+03
     -6.751  0.0000E+00  0.5040E+03
     -6.518  0.0000E+00  0.5040E+03
     -6.286  0.0000E+00  0.5040E+03
     -6.053  0.0000E+00  0.5040E+03
     -5.821  0.0000E+00  0.5040E+03
     -5.588  0.0000E+00  0.5040E+03
     -5.356  0.0000E+00  0.5040E+03
     -5.123  0.0000E+00  0.5040E+03
     -4.891  0.0000E+00  0.5040E+03
     -4.658  0.0000E+00  0.5040E+03
     -4.426  0.0000E+00  0.5040E+03
     -4.194  0.0000E+00  0.5040E+03
     -3.961  0.0000E+00  0.5040E+03
     -3.729  0.6865E-10  0.5040E+03
     -3.496  0.6447E-03  0.5040E+03
     -3.264  0.4024E+00  0.5041E+03
     -3.031  0.2821E+01  0.5047E+03
     -2.799  0.1964E+01  0.5052E+03
     -2.566  0.4661E+01  0.5063E+03
     -2.334  0.1863E+01  0.5067E+03
     -2.101  0.6712E+01  0.5083E+03
     -1.869  0.7992E+01  0.5101E+03
     -1.636  0.9314E+01  0.5123E+03
     -1.404  0.2357E+02  0.5178E+03
     -1.171  0.4600E+02  0.5285E+03
     -0.939  0.5857E+02  0.5421E+03
     -0.706  0.7372E+02  0.5592E+03
     -0.474  0.5476E+02  0.5720E+03
     -0.242  0.8214E+02  0.5911E+03
     -0.009  0.7350E+02  0.6081E+03
      0.223  0.7217E+02  0.6249E+03
      0.456  0.1073E+03  0.6499E+03
      0.688  0.1098E+03  0.6754E+03
      0.921  0.8880E+02  0.6960E+03
      1.153  0.8034E+02  0.7147E+03
      1.386  0.7286E+02  0.7316E+03
      1.618  0.9212E+02  0.7530E+03
      1.851  0.7756E+02  0.7711E+03
      2.083  0.9450E+02  0.7930E+03
      2.316  0.7129E+02  0.8096E+03
      2.548  0.5735E+02  0.8230E+03
      2.781  0.5119E+02  0.8349E+03
      3.013  0.7299E+02  0.8518E+03
      3.245  0.7130E+02  0.8684E+03
      3.478  0.6380E+02  0.8832E+03
      3.710  0.5646E+02  0.8963E+03
      3.943  0.6014E+02  0.9103E+03
      4.175  0.6921E+02  0.9264E+03
      4.408  0.6747E+02  0.9421E+03
      4.640  0.9048E+02  0.9631E+03
      4.873  0.1065E+03  0.9879E+03
      5.105  0.1080E+03  0.1013E+04
      5.338  0.1123E+03  0.1039E+04
      5.570  0.7327E+02  0.1056E+04
      5.803  0.7945E+01  0.1058E+04
      6.035  0.1782E-01  0.1058E+04
      6.268  0.2485E-07  0.1058E+04
      6.500  0.0000E+00  0.1058E+04
      6.732  0.0000E+00  0.1058E+04
      6.965  0.0000E+00  0.1058E+04
      7.197  0.0000E+00  0.1058E+04
      7.430  0.0000E+00  0.1058E+04
      7.662  0.0000E+00  0.1058E+04
      7.895  0.0000E+00  0.1058E+04
      8.127  0.0000E+00  0.1058E+04
      8.360  0.0000E+00  0.1058E+04
      8.592  0.0000E+00  0.1058E+04
      8.825  0.0000E+00  0.1058E+04
