   63   63    1    1
  0.3508955E+02  0.9498400E-09  0.9498400E-09  0.2450290E-08  0.5000000E-15
  1.000000000000000E-004
  CAR 
 ni3al                                   
    882      6    529
 
  0.0000000E+00  0.0000000E+00  0.0000000E+00  0.6250000E-01
      1        -57.745781   1.000000
      2        -57.679321   1.000000
      3        -57.648468   1.000000
      4        -57.647547   1.000000
      5        -57.647547   1.000000
      6        -57.646684   1.000000
      7        -57.613522   1.000000
      8        -57.611484   1.000000
      9        -57.605634   1.000000
     10        -57.605634   1.000000
     11        -57.600801   1.000000
     12        -57.600763   1.000000
     13        -57.600763   1.000000
     14        -57.595268   1.000000
     15        -57.575880   1.000000
     16        -57.575880   1.000000
     17        -57.575145   1.000000
     18        -57.570888   1.000000
     19        -57.526442   1.000000
     20        -57.484638   1.000000
     21        -57.482685   1.000000
     22        -57.478553   1.000000
     23        -57.478553   1.000000
     24        -57.475674   1.000000
     25        -57.472303   1.000000
     26        -57.471718   1.000000
     27        -57.464790   1.000000
     28        -57.464790   1.000000
     29        -57.463992   1.000000
     30        -57.463992   1.000000
     31        -57.463970   1.000000
     32        -57.463720   1.000000
     33        -57.456812   1.000000
     34        -57.456812   1.000000
     35        -57.451921   1.000000
     36        -57.441889   1.000000
     37        -57.439722   1.000000
     38        -57.435596   1.000000
     39        -57.435596   1.000000
     40        -57.428090   1.000000
     41        -57.421798   1.000000
     42        -57.421798   1.000000
     43        -57.418547   1.000000
     44        -57.404963   1.000000
     45        -57.362030   1.000000
     46        -57.269772   1.000000
     47        -57.269772   1.000000
     48        -57.268013   1.000000
     49        -57.266479   1.000000
     50        -57.266245   1.000000
     51        -57.262811   1.000000
     52        -57.262811   1.000000
     53        -57.260847   1.000000
     54        -57.244940   1.000000
     55        -57.237217   1.000000
     56        -57.237217   1.000000
     57        -57.233954   1.000000
     58        -57.204483   1.000000
     59        -57.204119   1.000000
     60        -57.204119   1.000000
     61        -57.197721   1.000000
     62        -57.195089   1.000000
     63        -57.161349   1.000000
     64        -32.325029   1.000000
     65        -32.319446   1.000000
     66        -32.319446   1.000000
     67        -32.281535   1.000000
     68        -32.254803   1.000000
     69        -32.247621   1.000000
     70        -32.243672   1.000000
     71        -32.243672   1.000000
     72        -32.242301   1.000000
     73        -32.233487   1.000000
     74        -32.232869   1.000000
     75        -32.232869   1.000000
     76        -32.165433   1.000000
     77        -32.158762   1.000000
     78        -32.158762   1.000000
     79        -32.121318   1.000000
     80        -32.115685   1.000000
     81        -32.113395   1.000000
     82        -32.113395   1.000000
     83        -32.106400   1.000000
     84        -32.100330   1.000000
     85        -32.092260   1.000000
     86        -32.089303   1.000000
     87        -32.089303   1.000000
     88        -32.088111   1.000000
     89        -32.086759   1.000000
     90        -32.084331   1.000000
     91        -32.084098   1.000000
     92        -32.084098   1.000000
     93        -32.067899   1.000000
     94        -32.067899   1.000000
     95        -32.066454   1.000000
     96        -32.057508   1.000000
     97        -32.053625   1.000000
     98        -32.053625   1.000000
     99        -32.041388   1.000000
    100        -32.012441   1.000000
    101        -31.983407   1.000000
    102        -31.975862   1.000000
    103        -31.975862   1.000000
    104        -31.945966   1.000000
    105        -31.937035   1.000000
    106        -31.937035   1.000000
    107        -31.933314   1.000000
    108        -31.886009   1.000000
    109        -31.845665   1.000000
    110        -31.838523   1.000000
    111        -31.838523   1.000000
    112        -31.833799   1.000000
    113        -31.827839   1.000000
    114        -31.827839   1.000000
    115        -31.824109   1.000000
    116        -31.819266   1.000000
    117        -31.809991   1.000000
    118        -31.809991   1.000000
    119        -31.802150   1.000000
    120        -31.796619   1.000000
    121        -31.796619   1.000000
    122        -31.765311   1.000000
    123        -31.759226   1.000000
    124        -31.749389   1.000000
    125        -31.729025   1.000000
    126        -31.729025   1.000000
    127        -31.727397   1.000000
    128        -31.727397   1.000000
    129        -31.719665   1.000000
    130        -31.718956   1.000000
    131        -31.707052   1.000000
    132        -31.693504   1.000000
    133        -31.689314   1.000000
    134        -31.689314   1.000000
    135        -31.669899   1.000000
    136        -31.662747   1.000000
    137        -31.662747   1.000000
    138        -31.642734   1.000000
    139        -31.633276   1.000000
    140        -31.614358   1.000000
    141        -31.609819   1.000000
    142        -31.607479   1.000000
    143        -31.607479   1.000000
    144        -31.598904   1.000000
    145        -31.598904   1.000000
    146        -31.593590   1.000000
    147        -31.583280   1.000000
    148        -31.563022   1.000000
    149        -31.563022   1.000000
    150        -31.552276   1.000000
    151        -31.543480   1.000000
    152        -31.526717   1.000000
    153        -31.526717   1.000000
    154        -31.508303   1.000000
    155        -31.508303   1.000000
    156        -31.482887   1.000000
    157        -31.473667   1.000000
    158        -31.470292   1.000000
    159        -31.442108   1.000000
    160        -31.442108   1.000000
    161        -31.440042   1.000000
    162        -31.434017   1.000000
    163        -31.434011   1.000000
    164        -31.434011   1.000000
    165        -31.427538   1.000000
    166        -31.426456   1.000000
    167        -31.421903   1.000000
    168        -31.421903   1.000000
    169        -31.412602   1.000000
    170        -31.412040   1.000000
    171        -31.412040   1.000000
    172        -31.393866   1.000000
    173        -31.385238   1.000000
    174        -31.385238   1.000000
    175        -31.380438   1.000000
    176        -31.366022   1.000000
    177        -31.349467   1.000000
    178        -31.349467   1.000000
    179        -31.333687   1.000000
    180        -31.323019   1.000000
    181        -31.312927   1.000000
    182        -31.311943   1.000000
    183        -31.310341   1.000000
    184        -31.307302   1.000000
    185        -31.307302   1.000000
    186        -31.299656   1.000000
    187        -31.288995   1.000000
    188        -31.288995   1.000000
    189        -31.281610   1.000000
    190        -31.281610   1.000000
    191        -31.273142   1.000000
    192        -31.268868   1.000000
    193        -31.263915   1.000000
    194        -31.263915   1.000000
    195        -31.260870   1.000000
    196        -31.259442   1.000000
    197        -31.254611   1.000000
    198        -31.253271   1.000000
    199        -31.253271   1.000000
    200        -31.250798   1.000000
    201        -31.244245   1.000000
    202        -31.243156   1.000000
    203        -31.243156   1.000000
    204        -31.229157   1.000000
    205        -31.202909   1.000000
    206        -31.178700   1.000000
    207        -31.178700   1.000000
    208        -31.154131   1.000000
    209        -31.150099   1.000000
    210        -31.147486   1.000000
    211        -31.147486   1.000000
    212        -31.147324   1.000000
    213        -31.145942   1.000000
    214        -31.145942   1.000000
    215        -31.136038   1.000000
    216        -31.134710   1.000000
    217        -31.134710   1.000000
    218        -31.133891   1.000000
    219        -31.132198   1.000000
    220        -31.118493   1.000000
    221        -31.111337   1.000000
    222        -31.108297   1.000000
    223        -31.108297   1.000000
    224        -31.088636   1.000000
    225        -31.082208   1.000000
    226        -31.081216   1.000000
    227        -31.081216   1.000000
    228        -31.079010   1.000000
    229        -31.074208   1.000000
    230        -31.062637   1.000000
    231        -31.062637   1.000000
    232        -31.058554   1.000000
    233        -31.053970   1.000000
    234        -31.052036   1.000000
    235        -31.044684   1.000000
    236        -31.044684   1.000000
    237        -31.036994   1.000000
    238        -31.036994   1.000000
    239        -31.032344   1.000000
    240        -31.024539   1.000000
    241        -31.024539   1.000000
    242        -31.010576   1.000000
    243        -30.984678   1.000000
    244        -30.954213   1.000000
    245        -30.954213   1.000000
    246        -30.952485   1.000000
    247        -30.943893   1.000000
    248        -30.943893   1.000000
    249        -30.935209   1.000000
    250        -30.933870   1.000000
    251        -30.918787   1.000000
    252        -30.918787   1.000000
    253         -3.281424   1.000000
    254         -2.310218   1.000000
    255         -1.649450   1.000000
    256         -1.506920   1.000000
    257         -1.464613   1.000000
    258         -1.464613   1.000000
    259         -1.464339   1.000000
    260         -1.463842   1.000000
    261         -1.405451   1.000000
    262         -1.400189   1.000000
    263         -1.386018   1.000000
    264         -1.386018   1.000000
    265         -1.283630   1.000000
    266         -1.257600   1.000000
    267         -1.231004   1.000000
    268         -1.231004   1.000000
    269         -1.094212   1.000000
    270         -1.081618   1.000000
    271         -1.069341   1.000000
    272         -1.051695   1.000000
    273         -1.051695   1.000000
    274         -1.035489   1.000000
    275         -0.934626   1.000000
    276         -0.920951   1.000000
    277         -0.917429   1.000000
    278         -0.917429   1.000000
    279         -0.729558   1.000000
    280         -0.664631   1.000000
    281         -0.628925   1.000000
    282         -0.628925   1.000000
    283         -0.606423   1.000000
    284         -0.606423   1.000000
    285         -0.597333   1.000000
    286         -0.595921   1.000000
    287         -0.577727   1.000000
    288         -0.345771   1.000000
    289         -0.236267   1.000000
    290         -0.225604   1.000000
    291         -0.225604   1.000000
    292         -0.223567   1.000000
    293         -0.202019   1.000000
    294         -0.119926   1.000000
    295         -0.119926   1.000000
    296         -0.113096   1.000000
    297         -0.084889   1.000000
    298         -0.082393   1.000000
    299         -0.074116   1.000000
    300         -0.051931   1.000000
    301         -0.051931   1.000000
    302         -0.018246   1.000000
    303         -0.016584   1.000000
    304          0.006345   1.000000
    305          0.007610   1.000000
    306          0.007610   1.000000
    307          0.010592   1.000000
    308          0.023832   1.000000
    309          0.023832   1.000000
    310          0.056754   1.000000
    311          0.057558   1.000000
    312          0.063544   1.000000
    313          0.063544   1.000000
    314          0.134207   1.000000
    315          0.276201   1.000000
    316          0.389530   1.000000
    317          0.403205   1.000000
    318          0.403205   1.000000
    319          0.499598   1.000000
    320          0.508430   1.000000
    321          0.508430   1.000000
    322          0.531295   1.000000
    323          0.550007   1.000000
    324          0.550007   1.000000
    325          0.557554   1.000000
    326          0.564421   1.000000
    327          0.597284   1.000000
    328          0.598589   1.000000
    329          0.598589   1.000000
    330          0.626172   1.000000
    331          0.696837   1.000000
    332          0.696837   1.000000
    333          0.720228   1.000000
    334          0.723781   1.000000
    335          0.752266   1.000000
    336          0.752266   1.000000
    337          0.775220   1.000000
    338          0.783678   1.000000
    339          0.796555   1.000000
    340          0.808910   1.000000
    341          0.826149   1.000000
    342          0.826149   1.000000
    343          0.847396   1.000000
    344          0.893803   1.000000
    345          0.905695   1.000000
    346          0.905695   1.000000
    347          0.918166   1.000000
    348          0.932439   1.000000
    349          0.997607   1.000000
    350          0.997607   1.000000
    351          1.024377   1.000000
    352          1.024377   1.000000
    353          1.085216   1.000000
    354          1.157386   1.000000
    355          1.212809   1.000000
    356          1.214036   1.000000
    357          1.214036   1.000000
    358          1.215653   1.000000
    359          1.220639   1.000000
    360          1.291445   1.000000
    361          1.332873   1.000000
    362          1.334697   1.000000
    363          1.345596   1.000000
    364          1.345596   1.000000
    365          1.351436   1.000000
    366          1.351436   1.000000
    367          1.361019   1.000000
    368          1.402575   1.000000
    369          1.402575   1.000000
    370          1.430075   1.000000
    371          1.430075   1.000000
    372          1.447579   1.000000
    373          1.456583   1.000000
    374          1.523395   1.000000
    375          1.559294   1.000000
    376          1.626439   1.000000
    377          1.644057   1.000000
    378          1.650084   1.000000
    379          1.650084   1.000000
    380          1.738550   1.000000
    381          1.754115   1.000000
    382          1.754115   1.000000
    383          1.811373   1.000000
    384          1.896309   1.000000
    385          1.943302   1.000000
    386          1.943302   1.000000
    387          1.949563   1.000000
    388          1.984331   1.000000
    389          1.998477   1.000000
    390          1.998477   1.000000
    391          2.069470   1.000000
    392          2.096469   1.000000
    393          2.096469   1.000000
    394          2.102960   1.000000
    395          2.131282   1.000000
    396          2.131975   1.000000
    397          2.150612   1.000000
    398          2.190593   1.000000
    399          2.190593   1.000000
    400          2.218856   1.000000
    401          2.218856   1.000000
    402          2.279088   1.000000
    403          2.283120   1.000000
    404          2.283120   1.000000
    405          2.297935   1.000000
    406          2.299203   1.000000
    407          2.309619   1.000000
    408          2.357235   1.000000
    409          2.357235   1.000000
    410          2.374777   1.000000
    411          2.374777   1.000000
    412          2.461760   1.000000
    413          2.489730   1.000000
    414          2.539398   1.000000
    415          2.650062   1.000000
    416          2.650062   1.000000
    417          2.663069   1.000000
    418          2.677906   1.000000
    419          2.677906   1.000000
    420          2.679765   1.000000
    421          2.703275   1.000000
    422          2.754458   1.000000
    423          2.754458   1.000000
    424          2.864046   1.000000
    425          2.897436   1.000000
    426          2.897436   1.000000
    427          2.908549   1.000000
    428          2.921318   1.000000
    429          3.160716   0.999986
    430          3.196167   0.999887
    431          3.217162   0.999651
    432          3.217162   0.999651
    433          3.255047   0.997844
    434          3.255047   0.997844
    435          3.261615   0.997124
    436          3.266837   0.996403
    437          3.392396   0.819121
    438          3.400385   0.787864
    439          3.473367   0.407849
    440          3.473367   0.407849
    441          3.527209   0.159985
    442          3.616664   0.011923
    443          3.631259   0.006831
    444          3.635234   0.005831
    445          3.635234   0.005831
    446          3.659051   0.002125
    447          3.659051   0.002125
    448          3.679931   0.000804
    449          3.710696   0.000166
    450          3.712248   0.000152
    451          3.712248   0.000152
    452          3.713834   0.000140
    453          3.774646   0.000003
    454          3.774646   0.000003
    455          3.785193   0.000002
    456          3.790235   0.000001
    457          3.790286   0.000001
    458          3.875761   0.000000
    459          3.875761   0.000000
    460          3.901828   0.000000
    461          3.915719   0.000000
    462          3.915719   0.000000
    463          3.948277   0.000000
    464          4.032247   0.000000
    465          4.034504   0.000000
    466          4.057205   0.000000
    467          4.060742   0.000000
    468          4.060742   0.000000
    469          4.105693   0.000000
    470          4.105693   0.000000
    471          4.107649   0.000000
    472          4.115666   0.000000
    473          4.188131   0.000000
    474          4.199123   0.000000
    475          4.268376   0.000000
    476          4.268376   0.000000
    477          4.370620   0.000000
    478          4.522874   0.000000
    479          4.540881   0.000000
    480          4.545025   0.000000
    481          4.545025   0.000000
    482          4.555524   0.000000
    483          4.555524   0.000000
    484          4.568963   0.000000
    485          4.596154   0.000000
    486          4.633609   0.000000
    487          4.656538   0.000000
    488          4.656538   0.000000
    489          4.694499   0.000000
    490          4.741923   0.000000
    491          4.768811   0.000000
    492          4.768811   0.000000
    493          4.812195   0.000000
    494          4.823966   0.000000
    495          4.828264   0.000000
    496          4.828264   0.000000
    497          4.850628   0.000000
    498          4.877187   0.000000
    499          4.896638   0.000000
    500          4.927447   0.000000
    501          4.927447   0.000000
    502          4.991919   0.000000
    503          4.998060   0.000000
    504          5.030320   0.000000
    505          5.096300   0.000000
    506          5.096300   0.000000
    507          5.117004   0.000000
    508          5.168105   0.000000
    509          5.168105   0.000000
    510          5.186933   0.000000
    511          5.194456   0.000000
    512          5.221799   0.000000
    513          5.261396   0.000000
    514          5.261396   0.000000
    515          5.302478   0.000000
    516          5.311276   0.000000
    517          5.311276   0.000000
    518          5.339969   0.000000
    519          5.372370   0.000000
    520          5.394700   0.000000
    521          5.398085   0.000000
    522          5.398216   0.000000
    523          5.460639   0.000000
    524          5.464981   0.000000
    525          5.471487   0.000000
    526          5.477014   0.000000
    527          5.504035   0.000000
    528          5.524301   0.000000
    529          5.538388   0.000000
 
  0.2500000E+00  0.0000000E+00  0.0000000E+00  0.2500000E+00
      1        -57.738499   1.000000
      2        -57.685705   1.000000
      3        -57.673621   1.000000
      4        -57.644070   1.000000
      5        -57.643754   1.000000
      6        -57.634309   1.000000
      7        -57.617620   1.000000
      8        -57.617074   1.000000
      9        -57.610957   1.000000
     10        -57.609308   1.000000
     11        -57.602676   1.000000
     12        -57.591079   1.000000
     13        -57.587943   1.000000
     14        -57.586146   1.000000
     15        -57.584541   1.000000
     16        -57.581119   1.000000
     17        -57.566473   1.000000
     18        -57.564277   1.000000
     19        -57.522706   1.000000
     20        -57.496792   1.000000
     21        -57.481399   1.000000
     22        -57.476945   1.000000
     23        -57.475314   1.000000
     24        -57.474670   1.000000
     25        -57.472208   1.000000
     26        -57.470913   1.000000
     27        -57.467679   1.000000
     28        -57.467514   1.000000
     29        -57.463963   1.000000
     30        -57.463159   1.000000
     31        -57.462761   1.000000
     32        -57.462520   1.000000
     33        -57.462360   1.000000
     34        -57.458602   1.000000
     35        -57.449076   1.000000
     36        -57.446264   1.000000
     37        -57.442522   1.000000
     38        -57.440421   1.000000
     39        -57.432796   1.000000
     40        -57.430810   1.000000
     41        -57.425133   1.000000
     42        -57.422131   1.000000
     43        -57.410785   1.000000
     44        -57.393873   1.000000
     45        -57.365204   1.000000
     46        -57.274456   1.000000
     47        -57.269499   1.000000
     48        -57.266965   1.000000
     49        -57.266905   1.000000
     50        -57.264394   1.000000
     51        -57.262661   1.000000
     52        -57.260753   1.000000
     53        -57.259344   1.000000
     54        -57.246808   1.000000
     55        -57.240175   1.000000
     56        -57.237197   1.000000
     57        -57.232559   1.000000
     58        -57.212167   1.000000
     59        -57.204138   1.000000
     60        -57.199468   1.000000
     61        -57.195089   1.000000
     62        -57.191630   1.000000
     63        -57.163408   1.000000
     64        -32.346172   1.000000
     65        -32.335239   1.000000
     66        -32.315588   1.000000
     67        -32.286095   1.000000
     68        -32.264049   1.000000
     69        -32.253323   1.000000
     70        -32.245692   1.000000
     71        -32.225043   1.000000
     72        -32.221354   1.000000
     73        -32.202598   1.000000
     74        -32.193780   1.000000
     75        -32.182812   1.000000
     76        -32.180125   1.000000
     77        -32.177640   1.000000
     78        -32.162292   1.000000
     79        -32.160657   1.000000
     80        -32.157863   1.000000
     81        -32.149529   1.000000
     82        -32.139236   1.000000
     83        -32.138510   1.000000
     84        -32.132131   1.000000
     85        -32.118024   1.000000
     86        -32.115085   1.000000
     87        -32.106867   1.000000
     88        -32.094063   1.000000
     89        -32.088506   1.000000
     90        -32.084733   1.000000
     91        -32.075216   1.000000
     92        -32.072189   1.000000
     93        -32.059967   1.000000
     94        -32.058675   1.000000
     95        -32.048759   1.000000
     96        -32.042503   1.000000
     97        -32.020759   1.000000
     98        -32.008017   1.000000
     99        -31.993778   1.000000
    100        -31.978317   1.000000
    101        -31.976978   1.000000
    102        -31.973169   1.000000
    103        -31.965185   1.000000
    104        -31.949851   1.000000
    105        -31.922853   1.000000
    106        -31.919717   1.000000
    107        -31.906281   1.000000
    108        -31.902168   1.000000
    109        -31.880380   1.000000
    110        -31.868389   1.000000
    111        -31.853762   1.000000
    112        -31.850588   1.000000
    113        -31.849662   1.000000
    114        -31.848037   1.000000
    115        -31.837376   1.000000
    116        -31.810070   1.000000
    117        -31.804028   1.000000
    118        -31.800342   1.000000
    119        -31.769066   1.000000
    120        -31.759503   1.000000
    121        -31.758141   1.000000
    122        -31.756137   1.000000
    123        -31.745994   1.000000
    124        -31.740650   1.000000
    125        -31.740186   1.000000
    126        -31.728039   1.000000
    127        -31.726835   1.000000
    128        -31.724151   1.000000
    129        -31.717896   1.000000
    130        -31.713820   1.000000
    131        -31.706479   1.000000
    132        -31.703566   1.000000
    133        -31.701983   1.000000
    134        -31.690464   1.000000
    135        -31.688851   1.000000
    136        -31.679131   1.000000
    137        -31.673154   1.000000
    138        -31.631322   1.000000
    139        -31.627765   1.000000
    140        -31.610214   1.000000
    141        -31.604474   1.000000
    142        -31.590160   1.000000
    143        -31.590097   1.000000
    144        -31.584629   1.000000
    145        -31.574549   1.000000
    146        -31.569382   1.000000
    147        -31.567319   1.000000
    148        -31.557805   1.000000
    149        -31.557350   1.000000
    150        -31.547082   1.000000
    151        -31.539775   1.000000
    152        -31.528042   1.000000
    153        -31.525192   1.000000
    154        -31.516283   1.000000
    155        -31.514997   1.000000
    156        -31.511285   1.000000
    157        -31.502667   1.000000
    158        -31.488923   1.000000
    159        -31.465487   1.000000
    160        -31.460735   1.000000
    161        -31.458351   1.000000
    162        -31.450843   1.000000
    163        -31.448173   1.000000
    164        -31.445425   1.000000
    165        -31.441831   1.000000
    166        -31.429153   1.000000
    167        -31.428465   1.000000
    168        -31.428017   1.000000
    169        -31.423300   1.000000
    170        -31.422124   1.000000
    171        -31.420689   1.000000
    172        -31.409098   1.000000
    173        -31.408647   1.000000
    174        -31.404059   1.000000
    175        -31.383934   1.000000
    176        -31.375650   1.000000
    177        -31.351442   1.000000
    178        -31.336049   1.000000
    179        -31.332958   1.000000
    180        -31.322587   1.000000
    181        -31.311939   1.000000
    182        -31.310269   1.000000
    183        -31.307368   1.000000
    184        -31.305611   1.000000
    185        -31.301827   1.000000
    186        -31.293596   1.000000
    187        -31.292579   1.000000
    188        -31.288469   1.000000
    189        -31.282307   1.000000
    190        -31.278936   1.000000
    191        -31.267510   1.000000
    192        -31.264738   1.000000
    193        -31.262832   1.000000
    194        -31.260235   1.000000
    195        -31.259865   1.000000
    196        -31.248429   1.000000
    197        -31.247746   1.000000
    198        -31.237360   1.000000
    199        -31.234709   1.000000
    200        -31.228174   1.000000
    201        -31.226792   1.000000
    202        -31.219438   1.000000
    203        -31.216928   1.000000
    204        -31.207478   1.000000
    205        -31.202932   1.000000
    206        -31.185298   1.000000
    207        -31.182994   1.000000
    208        -31.182472   1.000000
    209        -31.176340   1.000000
    210        -31.173729   1.000000
    211        -31.154107   1.000000
    212        -31.139909   1.000000
    213        -31.139530   1.000000
    214        -31.137812   1.000000
    215        -31.133501   1.000000
    216        -31.127290   1.000000
    217        -31.123003   1.000000
    218        -31.122822   1.000000
    219        -31.117839   1.000000
    220        -31.110444   1.000000
    221        -31.109222   1.000000
    222        -31.104458   1.000000
    223        -31.101865   1.000000
    224        -31.099418   1.000000
    225        -31.098067   1.000000
    226        -31.089059   1.000000
    227        -31.085845   1.000000
    228        -31.085209   1.000000
    229        -31.083136   1.000000
    230        -31.078313   1.000000
    231        -31.069522   1.000000
    232        -31.067707   1.000000
    233        -31.060292   1.000000
    234        -31.050818   1.000000
    235        -31.046746   1.000000
    236        -31.043988   1.000000
    237        -31.039001   1.000000
    238        -31.026310   1.000000
    239        -31.025268   1.000000
    240        -31.009337   1.000000
    241        -31.005568   1.000000
    242        -30.993872   1.000000
    243        -30.981293   1.000000
    244        -30.958145   1.000000
    245        -30.955018   1.000000
    246        -30.952999   1.000000
    247        -30.947842   1.000000
    248        -30.946159   1.000000
    249        -30.938198   1.000000
    250        -30.935925   1.000000
    251        -30.928306   1.000000
    252        -30.925103   1.000000
    253         -3.137747   1.000000
    254         -2.196437   1.000000
    255         -2.121909   1.000000
    256         -1.570836   1.000000
    257         -1.533272   1.000000
    258         -1.458036   1.000000
    259         -1.426693   1.000000
    260         -1.398368   1.000000
    261         -1.369771   1.000000
    262         -1.368403   1.000000
    263         -1.259850   1.000000
    264         -1.243078   1.000000
    265         -1.142601   1.000000
    266         -1.113660   1.000000
    267         -1.094632   1.000000
    268         -1.083257   1.000000
    269         -1.067687   1.000000
    270         -1.052797   1.000000
    271         -1.046775   1.000000
    272         -1.004690   1.000000
    273         -0.986189   1.000000
    274         -0.977361   1.000000
    275         -0.923506   1.000000
    276         -0.907224   1.000000
    277         -0.879239   1.000000
    278         -0.851110   1.000000
    279         -0.824604   1.000000
    280         -0.783146   1.000000
    281         -0.778881   1.000000
    282         -0.618594   1.000000
    283         -0.542481   1.000000
    284         -0.477683   1.000000
    285         -0.449882   1.000000
    286         -0.434308   1.000000
    287         -0.405930   1.000000
    288         -0.376941   1.000000
    289         -0.360934   1.000000
    290         -0.337025   1.000000
    291         -0.328523   1.000000
    292         -0.323625   1.000000
    293         -0.312025   1.000000
    294         -0.274373   1.000000
    295         -0.250622   1.000000
    296         -0.205325   1.000000
    297         -0.164059   1.000000
    298         -0.161770   1.000000
    299         -0.114981   1.000000
    300         -0.077566   1.000000
    301         -0.061930   1.000000
    302         -0.059608   1.000000
    303         -0.030317   1.000000
    304         -0.008984   1.000000
    305         -0.005191   1.000000
    306          0.001460   1.000000
    307          0.017984   1.000000
    308          0.069623   1.000000
    309          0.168038   1.000000
    310          0.171166   1.000000
    311          0.182928   1.000000
    312          0.201389   1.000000
    313          0.274648   1.000000
    314          0.303809   1.000000
    315          0.312014   1.000000
    316          0.321214   1.000000
    317          0.341055   1.000000
    318          0.357546   1.000000
    319          0.374087   1.000000
    320          0.385761   1.000000
    321          0.399333   1.000000
    322          0.405434   1.000000
    323          0.421532   1.000000
    324          0.467981   1.000000
    325          0.485355   1.000000
    326          0.496010   1.000000
    327          0.530402   1.000000
    328          0.531257   1.000000
    329          0.564042   1.000000
    330          0.574482   1.000000
    331          0.588406   1.000000
    332          0.617694   1.000000
    333          0.640367   1.000000
    334          0.648864   1.000000
    335          0.660917   1.000000
    336          0.688653   1.000000
    337          0.723366   1.000000
    338          0.731963   1.000000
    339          0.739783   1.000000
    340          0.754630   1.000000
    341          0.763894   1.000000
    342          0.786221   1.000000
    343          0.814262   1.000000
    344          0.869984   1.000000
    345          0.877794   1.000000
    346          0.895489   1.000000
    347          0.899370   1.000000
    348          0.905592   1.000000
    349          0.943938   1.000000
    350          0.971173   1.000000
    351          0.998634   1.000000
    352          1.014974   1.000000
    353          1.023361   1.000000
    354          1.091353   1.000000
    355          1.106141   1.000000
    356          1.107749   1.000000
    357          1.130539   1.000000
    358          1.144833   1.000000
    359          1.160581   1.000000
    360          1.190157   1.000000
    361          1.239300   1.000000
    362          1.261116   1.000000
    363          1.276417   1.000000
    364          1.364095   1.000000
    365          1.381154   1.000000
    366          1.418508   1.000000
    367          1.435938   1.000000
    368          1.450137   1.000000
    369          1.482099   1.000000
    370          1.500315   1.000000
    371          1.520768   1.000000
    372          1.580429   1.000000
    373          1.602170   1.000000
    374          1.617421   1.000000
    375          1.625570   1.000000
    376          1.650292   1.000000
    377          1.670161   1.000000
    378          1.678862   1.000000
    379          1.731707   1.000000
    380          1.740989   1.000000
    381          1.744518   1.000000
    382          1.758261   1.000000
    383          1.815770   1.000000
    384          1.817585   1.000000
    385          1.880893   1.000000
    386          1.888946   1.000000
    387          1.933114   1.000000
    388          1.935461   1.000000
    389          1.971984   1.000000
    390          2.001856   1.000000
    391          2.008560   1.000000
    392          2.024830   1.000000
    393          2.040593   1.000000
    394          2.069771   1.000000
    395          2.126532   1.000000
    396          2.134016   1.000000
    397          2.140968   1.000000
    398          2.158187   1.000000
    399          2.179398   1.000000
    400          2.190372   1.000000
    401          2.208513   1.000000
    402          2.233267   1.000000
    403          2.266434   1.000000
    404          2.279551   1.000000
    405          2.292992   1.000000
    406          2.311698   1.000000
    407          2.357799   1.000000
    408          2.385721   1.000000
    409          2.425165   1.000000
    410          2.430343   1.000000
    411          2.444374   1.000000
    412          2.473730   1.000000
    413          2.495434   1.000000
    414          2.546232   1.000000
    415          2.546612   1.000000
    416          2.602160   1.000000
    417          2.604221   1.000000
    418          2.654659   1.000000
    419          2.655122   1.000000
    420          2.773059   1.000000
    421          2.790854   1.000000
    422          2.824443   1.000000
    423          2.848094   1.000000
    424          2.865498   1.000000
    425          2.866383   1.000000
    426          2.892116   1.000000
    427          2.928342   1.000000
    428          3.042149   1.000000
    429          3.054752   1.000000
    430          3.058866   1.000000
    431          3.106383   1.000000
    432          3.122851   0.999999
    433          3.140298   0.999996
    434          3.151935   0.999992
    435          3.232922   0.999231
    436          3.295998   0.988556
    437          3.312819   0.979196
    438          3.330064   0.963556
    439          3.382451   0.853752
    440          3.398309   0.796277
    441          3.414351   0.726257
    442          3.490476   0.317377
    443          3.525141   0.167202
    444          3.553312   0.086335
    445          3.558740   0.074871
    446          3.604224   0.018594
    447          3.737719   0.000036
    448          3.748511   0.000019
    449          3.775430   0.000003
    450          3.779635   0.000003
    451          3.842748   0.000000
    452          3.855351   0.000000
    453          3.858540   0.000000
    454          3.880553   0.000000
    455          3.893570   0.000000
    456          3.921676   0.000000
    457          3.936794   0.000000
    458          3.966839   0.000000
    459          3.974285   0.000000
    460          3.978119   0.000000
    461          3.986169   0.000000
    462          4.067557   0.000000
    463          4.098945   0.000000
    464          4.157088   0.000000
    465          4.199223   0.000000
    466          4.215531   0.000000
    467          4.256853   0.000000
    468          4.278390   0.000000
    469          4.279489   0.000000
    470          4.335340   0.000000
    471          4.355879   0.000000
    472          4.389176   0.000000
    473          4.403127   0.000000
    474          4.405588   0.000000
    475          4.410488   0.000000
    476          4.437908   0.000000
    477          4.467834   0.000000
    478          4.474187   0.000000
    479          4.508581   0.000000
    480          4.530763   0.000000
    481          4.532137   0.000000
    482          4.601826   0.000000
    483          4.615432   0.000000
    484          4.624446   0.000000
    485          4.645895   0.000000
    486          4.683118   0.000000
    487          4.684128   0.000000
    488          4.695524   0.000000
    489          4.700234   0.000000
    490          4.723311   0.000000
    491          4.729605   0.000000
    492          4.755193   0.000000
    493          4.794558   0.000000
    494          4.807907   0.000000
    495          4.834156   0.000000
    496          4.863439   0.000000
    497          4.872474   0.000000
    498          4.891389   0.000000
    499          4.907972   0.000000
    500          4.936308   0.000000
    501          4.974628   0.000000
    502          4.992245   0.000000
    503          4.993284   0.000000
    504          5.007592   0.000000
    505          5.066255   0.000000
    506          5.093468   0.000000
    507          5.106384   0.000000
    508          5.142495   0.000000
    509          5.165088   0.000000
    510          5.173990   0.000000
    511          5.182529   0.000000
    512          5.199942   0.000000
    513          5.232025   0.000000
    514          5.234455   0.000000
    515          5.254697   0.000000
    516          5.254794   0.000000
    517          5.276519   0.000000
    518          5.280707   0.000000
    519          5.297870   0.000000
    520          5.304605   0.000000
    521          5.358073   0.000000
    522          5.359183   0.000000
    523          5.372485   0.000000
    524          5.394447   0.000000
    525          5.468208   0.000000
    526          5.521041   0.000000
    527          5.550126   0.000000
    528          5.561253   0.000000
    529          5.572889   0.000000
 
  0.5000000E+00  0.0000000E+00  0.0000000E+00  0.1250000E+00
      1        -57.719131   1.000000
      2        -57.715794   1.000000
      3        -57.662451   1.000000
      4        -57.653326   1.000000
      5        -57.634764   1.000000
      6        -57.633946   1.000000
      7        -57.632135   1.000000
      8        -57.629274   1.000000
      9        -57.605492   1.000000
     10        -57.597229   1.000000
     11        -57.597159   1.000000
     12        -57.595489   1.000000
     13        -57.593142   1.000000
     14        -57.582863   1.000000
     15        -57.579082   1.000000
     16        -57.575455   1.000000
     17        -57.562688   1.000000
     18        -57.560852   1.000000
     19        -57.513624   1.000000
     20        -57.510550   1.000000
     21        -57.477700   1.000000
     22        -57.475966   1.000000
     23        -57.474597   1.000000
     24        -57.473390   1.000000
     25        -57.472921   1.000000
     26        -57.472563   1.000000
     27        -57.472467   1.000000
     28        -57.468770   1.000000
     29        -57.467313   1.000000
     30        -57.463661   1.000000
     31        -57.463233   1.000000
     32        -57.462776   1.000000
     33        -57.461774   1.000000
     34        -57.461144   1.000000
     35        -57.452348   1.000000
     36        -57.447292   1.000000
     37        -57.444118   1.000000
     38        -57.439249   1.000000
     39        -57.431006   1.000000
     40        -57.430261   1.000000
     41        -57.424456   1.000000
     42        -57.422533   1.000000
     43        -57.410252   1.000000
     44        -57.381093   1.000000
     45        -57.371714   1.000000
     46        -57.276682   1.000000
     47        -57.269124   1.000000
     48        -57.267421   1.000000
     49        -57.266526   1.000000
     50        -57.264832   1.000000
     51        -57.262527   1.000000
     52        -57.260469   1.000000
     53        -57.253220   1.000000
     54        -57.251099   1.000000
     55        -57.242424   1.000000
     56        -57.237180   1.000000
     57        -57.231863   1.000000
     58        -57.214887   1.000000
     59        -57.204158   1.000000
     60        -57.199164   1.000000
     61        -57.195089   1.000000
     62        -57.185414   1.000000
     63        -57.166234   1.000000
     64        -32.361989   1.000000
     65        -32.345237   1.000000
     66        -32.307835   1.000000
     67        -32.286084   1.000000
     68        -32.260635   1.000000
     69        -32.241626   1.000000
     70        -32.241079   1.000000
     71        -32.217959   1.000000
     72        -32.212036   1.000000
     73        -32.208878   1.000000
     74        -32.201463   1.000000
     75        -32.198842   1.000000
     76        -32.177854   1.000000
     77        -32.176142   1.000000
     78        -32.175921   1.000000
     79        -32.162649   1.000000
     80        -32.158537   1.000000
     81        -32.154432   1.000000
     82        -32.150081   1.000000
     83        -32.141259   1.000000
     84        -32.126374   1.000000
     85        -32.122610   1.000000
     86        -32.117239   1.000000
     87        -32.099757   1.000000
     88        -32.095640   1.000000
     89        -32.092830   1.000000
     90        -32.086829   1.000000
     91        -32.073690   1.000000
     92        -32.068600   1.000000
     93        -32.067534   1.000000
     94        -32.057143   1.000000
     95        -32.055930   1.000000
     96        -32.052655   1.000000
     97        -32.048941   1.000000
     98        -32.013141   1.000000
     99        -31.988377   1.000000
    100        -31.967711   1.000000
    101        -31.956731   1.000000
    102        -31.951180   1.000000
    103        -31.939553   1.000000
    104        -31.935222   1.000000
    105        -31.907794   1.000000
    106        -31.906497   1.000000
    107        -31.900825   1.000000
    108        -31.886118   1.000000
    109        -31.884042   1.000000
    110        -31.874817   1.000000
    111        -31.870054   1.000000
    112        -31.850721   1.000000
    113        -31.837985   1.000000
    114        -31.831581   1.000000
    115        -31.831013   1.000000
    116        -31.820075   1.000000
    117        -31.810242   1.000000
    118        -31.788600   1.000000
    119        -31.780842   1.000000
    120        -31.777203   1.000000
    121        -31.769149   1.000000
    122        -31.762404   1.000000
    123        -31.754166   1.000000
    124        -31.739273   1.000000
    125        -31.738051   1.000000
    126        -31.737219   1.000000
    127        -31.735658   1.000000
    128        -31.730592   1.000000
    129        -31.718779   1.000000
    130        -31.707439   1.000000
    131        -31.705419   1.000000
    132        -31.688706   1.000000
    133        -31.683662   1.000000
    134        -31.666331   1.000000
    135        -31.665624   1.000000
    136        -31.662147   1.000000
    137        -31.647326   1.000000
    138        -31.637441   1.000000
    139        -31.631025   1.000000
    140        -31.619404   1.000000
    141        -31.600245   1.000000
    142        -31.586156   1.000000
    143        -31.574847   1.000000
    144        -31.568852   1.000000
    145        -31.567953   1.000000
    146        -31.566431   1.000000
    147        -31.553253   1.000000
    148        -31.545787   1.000000
    149        -31.544063   1.000000
    150        -31.538279   1.000000
    151        -31.534576   1.000000
    152        -31.533922   1.000000
    153        -31.532388   1.000000
    154        -31.531808   1.000000
    155        -31.521438   1.000000
    156        -31.517425   1.000000
    157        -31.515137   1.000000
    158        -31.504833   1.000000
    159        -31.494717   1.000000
    160        -31.494704   1.000000
    161        -31.490183   1.000000
    162        -31.479639   1.000000
    163        -31.479351   1.000000
    164        -31.470222   1.000000
    165        -31.460323   1.000000
    166        -31.427123   1.000000
    167        -31.426314   1.000000
    168        -31.426013   1.000000
    169        -31.425638   1.000000
    170        -31.423899   1.000000
    171        -31.420154   1.000000
    172        -31.412100   1.000000
    173        -31.406481   1.000000
    174        -31.404206   1.000000
    175        -31.396415   1.000000
    176        -31.367704   1.000000
    177        -31.361306   1.000000
    178        -31.345846   1.000000
    179        -31.337760   1.000000
    180        -31.333967   1.000000
    181        -31.324634   1.000000
    182        -31.321563   1.000000
    183        -31.317365   1.000000
    184        -31.311979   1.000000
    185        -31.311515   1.000000
    186        -31.282780   1.000000
    187        -31.282364   1.000000
    188        -31.265994   1.000000
    189        -31.264439   1.000000
    190        -31.262506   1.000000
    191        -31.261619   1.000000
    192        -31.260377   1.000000
    193        -31.244041   1.000000
    194        -31.243207   1.000000
    195        -31.241766   1.000000
    196        -31.240067   1.000000
    197        -31.234843   1.000000
    198        -31.233509   1.000000
    199        -31.233167   1.000000
    200        -31.225037   1.000000
    201        -31.216435   1.000000
    202        -31.211396   1.000000
    203        -31.210540   1.000000
    204        -31.206875   1.000000
    205        -31.203751   1.000000
    206        -31.190295   1.000000
    207        -31.187432   1.000000
    208        -31.174899   1.000000
    209        -31.173092   1.000000
    210        -31.172211   1.000000
    211        -31.168661   1.000000
    212        -31.161346   1.000000
    213        -31.149824   1.000000
    214        -31.134577   1.000000
    215        -31.133663   1.000000
    216        -31.133074   1.000000
    217        -31.114934   1.000000
    218        -31.109053   1.000000
    219        -31.108954   1.000000
    220        -31.104365   1.000000
    221        -31.104184   1.000000
    222        -31.103216   1.000000
    223        -31.102323   1.000000
    224        -31.102186   1.000000
    225        -31.095904   1.000000
    226        -31.093571   1.000000
    227        -31.084866   1.000000
    228        -31.084359   1.000000
    229        -31.083373   1.000000
    230        -31.082901   1.000000
    231        -31.073073   1.000000
    232        -31.070957   1.000000
    233        -31.065788   1.000000
    234        -31.063436   1.000000
    235        -31.052997   1.000000
    236        -31.050284   1.000000
    237        -31.034810   1.000000
    238        -31.028697   1.000000
    239        -31.026237   1.000000
    240        -31.004472   1.000000
    241        -30.984978   1.000000
    242        -30.976114   1.000000
    243        -30.966256   1.000000
    244        -30.958203   1.000000
    245        -30.957402   1.000000
    246        -30.953546   1.000000
    247        -30.949888   1.000000
    248        -30.949042   1.000000
    249        -30.948121   1.000000
    250        -30.946548   1.000000
    251        -30.934268   1.000000
    252        -30.933801   1.000000
    253         -2.734107   1.000000
    254         -2.722411   1.000000
    255         -1.906238   1.000000
    256         -1.883511   1.000000
    257         -1.534778   1.000000
    258         -1.473161   1.000000
    259         -1.320192   1.000000
    260         -1.253229   1.000000
    261         -1.195789   1.000000
    262         -1.175461   1.000000
    263         -1.162260   1.000000
    264         -1.161678   1.000000
    265         -1.111660   1.000000
    266         -1.050958   1.000000
    267         -1.049184   1.000000
    268         -1.044098   1.000000
    269         -1.026650   1.000000
    270         -0.983813   1.000000
    271         -0.971705   1.000000
    272         -0.928062   1.000000
    273         -0.901625   1.000000
    274         -0.869518   1.000000
    275         -0.858440   1.000000
    276         -0.857176   1.000000
    277         -0.847629   1.000000
    278         -0.839642   1.000000
    279         -0.837622   1.000000
    280         -0.783972   1.000000
    281         -0.742161   1.000000
    282         -0.727319   1.000000
    283         -0.721265   1.000000
    284         -0.705665   1.000000
    285         -0.450637   1.000000
    286         -0.435868   1.000000
    287         -0.429209   1.000000
    288         -0.401610   1.000000
    289         -0.372202   1.000000
    290         -0.363017   1.000000
    291         -0.360906   1.000000
    292         -0.341011   1.000000
    293         -0.311369   1.000000
    294         -0.267123   1.000000
    295         -0.238157   1.000000
    296         -0.228430   1.000000
    297         -0.205015   1.000000
    298         -0.200431   1.000000
    299         -0.195802   1.000000
    300         -0.195205   1.000000
    301         -0.144754   1.000000
    302         -0.076543   1.000000
    303         -0.047704   1.000000
    304         -0.013152   1.000000
    305          0.018391   1.000000
    306          0.025029   1.000000
    307          0.051657   1.000000
    308          0.092426   1.000000
    309          0.108636   1.000000
    310          0.111583   1.000000
    311          0.136034   1.000000
    312          0.174128   1.000000
    313          0.220048   1.000000
    314          0.255938   1.000000
    315          0.319213   1.000000
    316          0.333057   1.000000
    317          0.370754   1.000000
    318          0.393086   1.000000
    319          0.409672   1.000000
    320          0.420020   1.000000
    321          0.421962   1.000000
    322          0.424467   1.000000
    323          0.428856   1.000000
    324          0.439723   1.000000
    325          0.442093   1.000000
    326          0.446517   1.000000
    327          0.510012   1.000000
    328          0.520822   1.000000
    329          0.550590   1.000000
    330          0.551199   1.000000
    331          0.558326   1.000000
    332          0.570583   1.000000
    333          0.579154   1.000000
    334          0.606253   1.000000
    335          0.613254   1.000000
    336          0.616026   1.000000
    337          0.634125   1.000000
    338          0.658448   1.000000
    339          0.680156   1.000000
    340          0.692695   1.000000
    341          0.701913   1.000000
    342          0.739271   1.000000
    343          0.746094   1.000000
    344          0.751804   1.000000
    345          0.780110   1.000000
    346          0.791146   1.000000
    347          0.797864   1.000000
    348          0.817014   1.000000
    349          0.848867   1.000000
    350          0.972375   1.000000
    351          0.994905   1.000000
    352          1.033436   1.000000
    353          1.044507   1.000000
    354          1.051795   1.000000
    355          1.099966   1.000000
    356          1.101660   1.000000
    357          1.133776   1.000000
    358          1.154871   1.000000
    359          1.180250   1.000000
    360          1.195419   1.000000
    361          1.227242   1.000000
    362          1.349746   1.000000
    363          1.373869   1.000000
    364          1.383973   1.000000
    365          1.384989   1.000000
    366          1.406654   1.000000
    367          1.446058   1.000000
    368          1.458606   1.000000
    369          1.469539   1.000000
    370          1.494103   1.000000
    371          1.501099   1.000000
    372          1.503960   1.000000
    373          1.545644   1.000000
    374          1.554222   1.000000
    375          1.555713   1.000000
    376          1.575606   1.000000
    377          1.609500   1.000000
    378          1.612963   1.000000
    379          1.630576   1.000000
    380          1.790302   1.000000
    381          1.816072   1.000000
    382          1.837358   1.000000
    383          1.882040   1.000000
    384          1.907687   1.000000
    385          1.912235   1.000000
    386          1.918376   1.000000
    387          1.942505   1.000000
    388          1.952426   1.000000
    389          1.961945   1.000000
    390          1.963243   1.000000
    391          1.975433   1.000000
    392          1.983566   1.000000
    393          1.996099   1.000000
    394          2.003015   1.000000
    395          2.047463   1.000000
    396          2.049203   1.000000
    397          2.069999   1.000000
    398          2.081771   1.000000
    399          2.082231   1.000000
    400          2.094775   1.000000
    401          2.143735   1.000000
    402          2.181434   1.000000
    403          2.223793   1.000000
    404          2.259735   1.000000
    405          2.266812   1.000000
    406          2.272354   1.000000
    407          2.282451   1.000000
    408          2.293548   1.000000
    409          2.431739   1.000000
    410          2.482702   1.000000
    411          2.540480   1.000000
    412          2.591074   1.000000
    413          2.595765   1.000000
    414          2.649302   1.000000
    415          2.669192   1.000000
    416          2.694328   1.000000
    417          2.698071   1.000000
    418          2.718245   1.000000
    419          2.756458   1.000000
    420          2.776394   1.000000
    421          2.788994   1.000000
    422          2.823012   1.000000
    423          2.855743   1.000000
    424          2.871517   1.000000
    425          2.884253   1.000000
    426          2.961576   1.000000
    427          3.022502   1.000000
    428          3.057768   1.000000
    429          3.089324   1.000000
    430          3.099653   1.000000
    431          3.101023   1.000000
    432          3.137380   0.999997
    433          3.163931   0.999983
    434          3.215877   0.999673
    435          3.242085   0.998808
    436          3.242136   0.998805
    437          3.265560   0.996592
    438          3.271177   0.995684
    439          3.342812   0.946654
    440          3.355888   0.923400
    441          3.405282   0.767237
    442          3.444340   0.570408
    443          3.447706   0.551643
    444          3.508080   0.234535
    445          3.531902   0.144368
    446          3.597542   0.023341
    447          3.622252   0.009677
    448          3.651974   0.002899
    449          3.716761   0.000119
    450          3.764246   0.000007
    451          3.834247   0.000000
    452          3.844721   0.000000
    453          3.846656   0.000000
    454          3.894024   0.000000
    455          3.908664   0.000000
    456          4.020547   0.000000
    457          4.068517   0.000000
    458          4.077769   0.000000
    459          4.099499   0.000000
    460          4.129413   0.000000
    461          4.140365   0.000000
    462          4.188808   0.000000
    463          4.202266   0.000000
    464          4.230201   0.000000
    465          4.230500   0.000000
    466          4.277878   0.000000
    467          4.291742   0.000000
    468          4.345394   0.000000
    469          4.364992   0.000000
    470          4.451081   0.000000
    471          4.500935   0.000000
    472          4.512609   0.000000
    473          4.540639   0.000000
    474          4.552821   0.000000
    475          4.556559   0.000000
    476          4.569513   0.000000
    477          4.577694   0.000000
    478          4.584090   0.000000
    479          4.590188   0.000000
    480          4.619556   0.000000
    481          4.627774   0.000000
    482          4.636042   0.000000
    483          4.645898   0.000000
    484          4.647542   0.000000
    485          4.669720   0.000000
    486          4.692051   0.000000
    487          4.724499   0.000000
    488          4.743606   0.000000
    489          4.800438   0.000000
    490          4.823624   0.000000
    491          4.832213   0.000000
    492          4.856714   0.000000
    493          4.880085   0.000000
    494          4.889647   0.000000
    495          4.906966   0.000000
    496          4.907571   0.000000
    497          4.920683   0.000000
    498          4.921573   0.000000
    499          4.932382   0.000000
    500          4.950957   0.000000
    501          4.955691   0.000000
    502          4.957195   0.000000
    503          4.967459   0.000000
    504          5.020145   0.000000
    505          5.025982   0.000000
    506          5.031111   0.000000
    507          5.053615   0.000000
    508          5.082366   0.000000
    509          5.118547   0.000000
    510          5.149039   0.000000
    511          5.154230   0.000000
    512          5.154609   0.000000
    513          5.187491   0.000000
    514          5.250533   0.000000
    515          5.256510   0.000000
    516          5.284786   0.000000
    517          5.296380   0.000000
    518          5.315337   0.000000
    519          5.325827   0.000000
    520          5.360366   0.000000
    521          5.368722   0.000000
    522          5.388236   0.000000
    523          5.392449   0.000000
    524          5.394424   0.000000
    525          5.395962   0.000000
    526          5.435320   0.000000
    527          5.449109   0.000000
    528          5.522009   0.000000
    529          5.561507   0.000000
 
  0.2500000E+00  0.2500000E+00  0.0000000E+00  0.2500000E+00
      1        -57.731445   1.000000
      2        -57.680673   1.000000
      3        -57.680162   1.000000
      4        -57.668162   1.000000
      5        -57.642391   1.000000
      6        -57.632455   1.000000
      7        -57.629331   1.000000
      8        -57.611055   1.000000
      9        -57.608172   1.000000
     10        -57.604663   1.000000
     11        -57.596600   1.000000
     12        -57.592638   1.000000
     13        -57.586071   1.000000
     14        -57.583672   1.000000
     15        -57.578911   1.000000
     16        -57.573654   1.000000
     17        -57.570781   1.000000
     18        -57.560079   1.000000
     19        -57.519082   1.000000
     20        -57.494337   1.000000
     21        -57.493712   1.000000
     22        -57.476048   1.000000
     23        -57.474484   1.000000
     24        -57.473800   1.000000
     25        -57.473539   1.000000
     26        -57.471548   1.000000
     27        -57.470589   1.000000
     28        -57.466613   1.000000
     29        -57.466577   1.000000
     30        -57.465513   1.000000
     31        -57.461907   1.000000
     32        -57.461825   1.000000
     33        -57.460098   1.000000
     34        -57.455967   1.000000
     35        -57.449728   1.000000
     36        -57.446183   1.000000
     37        -57.446123   1.000000
     38        -57.443545   1.000000
     39        -57.439638   1.000000
     40        -57.436774   1.000000
     41        -57.423166   1.000000
     42        -57.414518   1.000000
     43        -57.399046   1.000000
     44        -57.393578   1.000000
     45        -57.368169   1.000000
     46        -57.273755   1.000000
     47        -57.273308   1.000000
     48        -57.267831   1.000000
     49        -57.266133   1.000000
     50        -57.263783   1.000000
     51        -57.259757   1.000000
     52        -57.259595   1.000000
     53        -57.259245   1.000000
     54        -57.248473   1.000000
     55        -57.240111   1.000000
     56        -57.240049   1.000000
     57        -57.230429   1.000000
     58        -57.216267   1.000000
     59        -57.205834   1.000000
     60        -57.195508   1.000000
     61        -57.191470   1.000000
     62        -57.191345   1.000000
     63        -57.165372   1.000000
     64        -32.349707   1.000000
     65        -32.334689   1.000000
     66        -32.332502   1.000000
     67        -32.304095   1.000000
     68        -32.276129   1.000000
     69        -32.272530   1.000000
     70        -32.228476   1.000000
     71        -32.226916   1.000000
     72        -32.215418   1.000000
     73        -32.192986   1.000000
     74        -32.185345   1.000000
     75        -32.182941   1.000000
     76        -32.169302   1.000000
     77        -32.168206   1.000000
     78        -32.162955   1.000000
     79        -32.158496   1.000000
     80        -32.154245   1.000000
     81        -32.149781   1.000000
     82        -32.148004   1.000000
     83        -32.132382   1.000000
     84        -32.130381   1.000000
     85        -32.121803   1.000000
     86        -32.117906   1.000000
     87        -32.112864   1.000000
     88        -32.102853   1.000000
     89        -32.095130   1.000000
     90        -32.087427   1.000000
     91        -32.072887   1.000000
     92        -32.072584   1.000000
     93        -32.055381   1.000000
     94        -32.053152   1.000000
     95        -32.028540   1.000000
     96        -32.018760   1.000000
     97        -32.003877   1.000000
     98        -32.003814   1.000000
     99        -31.995081   1.000000
    100        -31.983193   1.000000
    101        -31.981800   1.000000
    102        -31.974370   1.000000
    103        -31.956207   1.000000
    104        -31.952536   1.000000
    105        -31.925077   1.000000
    106        -31.918949   1.000000
    107        -31.910126   1.000000
    108        -31.896268   1.000000
    109        -31.888475   1.000000
    110        -31.879414   1.000000
    111        -31.871131   1.000000
    112        -31.862590   1.000000
    113        -31.841729   1.000000
    114        -31.837007   1.000000
    115        -31.834870   1.000000
    116        -31.830883   1.000000
    117        -31.806741   1.000000
    118        -31.801274   1.000000
    119        -31.799579   1.000000
    120        -31.789463   1.000000
    121        -31.770794   1.000000
    122        -31.755046   1.000000
    123        -31.749440   1.000000
    124        -31.736608   1.000000
    125        -31.730875   1.000000
    126        -31.729319   1.000000
    127        -31.711235   1.000000
    128        -31.705216   1.000000
    129        -31.702187   1.000000
    130        -31.696086   1.000000
    131        -31.695888   1.000000
    132        -31.694338   1.000000
    133        -31.688887   1.000000
    134        -31.677663   1.000000
    135        -31.669812   1.000000
    136        -31.650087   1.000000
    137        -31.640021   1.000000
    138        -31.632482   1.000000
    139        -31.627960   1.000000
    140        -31.624292   1.000000
    141        -31.611307   1.000000
    142        -31.592363   1.000000
    143        -31.591136   1.000000
    144        -31.586016   1.000000
    145        -31.582719   1.000000
    146        -31.573132   1.000000
    147        -31.569698   1.000000
    148        -31.565441   1.000000
    149        -31.549975   1.000000
    150        -31.547932   1.000000
    151        -31.536612   1.000000
    152        -31.536534   1.000000
    153        -31.515505   1.000000
    154        -31.515429   1.000000
    155        -31.509803   1.000000
    156        -31.502683   1.000000
    157        -31.494905   1.000000
    158        -31.487632   1.000000
    159        -31.477675   1.000000
    160        -31.473100   1.000000
    161        -31.469687   1.000000
    162        -31.467747   1.000000
    163        -31.466667   1.000000
    164        -31.446145   1.000000
    165        -31.445548   1.000000
    166        -31.443354   1.000000
    167        -31.438585   1.000000
    168        -31.433455   1.000000
    169        -31.432033   1.000000
    170        -31.421470   1.000000
    171        -31.421265   1.000000
    172        -31.416786   1.000000
    173        -31.408152   1.000000
    174        -31.393267   1.000000
    175        -31.393134   1.000000
    176        -31.371341   1.000000
    177        -31.370205   1.000000
    178        -31.367076   1.000000
    179        -31.364006   1.000000
    180        -31.363434   1.000000
    181        -31.328375   1.000000
    182        -31.314135   1.000000
    183        -31.298700   1.000000
    184        -31.297921   1.000000
    185        -31.296649   1.000000
    186        -31.282880   1.000000
    187        -31.273383   1.000000
    188        -31.268594   1.000000
    189        -31.267591   1.000000
    190        -31.264044   1.000000
    191        -31.255519   1.000000
    192        -31.250444   1.000000
    193        -31.245460   1.000000
    194        -31.244462   1.000000
    195        -31.243172   1.000000
    196        -31.233148   1.000000
    197        -31.232756   1.000000
    198        -31.230996   1.000000
    199        -31.227514   1.000000
    200        -31.224061   1.000000
    201        -31.222030   1.000000
    202        -31.221713   1.000000
    203        -31.211772   1.000000
    204        -31.206998   1.000000
    205        -31.206595   1.000000
    206        -31.201296   1.000000
    207        -31.198813   1.000000
    208        -31.186111   1.000000
    209        -31.180490   1.000000
    210        -31.173009   1.000000
    211        -31.171061   1.000000
    212        -31.150367   1.000000
    213        -31.145594   1.000000
    214        -31.143095   1.000000
    215        -31.141908   1.000000
    216        -31.133151   1.000000
    217        -31.131904   1.000000
    218        -31.121173   1.000000
    219        -31.120475   1.000000
    220        -31.109920   1.000000
    221        -31.103667   1.000000
    222        -31.102284   1.000000
    223        -31.097760   1.000000
    224        -31.097615   1.000000
    225        -31.096407   1.000000
    226        -31.094334   1.000000
    227        -31.083568   1.000000
    228        -31.082998   1.000000
    229        -31.076823   1.000000
    230        -31.076092   1.000000
    231        -31.070892   1.000000
    232        -31.064120   1.000000
    233        -31.063483   1.000000
    234        -31.058612   1.000000
    235        -31.048246   1.000000
    236        -31.042730   1.000000
    237        -31.033010   1.000000
    238        -31.026884   1.000000
    239        -31.016157   1.000000
    240        -31.015028   1.000000
    241        -31.003193   1.000000
    242        -30.978406   1.000000
    243        -30.977159   1.000000
    244        -30.962880   1.000000
    245        -30.958192   1.000000
    246        -30.954174   1.000000
    247        -30.949103   1.000000
    248        -30.945349   1.000000
    249        -30.944402   1.000000
    250        -30.941200   1.000000
    251        -30.929586   1.000000
    252        -30.919762   1.000000
    253         -2.997114   1.000000
    254         -2.079639   1.000000
    255         -2.013050   1.000000
    256         -2.005272   1.000000
    257         -1.448004   1.000000
    258         -1.417516   1.000000
    259         -1.395593   1.000000
    260         -1.358728   1.000000
    261         -1.335145   1.000000
    262         -1.315161   1.000000
    263         -1.304843   1.000000
    264         -1.278265   1.000000
    265         -1.270590   1.000000
    266         -1.237762   1.000000
    267         -1.137323   1.000000
    268         -0.995615   1.000000
    269         -0.935469   1.000000
    270         -0.911312   1.000000
    271         -0.888994   1.000000
    272         -0.872445   1.000000
    273         -0.870564   1.000000
    274         -0.864815   1.000000
    275         -0.847090   1.000000
    276         -0.811932   1.000000
    277         -0.793647   1.000000
    278         -0.775337   1.000000
    279         -0.771920   1.000000
    280         -0.688964   1.000000
    281         -0.671316   1.000000
    282         -0.588458   1.000000
    283         -0.547384   1.000000
    284         -0.515397   1.000000
    285         -0.515322   1.000000
    286         -0.487948   1.000000
    287         -0.470558   1.000000
    288         -0.437061   1.000000
    289         -0.405764   1.000000
    290         -0.397973   1.000000
    291         -0.389803   1.000000
    292         -0.357750   1.000000
    293         -0.344015   1.000000
    294         -0.296664   1.000000
    295         -0.291736   1.000000
    296         -0.271619   1.000000
    297         -0.268580   1.000000
    298         -0.223269   1.000000
    299         -0.220249   1.000000
    300         -0.136951   1.000000
    301         -0.133239   1.000000
    302         -0.016008   1.000000
    303          0.006498   1.000000
    304          0.007043   1.000000
    305          0.020322   1.000000
    306          0.040982   1.000000
    307          0.107604   1.000000
    308          0.136060   1.000000
    309          0.152092   1.000000
    310          0.180728   1.000000
    311          0.181819   1.000000
    312          0.196118   1.000000
    313          0.236199   1.000000
    314          0.275126   1.000000
    315          0.276866   1.000000
    316          0.294968   1.000000
    317          0.306302   1.000000
    318          0.324505   1.000000
    319          0.357496   1.000000
    320          0.362537   1.000000
    321          0.373564   1.000000
    322          0.413643   1.000000
    323          0.425430   1.000000
    324          0.437819   1.000000
    325          0.446954   1.000000
    326          0.448122   1.000000
    327          0.486751   1.000000
    328          0.491678   1.000000
    329          0.493699   1.000000
    330          0.515508   1.000000
    331          0.539069   1.000000
    332          0.546570   1.000000
    333          0.568050   1.000000
    334          0.574743   1.000000
    335          0.580005   1.000000
    336          0.596022   1.000000
    337          0.616583   1.000000
    338          0.631420   1.000000
    339          0.639619   1.000000
    340          0.698543   1.000000
    341          0.720358   1.000000
    342          0.781615   1.000000
    343          0.827528   1.000000
    344          0.844808   1.000000
    345          0.851380   1.000000
    346          0.883814   1.000000
    347          0.922423   1.000000
    348          0.928420   1.000000
    349          0.943258   1.000000
    350          0.946403   1.000000
    351          0.954942   1.000000
    352          0.980227   1.000000
    353          1.003736   1.000000
    354          1.030233   1.000000
    355          1.053248   1.000000
    356          1.081886   1.000000
    357          1.139417   1.000000
    358          1.168344   1.000000
    359          1.179244   1.000000
    360          1.236764   1.000000
    361          1.294909   1.000000
    362          1.302535   1.000000
    363          1.323493   1.000000
    364          1.330148   1.000000
    365          1.367716   1.000000
    366          1.377748   1.000000
    367          1.397033   1.000000
    368          1.425838   1.000000
    369          1.437632   1.000000
    370          1.463465   1.000000
    371          1.485362   1.000000
    372          1.494389   1.000000
    373          1.531932   1.000000
    374          1.560179   1.000000
    375          1.560217   1.000000
    376          1.604474   1.000000
    377          1.653166   1.000000
    378          1.678390   1.000000
    379          1.680902   1.000000
    380          1.734536   1.000000
    381          1.753719   1.000000
    382          1.771170   1.000000
    383          1.781049   1.000000
    384          1.799576   1.000000
    385          1.841709   1.000000
    386          1.851264   1.000000
    387          1.890856   1.000000
    388          1.922686   1.000000
    389          1.938050   1.000000
    390          1.944539   1.000000
    391          1.952703   1.000000
    392          1.976115   1.000000
    393          1.987914   1.000000
    394          2.007489   1.000000
    395          2.031955   1.000000
    396          2.048195   1.000000
    397          2.054636   1.000000
    398          2.070011   1.000000
    399          2.076388   1.000000
    400          2.103316   1.000000
    401          2.117863   1.000000
    402          2.176110   1.000000
    403          2.209102   1.000000
    404          2.274613   1.000000
    405          2.294227   1.000000
    406          2.311428   1.000000
    407          2.344651   1.000000
    408          2.372685   1.000000
    409          2.441045   1.000000
    410          2.455396   1.000000
    411          2.474102   1.000000
    412          2.532417   1.000000
    413          2.646971   1.000000
    414          2.727145   1.000000
    415          2.729657   1.000000
    416          2.751419   1.000000
    417          2.836386   1.000000
    418          2.842639   1.000000
    419          2.856143   1.000000
    420          2.857772   1.000000
    421          2.864102   1.000000
    422          2.870137   1.000000
    423          2.903940   1.000000
    424          2.904749   1.000000
    425          2.952683   1.000000
    426          2.974356   1.000000
    427          2.998471   1.000000
    428          3.030879   1.000000
    429          3.034843   1.000000
    430          3.097162   1.000000
    431          3.149843   0.999993
    432          3.155087   0.999990
    433          3.203653   0.999829
    434          3.210175   0.999758
    435          3.251033   0.998200
    436          3.253681   0.997972
    437          3.289987   0.990870
    438          3.300181   0.986659
    439          3.363199   0.907403
    440          3.377801   0.868307
    441          3.415795   0.719418
    442          3.441120   0.588214
    443          3.497794   0.281453
    444          3.540930   0.117304
    445          3.570236   0.054465
    446          3.590324   0.029573
    447          3.655393   0.002498
    448          3.771353   0.000004
    449          3.781722   0.000002
    450          3.817648   0.000000
    451          3.825449   0.000000
    452          3.878382   0.000000
    453          3.930980   0.000000
    454          3.931896   0.000000
    455          3.934755   0.000000
    456          3.971126   0.000000
    457          3.977464   0.000000
    458          3.980769   0.000000
    459          4.034970   0.000000
    460          4.071025   0.000000
    461          4.074319   0.000000
    462          4.143135   0.000000
    463          4.164805   0.000000
    464          4.182838   0.000000
    465          4.232874   0.000000
    466          4.246601   0.000000
    467          4.269971   0.000000
    468          4.320033   0.000000
    469          4.395032   0.000000
    470          4.408521   0.000000
    471          4.424417   0.000000
    472          4.433309   0.000000
    473          4.463496   0.000000
    474          4.488977   0.000000
    475          4.494599   0.000000
    476          4.512172   0.000000
    477          4.533714   0.000000
    478          4.535654   0.000000
    479          4.562007   0.000000
    480          4.588981   0.000000
    481          4.599413   0.000000
    482          4.619281   0.000000
    483          4.623852   0.000000
    484          4.685868   0.000000
    485          4.727912   0.000000
    486          4.734017   0.000000
    487          4.749215   0.000000
    488          4.757665   0.000000
    489          4.771026   0.000000
    490          4.785063   0.000000
    491          4.814460   0.000000
    492          4.815976   0.000000
    493          4.826033   0.000000
    494          4.877233   0.000000
    495          4.888153   0.000000
    496          4.916100   0.000000
    497          4.930755   0.000000
    498          4.937320   0.000000
    499          4.944764   0.000000
    500          4.978984   0.000000
    501          5.007200   0.000000
    502          5.026527   0.000000
    503          5.052326   0.000000
    504          5.056607   0.000000
    505          5.057798   0.000000
    506          5.059158   0.000000
    507          5.087674   0.000000
    508          5.121552   0.000000
    509          5.129173   0.000000
    510          5.136057   0.000000
    511          5.157659   0.000000
    512          5.166324   0.000000
    513          5.207463   0.000000
    514          5.256120   0.000000
    515          5.262697   0.000000
    516          5.266916   0.000000
    517          5.292048   0.000000
    518          5.310504   0.000000
    519          5.320556   0.000000
    520          5.330979   0.000000
    521          5.355587   0.000000
    522          5.358707   0.000000
    523          5.360929   0.000000
    524          5.384938   0.000000
    525          5.420445   0.000000
    526          5.435188   0.000000
    527          5.468483   0.000000
    528          5.493717   0.000000
    529          5.515426   0.000000
 
  0.5000000E+00  0.2500000E+00  0.0000000E+00  0.2500000E+00
      1        -57.712705   1.000000
      2        -57.709460   1.000000
      3        -57.667141   1.000000
      4        -57.663819   1.000000
      5        -57.656321   1.000000
      6        -57.648666   1.000000
      7        -57.622645   1.000000
      8        -57.617006   1.000000
      9        -57.604418   1.000000
     10        -57.602996   1.000000
     11        -57.594655   1.000000
     12        -57.585834   1.000000
     13        -57.581374   1.000000
     14        -57.579389   1.000000
     15        -57.577086   1.000000
     16        -57.573455   1.000000
     17        -57.566458   1.000000
     18        -57.558116   1.000000
     19        -57.510190   1.000000
     20        -57.507417   1.000000
     21        -57.486665   1.000000
     22        -57.486106   1.000000
     23        -57.476314   1.000000
     24        -57.472942   1.000000
     25        -57.472276   1.000000
     26        -57.470820   1.000000
     27        -57.470487   1.000000
     28        -57.468554   1.000000
     29        -57.468480   1.000000
     30        -57.467772   1.000000
     31        -57.462741   1.000000
     32        -57.460616   1.000000
     33        -57.459269   1.000000
     34        -57.456590   1.000000
     35        -57.452709   1.000000
     36        -57.449339   1.000000
     37        -57.445857   1.000000
     38        -57.444147   1.000000
     39        -57.438992   1.000000
     40        -57.438525   1.000000
     41        -57.422286   1.000000
     42        -57.408151   1.000000
     43        -57.399597   1.000000
     44        -57.383980   1.000000
     45        -57.373978   1.000000
     46        -57.275529   1.000000
     47        -57.271823   1.000000
     48        -57.269706   1.000000
     49        -57.267179   1.000000
     50        -57.262775   1.000000
     51        -57.259995   1.000000
     52        -57.258445   1.000000
     53        -57.254324   1.000000
     54        -57.252216   1.000000
     55        -57.242129   1.000000
     56        -57.239976   1.000000
     57        -57.229150   1.000000
     58        -57.219130   1.000000
     59        -57.206260   1.000000
     60        -57.195513   1.000000
     61        -57.191184   1.000000
     62        -57.185509   1.000000
     63        -57.168097   1.000000
     64        -32.358688   1.000000
     65        -32.346321   1.000000
     66        -32.332867   1.000000
     67        -32.311675   1.000000
     68        -32.273831   1.000000
     69        -32.258532   1.000000
     70        -32.256196   1.000000
     71        -32.236947   1.000000
     72        -32.216457   1.000000
     73        -32.202184   1.000000
     74        -32.192470   1.000000
     75        -32.181365   1.000000
     76        -32.178849   1.000000
     77        -32.168831   1.000000
     78        -32.157087   1.000000
     79        -32.153649   1.000000
     80        -32.144440   1.000000
     81        -32.140797   1.000000
     82        -32.130207   1.000000
     83        -32.123987   1.000000
     84        -32.119911   1.000000
     85        -32.111397   1.000000
     86        -32.107003   1.000000
     87        -32.106860   1.000000
     88        -32.102936   1.000000
     89        -32.094746   1.000000
     90        -32.091258   1.000000
     91        -32.080679   1.000000
     92        -32.072268   1.000000
     93        -32.068719   1.000000
     94        -32.067504   1.000000
     95        -32.021359   1.000000
     96        -32.004449   1.000000
     97        -31.991076   1.000000
     98        -31.990810   1.000000
     99        -31.986686   1.000000
    100        -31.981632   1.000000
    101        -31.977884   1.000000
    102        -31.966470   1.000000
    103        -31.944414   1.000000
    104        -31.941511   1.000000
    105        -31.920743   1.000000
    106        -31.917619   1.000000
    107        -31.910179   1.000000
    108        -31.909058   1.000000
    109        -31.897508   1.000000
    110        -31.892787   1.000000
    111        -31.887295   1.000000
    112        -31.878803   1.000000
    113        -31.877221   1.000000
    114        -31.855966   1.000000
    115        -31.836237   1.000000
    116        -31.830125   1.000000
    117        -31.827266   1.000000
    118        -31.819362   1.000000
    119        -31.782151   1.000000
    120        -31.780438   1.000000
    121        -31.765804   1.000000
    122        -31.750623   1.000000
    123        -31.750390   1.000000
    124        -31.717001   1.000000
    125        -31.715459   1.000000
    126        -31.713607   1.000000
    127        -31.710070   1.000000
    128        -31.703794   1.000000
    129        -31.699352   1.000000
    130        -31.684714   1.000000
    131        -31.684519   1.000000
    132        -31.676345   1.000000
    133        -31.675223   1.000000
    134        -31.667893   1.000000
    135        -31.667285   1.000000
    136        -31.665258   1.000000
    137        -31.660618   1.000000
    138        -31.621461   1.000000
    139        -31.617187   1.000000
    140        -31.607397   1.000000
    141        -31.599460   1.000000
    142        -31.595770   1.000000
    143        -31.594413   1.000000
    144        -31.576502   1.000000
    145        -31.560592   1.000000
    146        -31.555874   1.000000
    147        -31.554113   1.000000
    148        -31.550248   1.000000
    149        -31.547249   1.000000
    150        -31.546742   1.000000
    151        -31.538719   1.000000
    152        -31.531588   1.000000
    153        -31.522241   1.000000
    154        -31.516828   1.000000
    155        -31.511681   1.000000
    156        -31.508475   1.000000
    157        -31.506829   1.000000
    158        -31.502926   1.000000
    159        -31.501074   1.000000
    160        -31.496404   1.000000
    161        -31.488556   1.000000
    162        -31.486069   1.000000
    163        -31.481787   1.000000
    164        -31.475251   1.000000
    165        -31.462688   1.000000
    166        -31.455581   1.000000
    167        -31.445108   1.000000
    168        -31.444862   1.000000
    169        -31.438234   1.000000
    170        -31.431549   1.000000
    171        -31.429041   1.000000
    172        -31.425550   1.000000
    173        -31.415349   1.000000
    174        -31.396076   1.000000
    175        -31.387502   1.000000
    176        -31.384910   1.000000
    177        -31.370225   1.000000
    178        -31.364298   1.000000
    179        -31.328563   1.000000
    180        -31.314179   1.000000
    181        -31.312549   1.000000
    182        -31.304556   1.000000
    183        -31.303883   1.000000
    184        -31.302864   1.000000
    185        -31.302596   1.000000
    186        -31.299973   1.000000
    187        -31.286756   1.000000
    188        -31.283958   1.000000
    189        -31.276077   1.000000
    190        -31.269283   1.000000
    191        -31.257437   1.000000
    192        -31.254308   1.000000
    193        -31.243403   1.000000
    194        -31.232617   1.000000
    195        -31.231939   1.000000
    196        -31.230499   1.000000
    197        -31.222373   1.000000
    198        -31.219862   1.000000
    199        -31.217578   1.000000
    200        -31.211529   1.000000
    201        -31.210382   1.000000
    202        -31.206607   1.000000
    203        -31.206596   1.000000
    204        -31.203039   1.000000
    205        -31.198026   1.000000
    206        -31.194966   1.000000
    207        -31.192224   1.000000
    208        -31.189018   1.000000
    209        -31.185427   1.000000
    210        -31.181628   1.000000
    211        -31.165844   1.000000
    212        -31.165352   1.000000
    213        -31.159328   1.000000
    214        -31.153922   1.000000
    215        -31.153455   1.000000
    216        -31.136074   1.000000
    217        -31.118967   1.000000
    218        -31.115735   1.000000
    219        -31.115710   1.000000
    220        -31.114436   1.000000
    221        -31.111337   1.000000
    222        -31.109737   1.000000
    223        -31.105767   1.000000
    224        -31.102083   1.000000
    225        -31.098142   1.000000
    226        -31.097269   1.000000
    227        -31.085311   1.000000
    228        -31.083688   1.000000
    229        -31.077124   1.000000
    230        -31.069177   1.000000
    231        -31.068941   1.000000
    232        -31.061631   1.000000
    233        -31.060995   1.000000
    234        -31.054534   1.000000
    235        -31.053801   1.000000
    236        -31.042689   1.000000
    237        -31.034888   1.000000
    238        -31.026779   1.000000
    239        -31.018633   1.000000
    240        -31.003774   1.000000
    241        -30.989066   1.000000
    242        -30.973329   1.000000
    243        -30.973057   1.000000
    244        -30.967406   1.000000
    245        -30.964238   1.000000
    246        -30.962033   1.000000
    247        -30.950395   1.000000
    248        -30.950093   1.000000
    249        -30.944653   1.000000
    250        -30.933914   1.000000
    251        -30.929736   1.000000
    252        -30.922249   1.000000
    253         -2.603243   1.000000
    254         -2.591773   1.000000
    255         -1.780235   1.000000
    256         -1.757376   1.000000
    257         -1.715268   1.000000
    258         -1.707104   1.000000
    259         -1.395135   1.000000
    260         -1.332862   1.000000
    261         -1.276186   1.000000
    262         -1.259314   1.000000
    263         -1.182998   1.000000
    264         -1.120065   1.000000
    265         -1.064767   1.000000
    266         -1.025927   1.000000
    267         -1.022494   1.000000
    268         -0.976793   1.000000
    269         -0.933211   1.000000
    270         -0.916126   1.000000
    271         -0.896789   1.000000
    272         -0.879786   1.000000
    273         -0.853063   1.000000
    274         -0.806610   1.000000
    275         -0.796105   1.000000
    276         -0.745159   1.000000
    277         -0.734443   1.000000
    278         -0.723040   1.000000
    279         -0.715144   1.000000
    280         -0.706760   1.000000
    281         -0.669304   1.000000
    282         -0.661905   1.000000
    283         -0.601406   1.000000
    284         -0.574586   1.000000
    285         -0.495841   1.000000
    286         -0.487840   1.000000
    287         -0.482875   1.000000
    288         -0.477631   1.000000
    289         -0.466173   1.000000
    290         -0.440863   1.000000
    291         -0.395581   1.000000
    292         -0.346352   1.000000
    293         -0.316704   1.000000
    294         -0.288511   1.000000
    295         -0.271909   1.000000
    296         -0.265378   1.000000
    297         -0.244740   1.000000
    298         -0.211980   1.000000
    299         -0.207921   1.000000
    300         -0.186077   1.000000
    301         -0.160365   1.000000
    302         -0.122362   1.000000
    303         -0.109720   1.000000
    304         -0.045834   1.000000
    305         -0.033618   1.000000
    306          0.028287   1.000000
    307          0.038754   1.000000
    308          0.051831   1.000000
    309          0.072408   1.000000
    310          0.092545   1.000000
    311          0.119538   1.000000
    312          0.161141   1.000000
    313          0.232543   1.000000
    314          0.255276   1.000000
    315          0.277040   1.000000
    316          0.304760   1.000000
    317          0.308572   1.000000
    318          0.311756   1.000000
    319          0.318468   1.000000
    320          0.334207   1.000000
    321          0.357817   1.000000
    322          0.370551   1.000000
    323          0.378866   1.000000
    324          0.407397   1.000000
    325          0.432004   1.000000
    326          0.432262   1.000000
    327          0.439550   1.000000
    328          0.465838   1.000000
    329          0.476253   1.000000
    330          0.485523   1.000000
    331          0.495460   1.000000
    332          0.519419   1.000000
    333          0.548686   1.000000
    334          0.564311   1.000000
    335          0.605557   1.000000
    336          0.637292   1.000000
    337          0.655553   1.000000
    338          0.667007   1.000000
    339          0.669929   1.000000
    340          0.693361   1.000000
    341          0.694602   1.000000
    342          0.731690   1.000000
    343          0.778633   1.000000
    344          0.813737   1.000000
    345          0.816919   1.000000
    346          0.836233   1.000000
    347          0.855729   1.000000
    348          0.882269   1.000000
    349          0.902042   1.000000
    350          0.921064   1.000000
    351          0.930828   1.000000
    352          1.005045   1.000000
    353          1.006031   1.000000
    354          1.037132   1.000000
    355          1.063235   1.000000
    356          1.092268   1.000000
    357          1.136898   1.000000
    358          1.148690   1.000000
    359          1.168265   1.000000
    360          1.168479   1.000000
    361          1.183290   1.000000
    362          1.246341   1.000000
    363          1.270781   1.000000
    364          1.281883   1.000000
    365          1.338882   1.000000
    366          1.356998   1.000000
    367          1.411660   1.000000
    368          1.438212   1.000000
    369          1.463855   1.000000
    370          1.473781   1.000000
    371          1.482240   1.000000
    372          1.501797   1.000000
    373          1.501944   1.000000
    374          1.509856   1.000000
    375          1.514507   1.000000
    376          1.530906   1.000000
    377          1.558637   1.000000
    378          1.597996   1.000000
    379          1.629712   1.000000
    380          1.643440   1.000000
    381          1.655647   1.000000
    382          1.707052   1.000000
    383          1.708990   1.000000
    384          1.752185   1.000000
    385          1.759325   1.000000
    386          1.819124   1.000000
    387          1.823251   1.000000
    388          1.849566   1.000000
    389          1.852515   1.000000
    390          1.875894   1.000000
    391          1.897327   1.000000
    392          1.900948   1.000000
    393          1.910110   1.000000
    394          1.916478   1.000000
    395          1.940509   1.000000
    396          1.951647   1.000000
    397          2.003545   1.000000
    398          2.070001   1.000000
    399          2.082894   1.000000
    400          2.112882   1.000000
    401          2.182812   1.000000
    402          2.206373   1.000000
    403          2.286704   1.000000
    404          2.337990   1.000000
    405          2.358314   1.000000
    406          2.360604   1.000000
    407          2.446617   1.000000
    408          2.483008   1.000000
    409          2.508662   1.000000
    410          2.513268   1.000000
    411          2.541264   1.000000
    412          2.621456   1.000000
    413          2.698333   1.000000
    414          2.731344   1.000000
    415          2.792027   1.000000
    416          2.822532   1.000000
    417          2.880828   1.000000
    418          2.894340   1.000000
    419          2.899930   1.000000
    420          2.923430   1.000000
    421          2.962533   1.000000
    422          2.962710   1.000000
    423          3.026937   1.000000
    424          3.035165   1.000000
    425          3.044766   1.000000
    426          3.051277   1.000000
    427          3.061772   1.000000
    428          3.081966   1.000000
    429          3.113031   0.999999
    430          3.174643   0.999967
    431          3.178469   0.999959
    432          3.194492   0.999897
    433          3.225766   0.999459
    434          3.259059   0.997427
    435          3.260772   0.997227
    436          3.286319   0.992071
    437          3.300781   0.986366
    438          3.368746   0.893706
    439          3.371134   0.887380
    440          3.393009   0.816829
    441          3.440364   0.592373
    442          3.473453   0.407377
    443          3.488948   0.325119
    444          3.524959   0.167849
    445          3.583025   0.037221
    446          3.604034   0.018717
    447          3.617052   0.011754
    448          3.619881   0.010581
    449          3.637082   0.005412
    450          3.659707   0.002063
    451          3.694765   0.000384
    452          3.845670   0.000000
    453          3.918819   0.000000
    454          3.963300   0.000000
    455          3.971896   0.000000
    456          3.994785   0.000000
    457          4.064185   0.000000
    458          4.085418   0.000000
    459          4.121104   0.000000
    460          4.134208   0.000000
    461          4.140026   0.000000
    462          4.168595   0.000000
    463          4.191399   0.000000
    464          4.202883   0.000000
    465          4.240431   0.000000
    466          4.285507   0.000000
    467          4.329869   0.000000
    468          4.370404   0.000000
    469          4.393884   0.000000
    470          4.407440   0.000000
    471          4.500627   0.000000
    472          4.538253   0.000000
    473          4.546121   0.000000
    474          4.587213   0.000000
    475          4.613756   0.000000
    476          4.625660   0.000000
    477          4.640353   0.000000
    478          4.650860   0.000000
    479          4.660208   0.000000
    480          4.676818   0.000000
    481          4.684021   0.000000
    482          4.692372   0.000000
    483          4.712078   0.000000
    484          4.722961   0.000000
    485          4.724669   0.000000
    486          4.735984   0.000000
    487          4.768245   0.000000
    488          4.783930   0.000000
    489          4.800621   0.000000
    490          4.803256   0.000000
    491          4.826027   0.000000
    492          4.849217   0.000000
    493          4.857302   0.000000
    494          4.872486   0.000000
    495          4.896605   0.000000
    496          4.931673   0.000000
    497          4.970166   0.000000
    498          4.975538   0.000000
    499          5.007480   0.000000
    500          5.040775   0.000000
    501          5.047453   0.000000
    502          5.053907   0.000000
    503          5.060929   0.000000
    504          5.062589   0.000000
    505          5.083666   0.000000
    506          5.097779   0.000000
    507          5.116236   0.000000
    508          5.118779   0.000000
    509          5.135186   0.000000
    510          5.139878   0.000000
    511          5.151496   0.000000
    512          5.206185   0.000000
    513          5.213777   0.000000
    514          5.221165   0.000000
    515          5.233397   0.000000
    516          5.247664   0.000000
    517          5.258776   0.000000
    518          5.281853   0.000000
    519          5.313516   0.000000
    520          5.330098   0.000000
    521          5.339292   0.000000
    522          5.341629   0.000000
    523          5.383549   0.000000
    524          5.401791   0.000000
    525          5.411615   0.000000
    526          5.419581   0.000000
    527          5.459264   0.000000
    528          5.470908   0.000000
    529          5.486940   0.000000
 
  0.5000000E+00  0.5000000E+00  0.0000000E+00  0.6250000E-01
      1        -57.695929   1.000000
      2        -57.692486   1.000000
      3        -57.692486   1.000000
      4        -57.689988   1.000000
      5        -57.648004   1.000000
      6        -57.637437   1.000000
      7        -57.637437   1.000000
      8        -57.633824   1.000000
      9        -57.593182   1.000000
     10        -57.592824   1.000000
     11        -57.592824   1.000000
     12        -57.586497   1.000000
     13        -57.575950   1.000000
     14        -57.575411   1.000000
     15        -57.570910   1.000000
     16        -57.570910   1.000000
     17        -57.568886   1.000000
     18        -57.556800   1.000000
     19        -57.501680   1.000000
     20        -57.499259   1.000000
     21        -57.499259   1.000000
     22        -57.498041   1.000000
     23        -57.472831   1.000000
     24        -57.472831   1.000000
     25        -57.472587   1.000000
     26        -57.472567   1.000000
     27        -57.471054   1.000000
     28        -57.471054   1.000000
     29        -57.470567   1.000000
     30        -57.469264   1.000000
     31        -57.462462   1.000000
     32        -57.458303   1.000000
     33        -57.457926   1.000000
     34        -57.457125   1.000000
     35        -57.457125   1.000000
     36        -57.448835   1.000000
     37        -57.448835   1.000000
     38        -57.445095   1.000000
     39        -57.442293   1.000000
     40        -57.438280   1.000000
     41        -57.421741   1.000000
     42        -57.395463   1.000000
     43        -57.390843   1.000000
     44        -57.390843   1.000000
     45        -57.377743   1.000000
     46        -57.273212   1.000000
     47        -57.273212   1.000000
     48        -57.271621   1.000000
     49        -57.269939   1.000000
     50        -57.259337   1.000000
     51        -57.257322   1.000000
     52        -57.256423   1.000000
     53        -57.256423   1.000000
     54        -57.254600   1.000000
     55        -57.241793   1.000000
     56        -57.241793   1.000000
     57        -57.227414   1.000000
     58        -57.222467   1.000000
     59        -57.207061   1.000000
     60        -57.194999   1.000000
     61        -57.185603   1.000000
     62        -57.185603   1.000000
     63        -57.170754   1.000000
     64        -32.366338   1.000000
     65        -32.366338   1.000000
     66        -32.323509   1.000000
     67        -32.287588   1.000000
     68        -32.287588   1.000000
     69        -32.281538   1.000000
     70        -32.256696   1.000000
     71        -32.244397   1.000000
     72        -32.244397   1.000000
     73        -32.240988   1.000000
     74        -32.201375   1.000000
     75        -32.201375   1.000000
     76        -32.179052   1.000000
     77        -32.160246   1.000000
     78        -32.160246   1.000000
     79        -32.159204   1.000000
     80        -32.124452   1.000000
     81        -32.113151   1.000000
     82        -32.113151   1.000000
     83        -32.104299   1.000000
     84        -32.093218   1.000000
     85        -32.093218   1.000000
     86        -32.091973   1.000000
     87        -32.085818   1.000000
     88        -32.070345   1.000000
     89        -32.069651   1.000000
     90        -32.069651   1.000000
     91        -32.068758   1.000000
     92        -32.049397   1.000000
     93        -32.043230   1.000000
     94        -32.040172   1.000000
     95        -32.040172   1.000000
     96        -32.024260   1.000000
     97        -32.024260   1.000000
     98        -32.021238   1.000000
     99        -32.018046   1.000000
    100        -31.988027   1.000000
    101        -31.946449   1.000000
    102        -31.946449   1.000000
    103        -31.936972   1.000000
    104        -31.928677   1.000000
    105        -31.928074   1.000000
    106        -31.928074   1.000000
    107        -31.925978   1.000000
    108        -31.918250   1.000000
    109        -31.918250   1.000000
    110        -31.905668   1.000000
    111        -31.903919   1.000000
    112        -31.897102   1.000000
    113        -31.887328   1.000000
    114        -31.887328   1.000000
    115        -31.870090   1.000000
    116        -31.870090   1.000000
    117        -31.852995   1.000000
    118        -31.785830   1.000000
    119        -31.783927   1.000000
    120        -31.783361   1.000000
    121        -31.783361   1.000000
    122        -31.761317   1.000000
    123        -31.731565   1.000000
    124        -31.726734   1.000000
    125        -31.726734   1.000000
    126        -31.712383   1.000000
    127        -31.708234   1.000000
    128        -31.683394   1.000000
    129        -31.677344   1.000000
    130        -31.669631   1.000000
    131        -31.669631   1.000000
    132        -31.648442   1.000000
    133        -31.642946   1.000000
    134        -31.642946   1.000000
    135        -31.633638   1.000000
    136        -31.623822   1.000000
    137        -31.623220   1.000000
    138        -31.621340   1.000000
    139        -31.621245   1.000000
    140        -31.621245   1.000000
    141        -31.618476   1.000000
    142        -31.618476   1.000000
    143        -31.570362   1.000000
    144        -31.569325   1.000000
    145        -31.567116   1.000000
    146        -31.567116   1.000000
    147        -31.551947   1.000000
    148        -31.548051   1.000000
    149        -31.548051   1.000000
    150        -31.541784   1.000000
    151        -31.537217   1.000000
    152        -31.514568   1.000000
    153        -31.513606   1.000000
    154        -31.511697   1.000000
    155        -31.511697   1.000000
    156        -31.503412   1.000000
    157        -31.503412   1.000000
    158        -31.501952   1.000000
    159        -31.500795   1.000000
    160        -31.497519   1.000000
    161        -31.497519   1.000000
    162        -31.496558   1.000000
    163        -31.494863   1.000000
    164        -31.488158   1.000000
    165        -31.485270   1.000000
    166        -31.479989   1.000000
    167        -31.479989   1.000000
    168        -31.473757   1.000000
    169        -31.467258   1.000000
    170        -31.453610   1.000000
    171        -31.446507   1.000000
    172        -31.446507   1.000000
    173        -31.427806   1.000000
    174        -31.383208   1.000000
    175        -31.383208   1.000000
    176        -31.365596   1.000000
    177        -31.337108   1.000000
    178        -31.318354   1.000000
    179        -31.316451   1.000000
    180        -31.316451   1.000000
    181        -31.314857   1.000000
    182        -31.301933   1.000000
    183        -31.301933   1.000000
    184        -31.291465   1.000000
    185        -31.287856   1.000000
    186        -31.278390   1.000000
    187        -31.277381   1.000000
    188        -31.277381   1.000000
    189        -31.267692   1.000000
    190        -31.266745   1.000000
    191        -31.266745   1.000000
    192        -31.262860   1.000000
    193        -31.254421   1.000000
    194        -31.254421   1.000000
    195        -31.233088   1.000000
    196        -31.233035   1.000000
    197        -31.228703   1.000000
    198        -31.223401   1.000000
    199        -31.220557   1.000000
    200        -31.218160   1.000000
    201        -31.218160   1.000000
    202        -31.216846   1.000000
    203        -31.204980   1.000000
    204        -31.204980   1.000000
    205        -31.198802   1.000000
    206        -31.194728   1.000000
    207        -31.194728   1.000000
    208        -31.193353   1.000000
    209        -31.186129   1.000000
    210        -31.182025   1.000000
    211        -31.177538   1.000000
    212        -31.177538   1.000000
    213        -31.159029   1.000000
    214        -31.139394   1.000000
    215        -31.139394   1.000000
    216        -31.134598   1.000000
    217        -31.121405   1.000000
    218        -31.118022   1.000000
    219        -31.116218   1.000000
    220        -31.115939   1.000000
    221        -31.115939   1.000000
    222        -31.106837   1.000000
    223        -31.106837   1.000000
    224        -31.105565   1.000000
    225        -31.104324   1.000000
    226        -31.104324   1.000000
    227        -31.104190   1.000000
    228        -31.071013   1.000000
    229        -31.071013   1.000000
    230        -31.070286   1.000000
    231        -31.068741   1.000000
    232        -31.057015   1.000000
    233        -31.057015   1.000000
    234        -31.054706   1.000000
    235        -31.054626   1.000000
    236        -31.033205   1.000000
    237        -31.033205   1.000000
    238        -31.031784   1.000000
    239        -31.000474   1.000000
    240        -30.995846   1.000000
    241        -30.995846   1.000000
    242        -30.980613   1.000000
    243        -30.974379   1.000000
    244        -30.971885   1.000000
    245        -30.971885   1.000000
    246        -30.970584   1.000000
    247        -30.951536   1.000000
    248        -30.951536   1.000000
    249        -30.939330   1.000000
    250        -30.926123   1.000000
    251        -30.926123   1.000000
    252        -30.914627   1.000000
    253         -2.247409   1.000000
    254         -2.226293   1.000000
    255         -2.226293   1.000000
    256         -2.226134   1.000000
    257         -1.452134   1.000000
    258         -1.424322   1.000000
    259         -1.424322   1.000000
    260         -1.415259   1.000000
    261         -1.355367   1.000000
    262         -1.343262   1.000000
    263         -1.040922   1.000000
    264         -1.021386   1.000000
    265         -0.983402   1.000000
    266         -0.983402   1.000000
    267         -0.959049   1.000000
    268         -0.959049   1.000000
    269         -0.928636   1.000000
    270         -0.919673   1.000000
    271         -0.883578   1.000000
    272         -0.820663   1.000000
    273         -0.819242   1.000000
    274         -0.819242   1.000000
    275         -0.814815   1.000000
    276         -0.720830   1.000000
    277         -0.709928   1.000000
    278         -0.709928   1.000000
    279         -0.569218   1.000000
    280         -0.568606   1.000000
    281         -0.568606   1.000000
    282         -0.567831   1.000000
    283         -0.538904   1.000000
    284         -0.522082   1.000000
    285         -0.522082   1.000000
    286         -0.521258   1.000000
    287         -0.503603   1.000000
    288         -0.489929   1.000000
    289         -0.488182   1.000000
    290         -0.482735   1.000000
    291         -0.482735   1.000000
    292         -0.383682   1.000000
    293         -0.357546   1.000000
    294         -0.354873   1.000000
    295         -0.320816   1.000000
    296         -0.320816   1.000000
    297         -0.277809   1.000000
    298         -0.250993   1.000000
    299         -0.250993   1.000000
    300         -0.235663   1.000000
    301         -0.181216   1.000000
    302         -0.181216   1.000000
    303         -0.158972   1.000000
    304         -0.129383   1.000000
    305         -0.018771   1.000000
    306          0.020651   1.000000
    307          0.020651   1.000000
    308          0.020942   1.000000
    309          0.114037   1.000000
    310          0.209284   1.000000
    311          0.212508   1.000000
    312          0.212508   1.000000
    313          0.233989   1.000000
    314          0.233989   1.000000
    315          0.268770   1.000000
    316          0.283685   1.000000
    317          0.283685   1.000000
    318          0.286126   1.000000
    319          0.308537   1.000000
    320          0.321304   1.000000
    321          0.321304   1.000000
    322          0.355330   1.000000
    323          0.355330   1.000000
    324          0.375533   1.000000
    325          0.388558   1.000000
    326          0.388558   1.000000
    327          0.403635   1.000000
    328          0.409305   1.000000
    329          0.415950   1.000000
    330          0.428678   1.000000
    331          0.428678   1.000000
    332          0.440765   1.000000
    333          0.445375   1.000000
    334          0.466627   1.000000
    335          0.482592   1.000000
    336          0.525129   1.000000
    337          0.525129   1.000000
    338          0.530474   1.000000
    339          0.680922   1.000000
    340          0.680922   1.000000
    341          0.715126   1.000000
    342          0.793321   1.000000
    343          0.793321   1.000000
    344          0.870945   1.000000
    345          0.870945   1.000000
    346          0.871911   1.000000
    347          0.888538   1.000000
    348          0.900465   1.000000
    349          0.935976   1.000000
    350          0.948930   1.000000
    351          0.948930   1.000000
    352          0.958781   1.000000
    353          0.959994   1.000000
    354          1.007385   1.000000
    355          1.050016   1.000000
    356          1.050016   1.000000
    357          1.167191   1.000000
    358          1.168722   1.000000
    359          1.168722   1.000000
    360          1.177921   1.000000
    361          1.184483   1.000000
    362          1.213829   1.000000
    363          1.238259   1.000000
    364          1.238259   1.000000
    365          1.289790   1.000000
    366          1.300310   1.000000
    367          1.322769   1.000000
    368          1.324570   1.000000
    369          1.324570   1.000000
    370          1.411143   1.000000
    371          1.411143   1.000000
    372          1.464355   1.000000
    373          1.464355   1.000000
    374          1.474566   1.000000
    375          1.495199   1.000000
    376          1.495199   1.000000
    377          1.503958   1.000000
    378          1.508353   1.000000
    379          1.513849   1.000000
    380          1.515385   1.000000
    381          1.515385   1.000000
    382          1.520368   1.000000
    383          1.525540   1.000000
    384          1.710625   1.000000
    385          1.712998   1.000000
    386          1.746268   1.000000
    387          1.746268   1.000000
    388          1.819627   1.000000
    389          1.819627   1.000000
    390          1.831546   1.000000
    391          1.883075   1.000000
    392          1.900650   1.000000
    393          1.921144   1.000000
    394          1.921144   1.000000
    395          1.930155   1.000000
    396          1.933333   1.000000
    397          1.954336   1.000000
    398          2.011619   1.000000
    399          2.011619   1.000000
    400          2.255727   1.000000
    401          2.255727   1.000000
    402          2.264055   1.000000
    403          2.280120   1.000000
    404          2.309166   1.000000
    405          2.309166   1.000000
    406          2.510338   1.000000
    407          2.510338   1.000000
    408          2.530348   1.000000
    409          2.661253   1.000000
    410          2.678961   1.000000
    411          2.705964   1.000000
    412          2.796454   1.000000
    413          2.796454   1.000000
    414          2.841077   1.000000
    415          2.841077   1.000000
    416          2.919303   1.000000
    417          2.957815   1.000000
    418          3.001752   1.000000
    419          3.001752   1.000000
    420          3.007712   1.000000
    421          3.008077   1.000000
    422          3.009622   1.000000
    423          3.009622   1.000000
    424          3.038978   1.000000
    425          3.045079   1.000000
    426          3.061933   1.000000
    427          3.061933   1.000000
    428          3.069773   1.000000
    429          3.107134   1.000000
    430          3.131389   0.999998
    431          3.186161   0.999936
    432          3.267950   0.996229
    433          3.267950   0.996229
    434          3.350615   0.933567
    435          3.350615   0.933567
    436          3.395616   0.806886
    437          3.419675   0.700640
    438          3.441176   0.587909
    439          3.451585   0.529879
    440          3.451585   0.529879
    441          3.501697   0.263127
    442          3.573747   0.049199
    443          3.573747   0.049199
    444          3.589159   0.030698
    445          3.639383   0.004927
    446          3.660838   0.001961
    447          3.676678   0.000941
    448          3.676678   0.000941
    449          3.719893   0.000100
    450          3.720800   0.000095
    451          3.720800   0.000095
    452          3.916874   0.000000
    453          3.959751   0.000000
    454          3.959751   0.000000
    455          3.964487   0.000000
    456          4.008507   0.000000
    457          4.085819   0.000000
    458          4.085819   0.000000
    459          4.104851   0.000000
    460          4.157505   0.000000
    461          4.189895   0.000000
    462          4.203837   0.000000
    463          4.203837   0.000000
    464          4.230868   0.000000
    465          4.287734   0.000000
    466          4.289632   0.000000
    467          4.289632   0.000000
    468          4.349095   0.000000
    469          4.354958   0.000000
    470          4.354958   0.000000
    471          4.356339   0.000000
    472          4.397393   0.000000
    473          4.418246   0.000000
    474          4.441377   0.000000
    475          4.441377   0.000000
    476          4.524979   0.000000
    477          4.524979   0.000000
    478          4.547127   0.000000
    479          4.603593   0.000000
    480          4.615840   0.000000
    481          4.615840   0.000000
    482          4.622650   0.000000
    483          4.631755   0.000000
    484          4.814901   0.000000
    485          4.828853   0.000000
    486          4.875116   0.000000
    487          4.875116   0.000000
    488          4.883590   0.000000
    489          4.883590   0.000000
    490          4.886912   0.000000
    491          4.921023   0.000000
    492          4.942309   0.000000
    493          4.963043   0.000000
    494          4.982672   0.000000
    495          4.986715   0.000000
    496          5.005573   0.000000
    497          5.007510   0.000000
    498          5.007510   0.000000
    499          5.012544   0.000000
    500          5.012544   0.000000
    501          5.058741   0.000000
    502          5.068235   0.000000
    503          5.068235   0.000000
    504          5.113540   0.000000
    505          5.137471   0.000000
    506          5.146423   0.000000
    507          5.146423   0.000000
    508          5.148202   0.000000
    509          5.148202   0.000000
    510          5.152147   0.000000
    511          5.160935   0.000000
    512          5.201115   0.000000
    513          5.256614   0.000000
    514          5.278208   0.000000
    515          5.278208   0.000000
    516          5.286000   0.000000
    517          5.287174   0.000000
    518          5.351872   0.000000
    519          5.353385   0.000000
    520          5.353385   0.000000
    521          5.356561   0.000000
    522          5.393200   0.000000
    523          5.435036   0.000000
    524          5.477609   0.000000
    525          5.477609   0.000000
    526          5.486381   0.000000
    527          5.500737   0.000000
    528          5.636586   0.000000
    529          5.654691   0.000000
