 vasp.6.3.2 27Jun22 (build Mar 15 2023 15:45:48) complex                        
  
 executed on             LinuxIFC date 2025.09.05  16:57:19
 running on    4 total cores
 distrk:  each k-point on    1 cores,    4 groups
 distr:  one band on NCORE=   1 cores,    1 groups


--------------------------------------------------------------------------------------------------------


 INCAR:
   SYSTEM = ni3al
   PREC = Accurate
   EDIFF = 1E-6
   ISTART = 0
   ICHARG = 2
   LREAL = Auto
   NSW = 0
   ISIF = 2
   IBRION = -1
   ISMEAR = 0
   SIGMA = 0.1
   ENCUT = 530
   ALGO = Normal
   LMAXMIX = 4
   AMIN = 0.01
   NELM = 150
   LCHARG = .T.
   LWAVE = .T.
   NCORE = 8
   KPAR = 4

 POTCAR:    PAW_PBE Mo_sv 02Feb2006               
 POTCAR:    PAW_PBE Mo_sv 02Feb2006               
   VRHFIN =Mo: 4p5s4d                                                                               
   LEXCH  = PE                                                                                      
   EATOM  =  1862.2866 eV,  136.8742 Ry                                                             
                                                                                                    
   TITEL  = PAW_PBE Mo_sv 02Feb2006                                                                 
   LULTRA =        F    use ultrasoft PP ?                                                          
   IUNSCR =        1    unscreen: 0-lin 1-nonlin 2-no                                               
   RPACOR =    2.200    partial core radius                                                         
   POMASS =   95.940; ZVAL   =   14.000    mass and valenz                                          
   RCORE  =    2.500    outmost cutoff radius                                                       
   RWIGS  =    2.750; RWIGS  =    1.455    wigner-seitz radius (au A)                               
   ENMAX  =  242.676; ENMIN  =  182.007 eV                                                          
   ICORE  =        3    local potential                                                             
   LCOR   =        T    correct aug charges                                                         
   LPAW   =        T    paw PP                                                                      
   EAUG   =  446.014                                                                                
   DEXC   =    0.000                                                                                
   RMAX   =    2.563    core radius for proj-oper                                                   
   RAUG   =    1.300    factor for augmentation sphere                                              
   RDEP   =    2.641    radius for radial grids                                                     
   RDEPT  =    2.031    core radius for aug-charge                                                  
                                                                                                    
   Atomic configuration                                                                             
   11 entries                                                                                       
     n  l   j            E        occ.                                                              
     1  0  0.50    -19819.0341   2.0000                                                             
     2  0  0.50     -2799.0127   2.0000                                                             
     2  1  1.50     -2502.0276   6.0000                                                             
     3  0  0.50      -476.4449   2.0000                                                             
     3  1  1.50      -379.1496   6.0000                                                             
     3  2  2.50      -220.9367  10.0000                                                             
     4  0  0.50       -64.3378   2.0000                                                             
     5  0  0.50        -4.0862   1.0000                                                             
     4  1  1.50       -38.4773   6.0000                                                             
     4  2  2.50        -3.7535   5.0000                                                             
     4  3  2.50        -1.3606   0.0000                                                             
   Description                                                                                      
     l       E           TYP  RCUT    TYP  RCUT                                                     
     0    -64.3377829     23  2.100                                                                 
     0     -4.0861640     23  2.400                                                                 
     1    -38.4772993     23  2.100                                                                 
     1     13.6058260     23  2.100                                                                 
     2     -3.7534941     23  2.400                                                                 
     2     -5.1140767     23  2.400                                                                 
     3     -4.0817478     23  2.500                                                                 
  local pseudopotential read in
  partial core-charges read in
  partial kinetic energy density read in
  atomic valenz-charges read in
  non local Contribution for L=           0  read in
    real space projection operators read in
  non local Contribution for L=           0  read in
    real space projection operators read in
  non local Contribution for L=           1  read in
    real space projection operators read in
  non local Contribution for L=           1  read in
    real space projection operators read in
  non local Contribution for L=           2  read in
    real space projection operators read in
  non local Contribution for L=           2  read in
    real space projection operators read in
    PAW grid and wavefunctions read in
 
   number of l-projection  operators is LMAX  =           6
   number of lm-projection operators is LMMAX =          18
 
 Optimization of the real space projectors (new method)

 maximal supplied QI-value         = 15.12
 optimisation between [QCUT,QGAM] = [ 11.79, 23.58] = [ 38.94,155.75] Ry 
 Optimized for a Real-space Cutoff    1.61 Angstroem

   l    n(q)    QCUT    max X(q) W(low)/X(q) W(high)/X(q)  e(spline) 
   0     11    11.792     3.559    0.10E-05    0.43E-05    0.23E-06
   0     11    11.792    20.730    0.33E-04    0.49E-05    0.27E-06
   1     11    11.792     3.279    0.65E-06    0.22E-05    0.34E-07
   1     11    11.792     4.693    0.24E-04    0.16E-04    0.22E-06
   2     11    11.792    67.616    0.22E-03    0.34E-04    0.67E-06
   2     11    11.792    62.420    0.22E-03    0.34E-04    0.68E-06
  PAW_PBE Mo_sv 02Feb2006               :
 energy of atom  1       EATOM=-1862.2866
 kinetic energy error for atom=    0.0067 (will be added to EATOM!!)
 
 
 POSCAR: Generated by VASPKIT code
  positions in direct lattice
  velocities in cartesian coordinates
 exchange correlation table for  LEXCH =        8
   RHO(1)=    0.500       N(1)  =     2000
   RHO(2)=  100.500       N(2)  =     4000

 VTST: version 4.2, (08/11/21)

 CHAIN: initializing optimizer
 
 OPT: Using VASP Dynamics algorithm
 CHAIN: Read ICHAIN            0
 
 POSCAR: Generated by VASPKIT code
  positions in direct lattice
  velocities in cartesian coordinates
 


--------------------------------------------------------------------------------------------------------


 ion  position               nearest neighbor table
   1  0.000  0.000  0.000-   3 2.74   9 2.74  21 2.74  27 2.74  10 3.17  19 3.17   7 3.17   4 3.17
                            28 3.17
   2  0.000  0.000  0.381-  47 2.63  51 2.63  59 2.63  63 2.63  46 3.01   8 3.14  11 3.14  20 3.14
                             5 3.14
   3  0.167  0.167  0.065-  13 2.74  36 2.74   4 2.74  10 2.74  34 2.74  30 2.74   1 2.74  28 2.74
                            12 3.17   6 3.17   9 3.17  21 3.17  29 3.17
   4  0.333  0.000  0.000-   3 2.74  21 2.74   6 2.74  24 2.74   1 3.17  22 3.17  13 3.17   7 3.17
                            30 3.17
   5  0.330  0.000  0.381-  47 2.60  59 2.60  49 2.63  61 2.63  48 2.99   2 3.14   8 3.22  23 3.38
                            14 3.38
   6  0.500  0.167  0.065-  13 2.74  16 2.74  36 2.74  38 2.74   4 2.74   7 2.74  30 2.74  32 2.74
                            15 3.17   9 3.17   3 3.17  24 3.17  31 3.17
   7  0.667  0.000  0.000-   9 2.74  27 2.74  24 2.74   6 2.74   1 3.17  25 3.17  16 3.17   4 3.17
                            32 3.17
   8  0.670  0.000  0.381-  51 2.60  63 2.60  61 2.63  49 2.63  50 2.99   2 3.14   5 3.22  26 3.38
                            17 3.38
   9  0.833  0.167  0.065-  16 2.74  38 2.74   7 2.74  10 2.74  34 2.74  32 2.74   1 2.74  28 2.74
                             6 3.17  18 3.17   3 3.17  27 3.17  33 3.17
  10  0.000  0.333  0.000-   3 2.74   9 2.74  12 2.74  18 2.74  13 3.17  16 3.17   1 3.17  19 3.17
                            34 3.17
  11  0.000  0.330  0.381-  47 2.60  51 2.60  53 2.63  57 2.63  52 2.99   2 3.14  20 3.22  14 3.38
                            17 3.38
  12  0.167  0.500  0.065-  13 2.74  22 2.74  36 2.74  42 2.74  19 2.74  10 2.74  40 2.74  34 2.74
                            21 3.17  15 3.17   3 3.17  18 3.17  35 3.17
  13  0.333  0.333  0.000-   3 2.74   6 2.74  12 2.74  15 2.74   4 3.17  10 3.17  16 3.17  22 3.17
                            36 3.17
  14  0.355  0.355  0.385-  55 2.58  53 2.70  49 2.70  23 2.76  17 2.76  47 2.92  54 3.11  11 3.38
                             5 3.38
  15  0.500  0.500  0.065-  13 2.74  16 2.74  22 2.74  25 2.74  36 2.74  38 2.74  42 2.74  44 2.74
                            18 3.17   6 3.17  24 3.17  12 3.17  37 3.17
  16  0.667  0.333  0.000-   9 2.74   6 2.74  18 2.74  15 2.74   7 3.17  10 3.17  13 3.17  25 3.17
                            38 3.17
  17  0.645  0.355  0.385-  55 2.58  49 2.70  57 2.70  26 2.76  14 2.76  51 2.92  56 3.11  11 3.38
                             8 3.38
  18  0.833  0.500  0.065-  16 2.74  25 2.74  38 2.74  44 2.74  19 2.74  10 2.74  40 2.74  34 2.74
                             9 3.17  27 3.17  15 3.17  12 3.17  39 3.17
  19  0.000  0.667  0.000-  21 2.74  27 2.74  12 2.74  18 2.74  22 3.17  25 3.17   1 3.17  10 3.17
                            40 3.17
  20  0.000  0.670  0.381-  59 2.60  63 2.60  53 2.63  57 2.63  58 2.99   2 3.14  11 3.22  26 3.38
                            23 3.38
  21  0.167  0.833  0.065-  22 2.74  42 2.74   4 2.74  19 2.74  40 2.74  30 2.74   1 2.74  28 2.74
                            12 3.17  24 3.17   3 3.17  27 3.17  41 3.17
  22  0.333  0.667  0.000-  21 2.74  12 2.74  24 2.74  15 2.74   4 3.17  19 3.17  13 3.17  25 3.17
                            42 3.17
  23  0.355  0.645  0.385-  55 2.58  53 2.70  61 2.70  26 2.76  14 2.76  59 2.92  60 3.11   5 3.38
                            20 3.38
  24  0.500  0.833  0.065-  22 2.74  25 2.74  42 2.74  44 2.74   4 2.74   7 2.74  30 2.74  32 2.74
                            21 3.17  27 3.17  15 3.17   6 3.17  43 3.17
  25  0.667  0.667  0.000-  27 2.74  24 2.74  18 2.74  15 2.74   7 3.17  19 3.17  16 3.17  22 3.17
                            44 3.17
  26  0.645  0.645  0.385-  55 2.58  57 2.70  61 2.70  23 2.76  17 2.76  63 2.92  62 3.11   8 3.38
                            20 3.38
  27  0.833  0.833  0.065-  25 2.74  44 2.74   7 2.74  19 2.74  40 2.74  32 2.74   1 2.74  28 2.74
                            24 3.17  18 3.17   9 3.17  21 3.17  45 3.17
  28  0.000  0.000  0.129-  29 2.74  33 2.74  41 2.74  45 2.74   3 2.74   9 2.74  21 2.74  27 2.74
                            34 3.17  40 3.17  32 3.17  30 3.17  46 3.17   1 3.17
  29  0.167  0.167  0.194-  36 2.74  34 2.74  30 2.74  28 2.74  54 2.74  52 2.74  48 2.74  46 2.74
                            35 3.17  31 3.17  33 3.17  41 3.17   3 3.17  47 3.22
  30  0.333  0.000  0.129-  29 2.74  41 2.74  31 2.74  43 2.74   3 2.74  21 2.74   6 2.74  24 2.74
                            28 3.17  42 3.17  36 3.17  32 3.17  48 3.17   4 3.17
  31  0.500  0.167  0.194-  36 2.74  38 2.74  30 2.74  32 2.74  54 2.74  56 2.74  48 2.74  50 2.74
                            37 3.17  33 3.17  29 3.17  43 3.17   6 3.17  49 3.20
  32  0.667  0.000  0.129-  33 2.74  45 2.74  43 2.74  31 2.74   9 2.74  27 2.74  24 2.74   6 2.74
                            28 3.17  44 3.17  38 3.17  30 3.17  50 3.17   7 3.17
  33  0.833  0.167  0.194-  38 2.74  34 2.74  32 2.74  28 2.74  56 2.74  52 2.74  50 2.74  46 2.74
                            31 3.17  39 3.17  29 3.17  45 3.17   9 3.17  51 3.22
  34  0.000  0.333  0.129-  29 2.74  33 2.74  35 2.74  39 2.74   3 2.74   9 2.74  12 2.74  18 2.74
                            36 3.17  38 3.17  28 3.17  40 3.17  52 3.17  10 3.17
  35  0.167  0.500  0.194-  36 2.74  42 2.74  40 2.74  34 2.74  54 2.74  60 2.74  58 2.74  52 2.74
                            41 3.17  37 3.17  29 3.17  39 3.17  12 3.17  53 3.20
  36  0.333  0.333  0.129-  29 2.74  31 2.74  35 2.74  37 2.74   3 2.74   6 2.74  12 2.74  15 2.74
                            30 3.17  34 3.17  38 3.17  42 3.17  54 3.17  13 3.17
  37  0.500  0.500  0.194-  36 2.74  38 2.74  42 2.74  44 2.74  54 2.74  56 2.74  60 2.74  62 2.74
                            55 2.99  31 3.17  43 3.17  35 3.17  39 3.17  15 3.17
  38  0.667  0.333  0.129-  33 2.74  31 2.74  39 2.74  37 2.74   9 2.74   6 2.74  18 2.74  15 2.74
                            32 3.17  34 3.17  36 3.17  44 3.17  56 3.17  16 3.17
  39  0.833  0.500  0.194-  38 2.74  44 2.74  40 2.74  34 2.74  56 2.74  62 2.74  58 2.74  52 2.74
                            33 3.17  45 3.17  37 3.17  35 3.17  18 3.17  57 3.20
  40  0.000  0.667  0.129-  41 2.74  45 2.74  35 2.74  39 2.74  21 2.74  27 2.74  12 2.74  18 2.74
                            42 3.17  44 3.17  28 3.17  34 3.17  58 3.17  19 3.17
  41  0.167  0.833  0.194-  42 2.74  40 2.74  30 2.74  28 2.74  60 2.74  58 2.74  48 2.74  46 2.74
                            35 3.17  43 3.17  29 3.17  45 3.17  21 3.17  59 3.22
  42  0.333  0.667  0.129-  41 2.74  43 2.74  35 2.74  37 2.74  21 2.74  12 2.74  24 2.74  15 2.74
                            30 3.17  40 3.17  36 3.17  44 3.17  60 3.17  22 3.17
  43  0.500  0.833  0.194-  42 2.74  44 2.74  30 2.74  32 2.74  60 2.74  62 2.74  48 2.74  50 2.74
                            41 3.17  45 3.17  37 3.17  31 3.17  24 3.17  61 3.20
  44  0.667  0.667  0.129-  45 2.74  43 2.74  39 2.74  37 2.74  27 2.74  24 2.74  18 2.74  15 2.74
                            32 3.17  40 3.17  38 3.17  42 3.17  62 3.17  25 3.17
  45  0.833  0.833  0.194-  44 2.74  40 2.74  32 2.74  28 2.74  62 2.74  58 2.74  50 2.74  46 2.74
                            43 3.17  39 3.17  33 3.17  41 3.17  27 3.17  63 3.22
  46  0.000  0.000  0.259-  29 2.74  33 2.74  41 2.74  45 2.74  47 2.77  51 2.77  59 2.77  63 2.77
                             2 3.01  52 3.17  58 3.17  50 3.17  48 3.17  28 3.17
  47  0.167  0.167  0.325-   5 2.60  11 2.60   2 2.63  46 2.77  48 2.77  52 2.77  54 2.77  14 2.92
                            51 3.17  59 3.17  49 3.17  53 3.17  29 3.22
  48  0.333  0.000  0.259-  29 2.74  41 2.74  31 2.74  43 2.74  49 2.76  61 2.76  59 2.77  47 2.77
                             5 2.99  46 3.17  60 3.17  54 3.17  50 3.17  30 3.17
  49  0.500  0.165  0.325-   5 2.63   8 2.63  14 2.70  17 2.70  48 2.76  50 2.76  54 2.77  56 2.77
                            61 3.14  51 3.17  47 3.17  55 3.19  31 3.20
  50  0.667  0.000  0.259-  33 2.74  45 2.74  43 2.74  31 2.74  49 2.76  61 2.76  51 2.77  63 2.77
                             8 2.99  46 3.17  62 3.17  56 3.17  48 3.17  32 3.17
  51  0.833  0.167  0.325-   8 2.60  11 2.60   2 2.63  46 2.77  50 2.77  52 2.77  56 2.77  17 2.92
                            47 3.17  63 3.17  57 3.17  49 3.17  33 3.22
  52  0.000  0.333  0.259-  29 2.74  33 2.74  35 2.74  39 2.74  53 2.76  57 2.76  47 2.77  51 2.77
                            11 2.99  54 3.17  56 3.17  46 3.17  58 3.17  34 3.17
  53  0.165  0.500  0.325-  11 2.63  20 2.63  14 2.70  23 2.70  52 2.76  58 2.76  54 2.77  60 2.77
                            57 3.14  59 3.17  47 3.17  55 3.19  35 3.20
  54  0.333  0.333  0.259-  55 2.64  29 2.74  35 2.74  31 2.74  37 2.74  53 2.77  49 2.77  47 2.77
                            14 3.11  48 3.17  52 3.17  56 3.17  60 3.17  36 3.17
  55  0.500  0.500  0.316-  14 2.58  17 2.58  23 2.58  26 2.58  54 2.64  56 2.64  60 2.64  62 2.64
                            37 2.99  57 3.19  49 3.19  61 3.19  53 3.19
  56  0.667  0.333  0.259-  55 2.64  33 2.74  39 2.74  31 2.74  37 2.74  49 2.77  57 2.77  51 2.77
                            17 3.11  50 3.17  52 3.17  54 3.17  62 3.17  38 3.17
  57  0.835  0.500  0.325-  11 2.63  20 2.63  17 2.70  26 2.70  52 2.76  58 2.76  56 2.77  62 2.77
                            53 3.14  51 3.17  63 3.17  55 3.19  39 3.20
  58  0.000  0.667  0.259-  41 2.74  45 2.74  35 2.74  39 2.74  53 2.76  57 2.76  59 2.77  63 2.77
                            20 2.99  60 3.17  62 3.17  46 3.17  52 3.17  40 3.17
  59  0.167  0.833  0.325-   5 2.60  20 2.60   2 2.63  46 2.77  48 2.77  58 2.77  60 2.77  23 2.92
                            47 3.17  63 3.17  61 3.17  53 3.17  41 3.22
  60  0.333  0.667  0.259-  55 2.64  41 2.74  43 2.74  35 2.74  37 2.74  53 2.77  61 2.77  59 2.77
                            23 3.11  48 3.17  58 3.17  54 3.17  62 3.17  42 3.17
  61  0.500  0.835  0.325-   5 2.63   8 2.63  23 2.70  26 2.70  48 2.76  50 2.76  60 2.77  62 2.77
                            49 3.14  59 3.17  63 3.17  55 3.19  43 3.20
  62  0.667  0.667  0.259-  55 2.64  45 2.74  39 2.74  43 2.74  37 2.74  57 2.77  61 2.77  63 2.77
                            26 3.11  50 3.17  58 3.17  56 3.17  60 3.17  44 3.17
  63  0.833  0.833  0.325-   8 2.60  20 2.60   2 2.63  46 2.77  50 2.77  58 2.77  62 2.77  26 2.92
                            59 3.17  51 3.17  61 3.17  57 3.17  45 3.22
 
  LATTYP: Found a simple tetragonal cell.
 ALAT       =     9.4983997345
 C/A-ratio  =     2.5796870899
  
  Lattice vectors:
  
 A1 = (   9.4983997345,   0.0000000000,   0.0000000000)
 A2 = (   0.0000000000,   9.4983997345,   0.0000000000)
 A3 = (   0.0000000000,   0.0000000000,  24.5028991699)


Analysis of symmetry for initial positions (statically):
=====================================================================
 Subroutine PRICEL returns:
 Original cell was already a primitive cell.
 

 Routine SETGRP: Setting up the symmetry group for a 
 simple tetragonal supercell.


 Subroutine GETGRP returns: Found  8 space group operations
 (whereof  8 operations were pure point group operations)
 out of a pool of 16 trial point group operations.


The static configuration has the point symmetry C_4v.


Analysis of symmetry for dynamics (positions and initial velocities):
=====================================================================
 Subroutine PRICEL returns:
 Original cell was already a primitive cell.
 

 Routine SETGRP: Setting up the symmetry group for a 
 simple tetragonal supercell.


 Subroutine GETGRP returns: Found  8 space group operations
 (whereof  8 operations were pure point group operations)
 out of a pool of 16 trial point group operations.


The dynamic configuration has the point symmetry C_4v.


Analysis of constrained symmetry for selective dynamics:
=====================================================================
 Subroutine PRICEL returns:
 Original cell was already a primitive cell.
 

 Routine SETGRP: Setting up the symmetry group for a 
 simple tetragonal supercell.


 Subroutine GETGRP returns: Found  8 space group operations
 (whereof  8 operations were pure point group operations)
 out of a pool of 16 trial point group operations.


The constrained configuration has the point symmetry C_4v.


 Subroutine INISYM returns: Found  8 space group operations
 (whereof  8 operations are pure point group operations),
 and found     1 'primitive' translations


----------------------------------------------------------------------------------------

                                     Primitive cell                                     

  volume of cell :    2210.6417

  direct lattice vectors                    reciprocal lattice vectors
     9.498399734  0.000000000  0.000000000     0.105280892  0.000000000  0.000000000
     0.000000000  9.498399734  0.000000000     0.000000000  0.105280892  0.000000000
     0.000000000  0.000000000 24.502899170     0.000000000  0.000000000  0.040811497

  length of vectors
     9.498399734  9.498399734 24.502899170     0.105280892  0.105280892  0.040811497

  position of ions in fractional coordinates (direct lattice)
     0.000000000  0.000000000  0.000000000
     0.000000000  0.000000000  0.381461858
     0.166670000  0.166670000  0.064640000
     0.333330000  0.000000000  0.000000000
     0.330347131  0.000000000  0.380616883
     0.500000000  0.166670000  0.064640000
     0.666670000  0.000000000  0.000000000
     0.669652869  0.000000000  0.380616883
     0.833330000  0.166670000  0.064640000
     0.000000000  0.333330000  0.000000000
     0.000000000  0.330347131  0.380616883
     0.166670000  0.500000000  0.064640000
     0.333330000  0.333330000  0.000000000
     0.354903540  0.354903540  0.384786749
     0.500000000  0.500000000  0.064640000
     0.666670000  0.333330000  0.000000000
     0.645096460  0.354903540  0.384786749
     0.833330000  0.500000000  0.064640000
     0.000000000  0.666670000  0.000000000
     0.000000000  0.669652869  0.380616883
     0.166670000  0.833330000  0.064640000
     0.333330000  0.666670000  0.000000000
     0.354903540  0.645096460  0.384786749
     0.500000000  0.833330000  0.064640000
     0.666670000  0.666670000  0.000000000
     0.645096460  0.645096460  0.384786749
     0.833330000  0.833330000  0.064640000
     0.000000000  0.000000000  0.129280000
     0.166670000  0.166670000  0.193910000
     0.333330000  0.000000000  0.129280000
     0.500000000  0.166670000  0.193910000
     0.666670000  0.000000000  0.129280000
     0.833330000  0.166670000  0.193910000
     0.000000000  0.333330000  0.129280000
     0.166670000  0.500000000  0.193910000
     0.333330000  0.333330000  0.129280000
     0.500000000  0.500000000  0.193910000
     0.666670000  0.333330000  0.129280000
     0.833330000  0.500000000  0.193910000
     0.000000000  0.666670000  0.129280000
     0.166670000  0.833330000  0.193910000
     0.333330000  0.666670000  0.129280000
     0.500000000  0.833330000  0.193910000
     0.666670000  0.666670000  0.129280000
     0.833330000  0.833330000  0.193910000
     0.000000000  0.000000000  0.258550000
     0.166662165  0.166662165  0.325273153
     0.333330000  0.000000000  0.258550000
     0.500000000  0.165241704  0.324658227
     0.666670000  0.000000000  0.258550000
     0.833337835  0.166662165  0.325273153
     0.000000000  0.333330000  0.258550000
     0.165241704  0.500000000  0.324658227
     0.333330000  0.333330000  0.258550000
     0.500000000  0.500000000  0.315943520
     0.666670000  0.333330000  0.258550000
     0.834758296  0.500000000  0.324658227
     0.000000000  0.666670000  0.258550000
     0.166662165  0.833337835  0.325273153
     0.333330000  0.666670000  0.258550000
     0.500000000  0.834758296  0.324658227
     0.666670000  0.666670000  0.258550000
     0.833337835  0.833337835  0.325273153

  ion indices of the primitive-cell ions
   primitive index   ion index
                 1           1
                 2           2
                 3           3
                 4           4
                 5           5
                 6           6
                 7           7
                 8           8
                 9           9
                10          10
                11          11
                12          12
                13          13
                14          14
                15          15
                16          16
                17          17
                18          18
                19          19
                20          20
                21          21
                22          22
                23          23
                24          24
                25          25
                26          26
                27          27
                28          28
                29          29
                30          30
                31          31
                32          32
                33          33
                34          34
                35          35
                36          36
                37          37
                38          38
                39          39
                40          40
                41          41
                42          42
                43          43
                44          44
                45          45
                46          46
                47          47
                48          48
                49          49
                50          50
                51          51
                52          52
                53          53
                54          54
                55          55
                56          56
                57          57
                58          58
                59          59
                60          60
                61          61
                62          62
                63          63

----------------------------------------------------------------------------------------

 
 
 KPOINTS: K-Spacing Value to Generate K-Mesh: 0.03

Automatic generation of k-mesh.
 Grid dimensions read from file:
 generate k-points for:    4    4    1

 Generating k-lattice:

  Cartesian coordinates                     Fractional coordinates (reciprocal lattice)
     0.026320223  0.000000000  0.000000000     0.250000000  0.000000000  0.000000000
     0.000000000  0.026320223  0.000000000     0.000000000  0.250000000  0.000000000
     0.000000000  0.000000000  0.040811497     0.000000000  0.000000000  1.000000000

  Length of vectors
     0.026320223  0.026320223  0.040811497

  Shift w.r.t. Gamma in fractional coordinates (k-lattice)
     0.000000000  0.000000000  0.000000000

 
 Subroutine IBZKPT returns following result:
 ===========================================
 
 Found      6 irreducible k-points:
 
 Following reciprocal coordinates:
            Coordinates               Weight
  0.000000  0.000000  0.000000      1.000000
  0.250000  0.000000  0.000000      4.000000
  0.500000  0.000000  0.000000      2.000000
  0.250000  0.250000  0.000000      4.000000
  0.500000  0.250000  0.000000      4.000000
  0.500000  0.500000  0.000000      1.000000
 
 Following cartesian coordinates:
            Coordinates               Weight
  0.000000  0.000000  0.000000      1.000000
  0.026320  0.000000  0.000000      4.000000
  0.052640  0.000000  0.000000      2.000000
  0.026320  0.026320  0.000000      4.000000
  0.052640  0.026320  0.000000      4.000000
  0.052640  0.052640  0.000000      1.000000
 


--------------------------------------------------------------------------------------------------------




 Dimension of arrays:
   k-points           NKPTS =      6   k-points in BZ     NKDIM =      6   number of bands    NBANDS=    529
   number of dos      NEDOS =    301   number of ions     NIONS =     63
   non local maximal  LDIM  =      6   non local SUM 2l+1 LMDIM =     18
   total plane-waves  NPLWV = 995328
   max r-space proj   IRMAX =   7947   max aug-charges    IRDMAX=  19887
   dimension x,y,z NGX =    72 NGY =   72 NGZ =  192
   dimension x,y,z NGXF=   144 NGYF=  144 NGZF=  384
   support grid    NGXF=   144 NGYF=  144 NGZF=  384
   ions per type =              63
   NGX,Y,Z   is equivalent  to a cutoff of  12.60, 12.60, 13.03 a.u.
   NGXF,Y,Z  is equivalent  to a cutoff of  25.20, 25.20, 26.05 a.u.

 SYSTEM =  ni3al                                   
 POSCAR =  Generated by VASPKIT code               

 Startparameter for this run:
   NWRITE =      2    write-flag & timer
   PREC   = accura    normal or accurate (medium, high low for compatibility)
   ISTART =      0    job   : 0-new  1-cont  2-samecut
   ICHARG =      2    charge: 1-file 2-atom 10-const
   ISPIN  =      1    spin polarized calculation?
   LNONCOLLINEAR =      F non collinear calculations
   LSORBIT =      F    spin-orbit coupling
   INIWAV =      1    electr: 0-lowe 1-rand  2-diag
   LASPH  =      F    aspherical Exc in radial PAW
 Electronic Relaxation 1
   ENCUT  =  530.0 eV  38.95 Ry    6.24 a.u.  17.83 17.83 46.00*2*pi/ulx,y,z
   ENINI  =  530.0     initial cutoff
   ENAUG  =  446.0 eV  augmentation charge cutoff
   NELM   =    150;   NELMIN=  2; NELMDL= -5     # of ELM steps 
   EDIFF  = 0.1E-05   stopping-criterion for ELM
   LREAL  =      T    real-space projection
   NLSPLINE    = F    spline interpolate recip. space projectors
   LCOMPAT=      F    compatible to vasp.4.4
   GGA_COMPAT  = T    GGA compatible to vasp.4.4-vasp.4.6
   LMAXPAW     = -100 max onsite density
   LMAXMIX     =    4 max onsite mixed and CHGCAR
   VOSKOWN=      0    Vosko Wilk Nusair interpolation
   ROPT   =   -0.00025
 Ionic relaxation
   EDIFFG = 0.1E-04   stopping-criterion for IOM
   NSW    =      0    number of steps for IOM
   NBLOCK =      1;   KBLOCK =      1    inner block; outer block 
   IBRION =     -1    ionic relax: 0-MD 1-quasi-New 2-CG
   NFREE  =      0    steps in history (QN), initial steepest desc. (CG)
   ISIF   =      2    stress and relaxation
   IWAVPR =     10    prediction:  0-non 1-charg 2-wave 3-comb
   ISYM   =      2    0-nonsym 1-usesym 2-fastsym
   LCORR  =      T    Harris-Foulkes like correction to forces

   POTIM  = 0.5000    time-step for ionic-motion
   TEIN   =    0.0    initial temperature
   TEBEG  =    0.0;   TEEND  =   0.0 temperature during run
   SMASS  =  -3.00    Nose mass-parameter (am)
   estimated Nose-frequenzy (Omega)   =  0.10E-29 period in steps = 0.13E+47 mass=  -0.206E-26a.u.
   SCALEE = 1.0000    scale energy and forces
   NPACO  =    256;   APACO  = 10.0  distance and # of slots for P.C.
   PSTRESS=    0.0 pullay stress

  Mass of Ions in am
   POMASS =  95.94
  Ionic Valenz
   ZVAL   =  14.00
  Atomic Wigner-Seitz radii
   RWIGS  =  -1.00
  virtual crystal weights 
   VCA    =   1.00
   NELECT =     882.0000    total number of electrons
   NUPDOWN=      -1.0000    fix difference up-down

 DOS related values:
   EMIN   =  10.00;   EMAX   =-10.00  energy-range for DOS
   EFERMI =   0.00
   ISMEAR =     0;   SIGMA  =   0.10  broadening in eV -4-tet -1-fermi 0-gaus

 Electronic relaxation 2 (details)
   IALGO  =     38    algorithm
   LDIAG  =      T    sub-space diagonalisation (order eigenvalues)
   LSUBROT=      F    optimize rotation matrix (better conditioning)
   TURBO    =      0    0=normal 1=particle mesh
   IRESTART =      0    0=no restart 2=restart with 2 vectors
   NREBOOT  =      0    no. of reboots
   NMIN     =      0    reboot dimension
   EREF     =   0.00    reference energy to select bands
   IMIX   =      4    mixing-type and parameters
     AMIX     =   0.40;   BMIX     =  1.00
     AMIX_MAG =   1.60;   BMIX_MAG =  1.00
     AMIN     =   0.01
     WC   =   100.;   INIMIX=   1;  MIXPRE=   1;  MAXMIX= -45

 Intra band minimization:
   WEIMIN = 0.0000     energy-eigenvalue tresh-hold
   EBREAK =  0.47E-09  absolut break condition
   DEPER  =   0.30     relativ break condition  

   TIME   =   0.40     timestep for ELM

  volume/ion in A,a.u.               =      35.09       236.80
  Fermi-wavevector in a.u.,A,eV,Ry     =   1.205198  2.277493 19.762478  1.452501
  Thomas-Fermi vector in A             =   2.340901
 
 Write flags
   LWAVE        =      T    write WAVECAR
   LDOWNSAMPLE  =      F    k-point downsampling of WAVECAR
   LCHARG       =      T    write CHGCAR
   LVTOT        =      F    write LOCPOT, total local potential
   LVHAR        =      F    write LOCPOT, Hartree potential only
   LELF         =      F    write electronic localiz. function (ELF)
   LORBIT       =      0    0 simple, 1 ext, 2 COOP (PROOUT), +10 PAW based schemes


 Dipole corrections
   LMONO  =      F    monopole corrections only (constant potential shift)
   LDIPOL =      F    correct potential (dipole corrections)
   IDIPOL =      0    1-x, 2-y, 3-z, 4-all directions 
   EPSILON=  1.0000000 bulk dielectric constant

 Exchange correlation treatment:
   GGA     =    --    GGA type
   LEXCH   =     8    internal setting for exchange type
   LIBXC   =     F    Libxc                    
   VOSKOWN =     0    Vosko Wilk Nusair interpolation
   LHFCALC =     F    Hartree Fock is set to
   LHFONE  =     F    Hartree Fock one center treatment
   AEXX    =    0.0000 exact exchange contribution

 Linear response parameters
   LEPSILON=     F    determine dielectric tensor
   LRPA    =     F    only Hartree local field effects (RPA)
   LNABLA  =     F    use nabla operator in PAW spheres
   LVEL    =     F    velocity operator in full k-point grid
   CSHIFT  =0.1000    complex shift for real part using Kramers Kronig
   OMEGAMAX=  -1.0    maximum frequency
   DEG_THRESHOLD= 0.2000000E-02 threshold for treating states as degnerate
   RTIME   =   -0.100 relaxation time in fs
  (WPLASMAI=    0.000 imaginary part of plasma frequency in eV, 0.658/RTIME)
   DFIELD  = 0.0000000 0.0000000 0.0000000 field for delta impulse in time
 
  Optional k-point grid parameters
   LKPOINTS_OPT  =     F    use optional k-point grid
   KPOINTS_OPT_MODE=     1    mode for optional k-point grid
 
 Orbital magnetization related:
   ORBITALMAG=     F  switch on orbital magnetization
   LCHIMAG   =     F  perturbation theory with respect to B field
   DQ        =  0.001000  dq finite difference perturbation B field
   LLRAUG    =     F  two centre corrections for induced B field



--------------------------------------------------------------------------------------------------------


 Static calculation
 charge density and potential will be updated during run
 non-spin polarized calculation
 Variant of blocked Davidson
 Davidson routine will perform the subspace rotation
 perform sub-space diagonalisation
    after iterative eigenvector-optimisation
 modified Broyden-mixing scheme, WC =      100.0
 initial mixing is a Kerker type mixing with AMIX =  0.4000 and BMIX =      1.0000
 Hartree-type preconditioning will be used
 using additional bands           88
 real space projection scheme for non local part
 use partial core corrections
 calculate Harris-corrections to forces 
   (improved forces if not selfconsistent)
 use gradient corrections 
 use of overlap-Matrix (Vanderbilt PP)
 Gauss-broadening in eV      SIGMA  =   0.10


--------------------------------------------------------------------------------------------------------


  energy-cutoff  :      530.00
  volume of cell :     2210.64
      direct lattice vectors                 reciprocal lattice vectors
     9.498399734  0.000000000  0.000000000     0.105280892  0.000000000  0.000000000
     0.000000000  9.498399734  0.000000000     0.000000000  0.105280892  0.000000000
     0.000000000  0.000000000 24.502899170     0.000000000  0.000000000  0.040811497

  length of vectors
     9.498399734  9.498399734 24.502899170     0.105280892  0.105280892  0.040811497


 
 k-points in units of 2pi/SCALE and weight: K-Spacing Value to Generate K-Mesh: 0.03
   0.00000000  0.00000000  0.00000000       0.062
   0.02632022  0.00000000  0.00000000       0.250
   0.05264045  0.00000000  0.00000000       0.125
   0.02632022  0.02632022  0.00000000       0.250
   0.05264045  0.02632022  0.00000000       0.250
   0.05264045  0.05264045  0.00000000       0.062
 
 k-points in reciprocal lattice and weights: K-Spacing Value to Generate K-Mesh: 0.03
   0.00000000  0.00000000  0.00000000       0.062
   0.25000000  0.00000000  0.00000000       0.250
   0.50000000  0.00000000  0.00000000       0.125
   0.25000000  0.25000000  0.00000000       0.250
   0.50000000  0.25000000  0.00000000       0.250
   0.50000000  0.50000000  0.00000000       0.062
 
 position of ions in fractional coordinates (direct lattice) 
   0.00000000  0.00000000  0.00000000
   0.00000000  0.00000000  0.38146186
   0.16667000  0.16667000  0.06464000
   0.33333000  0.00000000  0.00000000
   0.33034713  0.00000000  0.38061688
   0.50000000  0.16667000  0.06464000
   0.66667000  0.00000000  0.00000000
   0.66965287  0.00000000  0.38061688
   0.83333000  0.16667000  0.06464000
   0.00000000  0.33333000  0.00000000
   0.00000000  0.33034713  0.38061688
   0.16667000  0.50000000  0.06464000
   0.33333000  0.33333000  0.00000000
   0.35490354  0.35490354  0.38478675
   0.50000000  0.50000000  0.06464000
   0.66667000  0.33333000  0.00000000
   0.64509646  0.35490354  0.38478675
   0.83333000  0.50000000  0.06464000
   0.00000000  0.66667000  0.00000000
   0.00000000  0.66965287  0.38061688
   0.16667000  0.83333000  0.06464000
   0.33333000  0.66667000  0.00000000
   0.35490354  0.64509646  0.38478675
   0.50000000  0.83333000  0.06464000
   0.66667000  0.66667000  0.00000000
   0.64509646  0.64509646  0.38478675
   0.83333000  0.83333000  0.06464000
   0.00000000  0.00000000  0.12928000
   0.16667000  0.16667000  0.19391000
   0.33333000  0.00000000  0.12928000
   0.50000000  0.16667000  0.19391000
   0.66667000  0.00000000  0.12928000
   0.83333000  0.16667000  0.19391000
   0.00000000  0.33333000  0.12928000
   0.16667000  0.50000000  0.19391000
   0.33333000  0.33333000  0.12928000
   0.50000000  0.50000000  0.19391000
   0.66667000  0.33333000  0.12928000
   0.83333000  0.50000000  0.19391000
   0.00000000  0.66667000  0.12928000
   0.16667000  0.83333000  0.19391000
   0.33333000  0.66667000  0.12928000
   0.50000000  0.83333000  0.19391000
   0.66667000  0.66667000  0.12928000
   0.83333000  0.83333000  0.19391000
   0.00000000  0.00000000  0.25855000
   0.16666216  0.16666216  0.32527315
   0.33333000  0.00000000  0.25855000
   0.50000000  0.16524170  0.32465823
   0.66667000  0.00000000  0.25855000
   0.83333784  0.16666216  0.32527315
   0.00000000  0.33333000  0.25855000
   0.16524170  0.50000000  0.32465823
   0.33333000  0.33333000  0.25855000
   0.50000000  0.50000000  0.31594352
   0.66667000  0.33333000  0.25855000
   0.83475830  0.50000000  0.32465823
   0.00000000  0.66667000  0.25855000
   0.16666216  0.83333784  0.32527315
   0.33333000  0.66667000  0.25855000
   0.50000000  0.83475830  0.32465823
   0.66667000  0.66667000  0.25855000
   0.83333784  0.83333784  0.32527315
 
 position of ions in cartesian coordinates  (Angst):
   0.00000000  0.00000000  0.00000000
   0.00000000  0.00000000  9.34692144
   1.58309828  1.58309828  1.58386740
   3.16610158  0.00000000  0.00000000
   3.13776910  0.00000000  9.32621711
   4.74919987  1.58309828  1.58386740
   6.33229815  0.00000000  0.00000000
   6.36063063  0.00000000  9.32621711
   7.91530145  1.58309828  1.58386740
   0.00000000  3.16610158  0.00000000
   0.00000000  3.13776910  9.32621711
   1.58309828  4.74919987  1.58386740
   3.16610158  3.16610158  0.00000000
   3.37101569  3.37101569  9.42839090
   4.74919987  4.74919987  1.58386740
   6.33229815  3.16610158  0.00000000
   6.12738405  3.37101569  9.42839090
   7.91530145  4.74919987  1.58386740
   0.00000000  6.33229815  0.00000000
   0.00000000  6.36063063  9.32621711
   1.58309828  7.91530145  1.58386740
   3.16610158  6.33229815  0.00000000
   3.37101569  6.12738405  9.42839090
   4.74919987  7.91530145  1.58386740
   6.33229815  6.33229815  0.00000000
   6.12738405  6.12738405  9.42839090
   7.91530145  7.91530145  1.58386740
   0.00000000  0.00000000  3.16773480
   1.58309828  1.58309828  4.75135718
   3.16610158  0.00000000  3.16773480
   4.74919987  1.58309828  4.75135718
   6.33229815  0.00000000  3.16773480
   7.91530145  1.58309828  4.75135718
   0.00000000  3.16610158  3.16773480
   1.58309828  4.74919987  4.75135718
   3.16610158  3.16610158  3.16773480
   4.74919987  4.74919987  4.75135718
   6.33229815  3.16610158  3.16773480
   7.91530145  4.74919987  4.75135718
   0.00000000  6.33229815  3.16773480
   1.58309828  7.91530145  4.75135718
   3.16610158  6.33229815  3.16773480
   4.74919987  7.91530145  4.75135718
   6.33229815  6.33229815  3.16773480
   7.91530145  7.91530145  4.75135718
   0.00000000  0.00000000  6.33522458
   1.58302386  1.58302386  7.97013526
   3.16610158  0.00000000  6.33522458
   4.74919987  1.56953175  7.95506780
   6.33229815  0.00000000  6.33522458
   7.91537587  1.58302386  7.97013526
   0.00000000  3.16610158  6.33522458
   1.56953175  4.74919987  7.95506780
   3.16610158  3.16610158  6.33522458
   4.74919987  4.74919987  7.74153221
   6.33229815  3.16610158  6.33522458
   7.92886798  4.74919987  7.95506780
   0.00000000  6.33229815  6.33522458
   1.58302386  7.91537587  7.97013526
   3.16610158  6.33229815  6.33522458
   4.74919987  7.92886798  7.95506780
   6.33229815  6.33229815  6.33522458
   7.91537587  7.91537587  7.97013526
 


--------------------------------------------------------------------------------------------------------


 k-point   1 :   0.0000 0.0000 0.0000  plane waves:   61279
 k-point   2 :   0.2500 0.0000 0.0000  plane waves:   61234
 k-point   3 :   0.5000 0.0000 0.0000  plane waves:   61280
 k-point   4 :   0.2500 0.2500 0.0000  plane waves:   61217
 k-point   5 :   0.5000 0.2500 0.0000  plane waves:   61214
 k-point   6 :   0.5000 0.5000 0.0000  plane waves:   61212

 maximum and minimum number of plane-waves per node :     61280    61212

 maximum number of plane-waves:     61280
 maximum index in each direction: 
   IXMAX=   17   IYMAX=   17   IZMAX=   45
   IXMIN=  -18   IYMIN=  -18   IZMIN=  -45


 serial   3D FFT for wavefunctions
 parallel 3D FFT for charge:
    minimum data exchange during FFTs selected (reduces bandwidth)


 total amount of memory used by VASP MPI-rank0  1867921. kBytes
=======================================================================

   base      :      30000. kBytes
   nonlr-proj:      84753. kBytes
   fftplans  :     272216. kBytes
   grid      :     423429. kBytes
   one-center:        979. kBytes
   wavefun   :    1056544. kBytes
 
     INWAV:  cpu time      0.0001: real time      0.0000
 Broyden mixing: mesh for mixing (old mesh)
   NGX = 35   NGY = 35   NGZ = 91
  (NGX  =144   NGY  =144   NGZ  =384)
  gives a total of 111475 points

 initial charge density was supplied:
 charge density of overlapping atoms calculated
 number of electron     882.0000000 magnetization 
 keeping initial charge density in first step


--------------------------------------------------------------------------------------------------------


 Maximum index for non-local projection operator         7681
 Maximum index for augmentation-charges        19177 (set IRDMAX)


--------------------------------------------------------------------------------------------------------


 First call to EWALD:  gamma=   0.136
 Maximum number of real-space cells 4x 4x 2
 Maximum number of reciprocal cells 2x 2x 5

    FEWALD:  cpu time      0.0123: real time      0.0062


--------------------------------------- Iteration      1(   1)  ---------------------------------------


    POTLOK:  cpu time      9.8218: real time      1.5113
    SETDIJ:  cpu time      1.7796: real time      0.2559
     EDDAV:  cpu time    100.8287: real time     14.5109
       DOS:  cpu time      0.0305: real time      0.0044
    --------------------------------------------
      LOOP:  cpu time    112.4612: real time     16.2826

 eigenvalue-minimisations  :  7676
 total energy-change (2. order) : 0.1082929E+05  (-0.5641219E+05)
 number of electron     882.0000000 magnetization 
 augmentation part      882.0000000 magnetization 

 Free energy of the ion-electron system (eV)
  ---------------------------------------------------
  alpha Z        PSCENC =      3308.69179504
  Ewald energy   TEWEN  =    390411.25266016
  -Hartree energ DENC   =   -497822.30383519
  -exchange      EXHF   =         0.00000000
  -V(xc)+E(xc)   XCENC  =      4178.83407909
  PAW double counting   =     94362.70771030   -93198.19953119
  entropy T*S    EENTRO =        -0.16524647
  eigenvalues    EBANDS =     -7735.15415025
  atomic energy  EATOM  =    117323.63093996
  Solvation  Ediel_sol  =         0.00000000
  ---------------------------------------------------
  free energy    TOTEN  =     10829.29442145 eV

  energy without entropy =    10829.45966792  energy(sigma->0) =    10829.37704469


--------------------------------------------------------------------------------------------------------




--------------------------------------- Iteration      1(   2)  ---------------------------------------


     EDDAV:  cpu time     93.5857: real time     13.4229
       DOS:  cpu time      0.0250: real time      0.0036
    --------------------------------------------
      LOOP:  cpu time     93.6105: real time     13.4264

 eigenvalue-minimisations  :  6954
 total energy-change (2. order) :-0.1106891E+05  (-0.1077876E+05)
 number of electron     882.0000000 magnetization 
 augmentation part      882.0000000 magnetization 

 Free energy of the ion-electron system (eV)
  ---------------------------------------------------
  alpha Z        PSCENC =      3308.69179504
  Ewald energy   TEWEN  =    390411.25266016
  -Hartree energ DENC   =   -497822.30383519
  -exchange      EXHF   =         0.00000000
  -V(xc)+E(xc)   XCENC  =      4178.83407909
  PAW double counting   =     94362.70771030   -93198.19953119
  entropy T*S    EENTRO =        -0.28303687
  eigenvalues    EBANDS =    -18803.94276115
  atomic energy  EATOM  =    117323.63093996
  Solvation  Ediel_sol  =         0.00000000
  ---------------------------------------------------
  free energy    TOTEN  =      -239.61197985 eV

  energy without entropy =     -239.32894298  energy(sigma->0) =     -239.47046141


--------------------------------------------------------------------------------------------------------




--------------------------------------- Iteration      1(   3)  ---------------------------------------


     EDDAV:  cpu time    113.1310: real time     16.2211
       DOS:  cpu time      0.0255: real time      0.0036
    --------------------------------------------
      LOOP:  cpu time    113.1564: real time     16.2247

 eigenvalue-minimisations  :  8840
 total energy-change (2. order) :-0.4497769E+03  (-0.4314469E+03)
 number of electron     882.0000000 magnetization 
 augmentation part      882.0000000 magnetization 

 Free energy of the ion-electron system (eV)
  ---------------------------------------------------
  alpha Z        PSCENC =      3308.69179504
  Ewald energy   TEWEN  =    390411.25266016
  -Hartree energ DENC   =   -497822.30383519
  -exchange      EXHF   =         0.00000000
  -V(xc)+E(xc)   XCENC  =      4178.83407909
  PAW double counting   =     94362.70771030   -93198.19953119
  entropy T*S    EENTRO =        -0.31772702
  eigenvalues    EBANDS =    -19253.68493017
  atomic energy  EATOM  =    117323.63093996
  Solvation  Ediel_sol  =         0.00000000
  ---------------------------------------------------
  free energy    TOTEN  =      -689.38883902 eV

  energy without entropy =     -689.07111200  energy(sigma->0) =     -689.22997551


--------------------------------------------------------------------------------------------------------




--------------------------------------- Iteration      1(   4)  ---------------------------------------


     EDDAV:  cpu time    105.5355: real time     15.2353
       DOS:  cpu time      0.0069: real time      0.0034
    --------------------------------------------
      LOOP:  cpu time    105.5421: real time     15.2387

 eigenvalue-minimisations  :  8128
 total energy-change (2. order) :-0.1988487E+02  (-0.1908420E+02)
 number of electron     882.0000000 magnetization 
 augmentation part      882.0000000 magnetization 

 Free energy of the ion-electron system (eV)
  ---------------------------------------------------
  alpha Z        PSCENC =      3308.69179504
  Ewald energy   TEWEN  =    390411.25266016
  -Hartree energ DENC   =   -497822.30383519
  -exchange      EXHF   =         0.00000000
  -V(xc)+E(xc)   XCENC  =      4178.83407909
  PAW double counting   =     94362.70771030   -93198.19953119
  entropy T*S    EENTRO =        -0.35620379
  eigenvalues    EBANDS =    -19273.53132429
  atomic energy  EATOM  =    117323.63093996
  Solvation  Ediel_sol  =         0.00000000
  ---------------------------------------------------
  free energy    TOTEN  =      -709.27370991 eV

  energy without entropy =     -708.91750612  energy(sigma->0) =     -709.09560801


--------------------------------------------------------------------------------------------------------




--------------------------------------- Iteration      1(   5)  ---------------------------------------


     EDDAV:  cpu time    111.3500: real time     16.0176
       DOS:  cpu time      0.0240: real time      0.0034
    CHARGE:  cpu time      2.8825: real time      0.6502
    MIXING:  cpu time      0.9007: real time      0.1289
    --------------------------------------------
      LOOP:  cpu time    115.1581: real time     16.8002

 eigenvalue-minimisations  :  8736
 total energy-change (2. order) :-0.1141709E+01  (-0.1118881E+01)
 number of electron     882.0000112 magnetization 
 augmentation part      144.8127208 magnetization 

 Broyden mixing:
  rms(total) = 0.10316E+02    rms(broyden)= 0.10316E+02
  rms(prec ) = 0.10725E+02
  weight for this iteration     100.00

 Free energy of the ion-electron system (eV)
  ---------------------------------------------------
  alpha Z        PSCENC =      3308.69179504
  Ewald energy   TEWEN  =    390411.25266016
  -Hartree energ DENC   =   -497822.30383519
  -exchange      EXHF   =         0.00000000
  -V(xc)+E(xc)   XCENC  =      4178.83407909
  PAW double counting   =     94362.70771030   -93198.19953119
  entropy T*S    EENTRO =        -0.35817468
  eigenvalues    EBANDS =    -19274.67106226
  atomic energy  EATOM  =    117323.63093996
  Solvation  Ediel_sol  =         0.00000000
  ---------------------------------------------------
  free energy    TOTEN  =      -710.41541876 eV

  energy without entropy =     -710.05724408  energy(sigma->0) =     -710.23633142


--------------------------------------------------------------------------------------------------------




--------------------------------------- Iteration      1(   6)  ---------------------------------------


    POTLOK:  cpu time      9.8078: real time      1.4993
    SETDIJ:  cpu time      1.5771: real time      0.2254
     EDDAV:  cpu time    106.6662: real time     15.2918
       DOS:  cpu time      0.0282: real time      0.0040
    CHARGE:  cpu time      2.8463: real time      0.6248
    MIXING:  cpu time      0.6910: real time      0.0987
    --------------------------------------------
      LOOP:  cpu time    121.6166: real time     17.7439

 eigenvalue-minimisations  :  8288
 total energy-change (2. order) :-0.1572382E+01  (-0.3952376E+02)
 number of electron     882.0000116 magnetization 
 augmentation part      153.4586330 magnetization 

 Broyden mixing:
  rms(total) = 0.64433E+01    rms(broyden)= 0.64433E+01
  rms(prec ) = 0.83696E+01
  weight for this iteration     100.00

 eigenvalues of (default mixing * dielectric matrix)
  average eigenvalue GAMMA=   0.9529
  0.9529

 Free energy of the ion-electron system (eV)
  ---------------------------------------------------
  alpha Z        PSCENC =      3308.69179504
  Ewald energy   TEWEN  =    390411.25266016
  -Hartree energ DENC   =   -497374.85701150
  -exchange      EXHF   =         0.00000000
  -V(xc)+E(xc)   XCENC  =      4126.67949525
  PAW double counting   =     99771.20683661   -98748.04920509
  entropy T*S    EENTRO =        -0.31062392
  eigenvalues    EBANDS =    -19530.23268718
  atomic energy  EATOM  =    117323.63093996
  Solvation  Ediel_sol  =         0.00000000
  ---------------------------------------------------
  free energy    TOTEN  =      -711.98780068 eV

  energy without entropy =     -711.67717676  energy(sigma->0) =     -711.83248872


--------------------------------------------------------------------------------------------------------




--------------------------------------- Iteration      1(   7)  ---------------------------------------


    POTLOK:  cpu time      9.7489: real time      1.4879
    SETDIJ:  cpu time      1.4557: real time      0.2080
     EDDAV:  cpu time    105.6153: real time     15.1283
       DOS:  cpu time      0.0282: real time      0.0040
    CHARGE:  cpu time      2.8568: real time      0.6281
    MIXING:  cpu time      0.7036: real time      0.1005
    --------------------------------------------
      LOOP:  cpu time    120.4086: real time     17.5568

 eigenvalue-minimisations  :  8086
 total energy-change (2. order) :-0.3639833E+02  (-0.9079322E+02)
 number of electron     882.0000130 magnetization 
 augmentation part      154.9199456 magnetization 

 Broyden mixing:
  rms(total) = 0.53618E+01    rms(broyden)= 0.53618E+01
  rms(prec ) = 0.88007E+01
  weight for this iteration     100.00

 eigenvalues of (default mixing * dielectric matrix)
  average eigenvalue GAMMA=   0.9071
  1.4870  0.3273

 Free energy of the ion-electron system (eV)
  ---------------------------------------------------
  alpha Z        PSCENC =      3308.69179504
  Ewald energy   TEWEN  =    390411.25266016
  -Hartree energ DENC   =   -496968.63378105
  -exchange      EXHF   =         0.00000000
  -V(xc)+E(xc)   XCENC  =      4125.16196448
  PAW double counting   =    101772.95972473  -100772.47167864
  entropy T*S    EENTRO =        -0.38372648
  eigenvalues    EBANDS =    -19948.59402928
  atomic energy  EATOM  =    117323.63093996
  Solvation  Ediel_sol  =         0.00000000
  ---------------------------------------------------
  free energy    TOTEN  =      -748.38613109 eV

  energy without entropy =     -748.00240461  energy(sigma->0) =     -748.19426785


--------------------------------------------------------------------------------------------------------




--------------------------------------- Iteration      1(   8)  ---------------------------------------


    POTLOK:  cpu time      9.7793: real time      1.4936
    SETDIJ:  cpu time      1.5115: real time      0.2160
     EDDAV:  cpu time    106.9978: real time     15.3970
       DOS:  cpu time      0.0282: real time      0.0040
    CHARGE:  cpu time      2.8493: real time      0.6296
    MIXING:  cpu time      0.7700: real time      0.1100
    --------------------------------------------
      LOOP:  cpu time    121.9361: real time     17.8503

 eigenvalue-minimisations  :  8272
 total energy-change (2. order) : 0.8063972E+02  (-0.2318793E+02)
 number of electron     882.0000120 magnetization 
 augmentation part      153.8604584 magnetization 

 Broyden mixing:
  rms(total) = 0.28576E+01    rms(broyden)= 0.28576E+01
  rms(prec ) = 0.32916E+01
  weight for this iteration     100.00

 eigenvalues of (default mixing * dielectric matrix)
  average eigenvalue GAMMA=   0.6932
  1.4736  0.3030  0.3030

 Free energy of the ion-electron system (eV)
  ---------------------------------------------------
  alpha Z        PSCENC =      3308.69179504
  Ewald energy   TEWEN  =    390411.25266016
  -Hartree energ DENC   =   -497153.53218491
  -exchange      EXHF   =         0.00000000
  -V(xc)+E(xc)   XCENC  =      4113.80912533
  PAW double counting   =    104571.91923441  -103604.72565362
  entropy T*S    EENTRO =        -0.28552544
  eigenvalues    EBANDS =    -19638.50679977
  atomic energy  EATOM  =    117323.63093996
  Solvation  Ediel_sol  =         0.00000000
  ---------------------------------------------------
  free energy    TOTEN  =      -667.74640883 eV

  energy without entropy =     -667.46088339  energy(sigma->0) =     -667.60364611


--------------------------------------------------------------------------------------------------------




--------------------------------------- Iteration      1(   9)  ---------------------------------------


    POTLOK:  cpu time      9.7722: real time      1.4917
    SETDIJ:  cpu time      1.5174: real time      0.2174
     EDDAV:  cpu time    107.5006: real time     15.4731
       DOS:  cpu time      0.0285: real time      0.0041
    CHARGE:  cpu time      2.8632: real time      0.6316
    MIXING:  cpu time      0.7678: real time      0.1097
    --------------------------------------------
      LOOP:  cpu time    122.4495: real time     17.9276

 eigenvalue-minimisations  :  8312
 total energy-change (2. order) : 0.1325514E+02  (-0.3569094E+01)
 number of electron     882.0000118 magnetization 
 augmentation part      153.9830992 magnetization 

 Broyden mixing:
  rms(total) = 0.16371E+01    rms(broyden)= 0.16371E+01
  rms(prec ) = 0.18656E+01
  weight for this iteration     100.00

 eigenvalues of (default mixing * dielectric matrix)
  average eigenvalue GAMMA=   0.6181
  1.4320  0.3053  0.3676  0.3676

 Free energy of the ion-electron system (eV)
  ---------------------------------------------------
  alpha Z        PSCENC =      3308.69179504
  Ewald energy   TEWEN  =    390411.25266016
  -Hartree energ DENC   =   -497139.79597520
  -exchange      EXHF   =         0.00000000
  -V(xc)+E(xc)   XCENC  =      4112.07611217
  PAW double counting   =    104362.74835435  -103402.00126439
  entropy T*S    EENTRO =        -0.30157976
  eigenvalues    EBANDS =    -19630.79231201
  atomic energy  EATOM  =    117323.63093996
  Solvation  Ediel_sol  =         0.00000000
  ---------------------------------------------------
  free energy    TOTEN  =      -654.49126969 eV

  energy without entropy =     -654.18968993  energy(sigma->0) =     -654.34047981


--------------------------------------------------------------------------------------------------------




--------------------------------------- Iteration      1(  10)  ---------------------------------------


    POTLOK:  cpu time      9.7576: real time      1.4958
    SETDIJ:  cpu time      1.4221: real time      0.2044
     EDDAV:  cpu time    110.1033: real time     15.9104
       DOS:  cpu time      0.0081: real time      0.0041
    CHARGE:  cpu time      2.1711: real time      0.6286
    MIXING:  cpu time      0.7434: real time      0.1062
    --------------------------------------------
      LOOP:  cpu time    124.2056: real time     18.3496

 eigenvalue-minimisations  :  8544
 total energy-change (2. order) : 0.6967307E+00  (-0.5829594E+00)
 number of electron     882.0000118 magnetization 
 augmentation part      154.1477584 magnetization 

 Broyden mixing:
  rms(total) = 0.13891E+01    rms(broyden)= 0.13891E+01
  rms(prec ) = 0.16181E+01
  weight for this iteration     100.00

 eigenvalues of (default mixing * dielectric matrix)
  average eigenvalue GAMMA=   0.5604
  1.4037  0.4220  0.4220  0.3056  0.2486

 Free energy of the ion-electron system (eV)
  ---------------------------------------------------
  alpha Z        PSCENC =      3308.69179504
  Ewald energy   TEWEN  =    390411.25266016
  -Hartree energ DENC   =   -497150.23472880
  -exchange      EXHF   =         0.00000000
  -V(xc)+E(xc)   XCENC  =      4110.98781935
  PAW double counting   =    104063.99699389  -103106.52295930
  entropy T*S    EENTRO =        -0.28495635
  eigenvalues    EBANDS =    -19615.31210293
  atomic energy  EATOM  =    117323.63093996
  Solvation  Ediel_sol  =         0.00000000
  ---------------------------------------------------
  free energy    TOTEN  =      -653.79453898 eV

  energy without entropy =     -653.50958263  energy(sigma->0) =     -653.65206081


--------------------------------------------------------------------------------------------------------




--------------------------------------- Iteration      1(  11)  ---------------------------------------


    POTLOK:  cpu time      9.7791: real time      1.4934
    SETDIJ:  cpu time      1.4959: real time      0.2137
     EDDAV:  cpu time    109.0539: real time     15.6143
       DOS:  cpu time      0.0248: real time      0.0035
    CHARGE:  cpu time      2.8657: real time      0.6308
    MIXING:  cpu time      0.7570: real time      0.1082
    --------------------------------------------
      LOOP:  cpu time    123.9765: real time     18.0639

 eigenvalue-minimisations  :  8400
 total energy-change (2. order) : 0.6220061E+00  (-0.8066693E-01)
 number of electron     882.0000118 magnetization 
 augmentation part      154.2190635 magnetization 

 Broyden mixing:
  rms(total) = 0.11911E+01    rms(broyden)= 0.11911E+01
  rms(prec ) = 0.13224E+01
  weight for this iteration     100.00

 eigenvalues of (default mixing * dielectric matrix)
  average eigenvalue GAMMA=   0.7075
  1.3245  0.9766  0.9766  0.4173  0.3014  0.2486

 Free energy of the ion-electron system (eV)
  ---------------------------------------------------
  alpha Z        PSCENC =      3308.69179504
  Ewald energy   TEWEN  =    390411.25266016
  -Hartree energ DENC   =   -497151.69748801
  -exchange      EXHF   =         0.00000000
  -V(xc)+E(xc)   XCENC  =      4110.41169874
  PAW double counting   =    103785.28658539  -102829.97659024
  entropy T*S    EENTRO =        -0.28115359
  eigenvalues    EBANDS =    -19610.49098037
  atomic energy  EATOM  =    117323.63093996
  Solvation  Ediel_sol  =         0.00000000
  ---------------------------------------------------
  free energy    TOTEN  =      -653.17253291 eV

  energy without entropy =     -652.89137932  energy(sigma->0) =     -653.03195612


--------------------------------------------------------------------------------------------------------




--------------------------------------- Iteration      1(  12)  ---------------------------------------


    POTLOK:  cpu time      9.7687: real time      1.4937
    SETDIJ:  cpu time      1.4486: real time      0.2070
     EDDAV:  cpu time    103.7747: real time     14.8624
       DOS:  cpu time      0.0263: real time      0.0038
    CHARGE:  cpu time      2.6000: real time      0.6291
    MIXING:  cpu time      0.7759: real time      0.1109
    --------------------------------------------
      LOOP:  cpu time    118.3942: real time     17.3068

 eigenvalue-minimisations  :  7896
 total energy-change (2. order) : 0.6447268E+00  (-0.8936857E-01)
 number of electron     882.0000118 magnetization 
 augmentation part      154.4207995 magnetization 

 Broyden mixing:
  rms(total) = 0.92074E+00    rms(broyden)= 0.92074E+00
  rms(prec ) = 0.10555E+01
  weight for this iteration     100.00

 eigenvalues of (default mixing * dielectric matrix)
  average eigenvalue GAMMA=   0.8737
  1.8210  1.8210  0.9512  0.4955  0.4955  0.3057  0.2261

 Free energy of the ion-electron system (eV)
  ---------------------------------------------------
  alpha Z        PSCENC =      3308.69179504
  Ewald energy   TEWEN  =    390411.25266016
  -Hartree energ DENC   =   -497186.19170241
  -exchange      EXHF   =         0.00000000
  -V(xc)+E(xc)   XCENC  =      4108.75271342
  PAW double counting   =    102979.43066767  -102030.45818765
  entropy T*S    EENTRO =        -0.27757142
  eigenvalues    EBANDS =    -19567.35912086
  atomic energy  EATOM  =    117323.63093996
  Solvation  Ediel_sol  =         0.00000000
  ---------------------------------------------------
  free energy    TOTEN  =      -652.52780610 eV

  energy without entropy =     -652.25023468  energy(sigma->0) =     -652.38902039


--------------------------------------------------------------------------------------------------------




--------------------------------------- Iteration      1(  13)  ---------------------------------------


    POTLOK:  cpu time      9.7819: real time      1.4939
    SETDIJ:  cpu time      1.4817: real time      0.2118
     EDDAV:  cpu time    109.1906: real time     15.6903
       DOS:  cpu time      0.0075: real time      0.0038
    CHARGE:  cpu time      2.1794: real time      0.6295
    MIXING:  cpu time      1.4680: real time      0.2098
    --------------------------------------------
      LOOP:  cpu time    124.1091: real time     18.2390

 eigenvalue-minimisations  :  8392
 total energy-change (2. order) : 0.5645001E+00  (-0.4649422E+00)
 number of electron     882.0000118 magnetization 
 augmentation part      154.7773240 magnetization 

 Broyden mixing:
  rms(total) = 0.59409E+00    rms(broyden)= 0.59408E+00
  rms(prec ) = 0.74065E+00
  weight for this iteration     100.00

 eigenvalues of (default mixing * dielectric matrix)
  average eigenvalue GAMMA=   0.8293
  1.9783  1.9783  0.8373  0.5046  0.5046  0.2240  0.3062  0.3011

 Free energy of the ion-electron system (eV)
  ---------------------------------------------------
  alpha Z        PSCENC =      3308.69179504
  Ewald energy   TEWEN  =    390411.25266016
  -Hartree energ DENC   =   -497270.08190988
  -exchange      EXHF   =         0.00000000
  -V(xc)+E(xc)   XCENC  =      4105.59734001
  PAW double counting   =    101432.66365454  -100496.86012178
  entropy T*S    EENTRO =        -0.29431819
  eigenvalues    EBANDS =    -19466.56334586
  atomic energy  EATOM  =    117323.63093996
  Solvation  Ediel_sol  =         0.00000000
  ---------------------------------------------------
  free energy    TOTEN  =      -651.96330601 eV

  energy without entropy =     -651.66898782  energy(sigma->0) =     -651.81614691


--------------------------------------------------------------------------------------------------------




--------------------------------------- Iteration      1(  14)  ---------------------------------------


    POTLOK:  cpu time      9.8476: real time      1.5031
    SETDIJ:  cpu time      1.4122: real time      0.2018
     EDDAV:  cpu time    107.8946: real time     15.4768
       DOS:  cpu time      0.0259: real time      0.0037
    CHARGE:  cpu time      2.5059: real time      0.6273
    MIXING:  cpu time      0.8507: real time      0.1215
    --------------------------------------------
      LOOP:  cpu time    122.5368: real time     17.9343

 eigenvalue-minimisations  :  8344
 total energy-change (2. order) : 0.4518110E+00  (-0.1904179E+00)
 number of electron     882.0000118 magnetization 
 augmentation part      154.8683728 magnetization 

 Broyden mixing:
  rms(total) = 0.33019E+00    rms(broyden)= 0.33019E+00
  rms(prec ) = 0.40857E+00
  weight for this iteration     100.00

 eigenvalues of (default mixing * dielectric matrix)
  average eigenvalue GAMMA=   0.8145
  1.9933  1.9933  0.6872  0.6872  0.5904  0.5904  0.3065  0.2276  0.2549

 Free energy of the ion-electron system (eV)
  ---------------------------------------------------
  alpha Z        PSCENC =      3308.69179504
  Ewald energy   TEWEN  =    390411.25266016
  -Hartree energ DENC   =   -497303.36768235
  -exchange      EXHF   =         0.00000000
  -V(xc)+E(xc)   XCENC  =      4104.73633425
  PAW double counting   =    101068.12469253  -100136.08973638
  entropy T*S    EENTRO =        -0.30306075
  eigenvalues    EBANDS =    -19428.18743744
  atomic energy  EATOM  =    117323.63093996
  Solvation  Ediel_sol  =         0.00000000
  ---------------------------------------------------
  free energy    TOTEN  =      -651.51149499 eV

  energy without entropy =     -651.20843424  energy(sigma->0) =     -651.35996461


--------------------------------------------------------------------------------------------------------




--------------------------------------- Iteration      1(  15)  ---------------------------------------


    POTLOK:  cpu time      9.8522: real time      1.5034
    SETDIJ:  cpu time      1.4082: real time      0.2013
     EDDAV:  cpu time    107.5894: real time     15.4147
       DOS:  cpu time      0.0075: real time      0.0037
    CHARGE:  cpu time      2.1799: real time      0.6304
    MIXING:  cpu time      0.8762: real time      0.1252
    --------------------------------------------
      LOOP:  cpu time    121.9135: real time     17.8788

 eigenvalue-minimisations  :  8216
 total energy-change (2. order) : 0.4182437E-01  (-0.3830970E-01)
 number of electron     882.0000117 magnetization 
 augmentation part      154.8931871 magnetization 

 Broyden mixing:
  rms(total) = 0.27100E+00    rms(broyden)= 0.27100E+00
  rms(prec ) = 0.35576E+00
  weight for this iteration     100.00

 eigenvalues of (default mixing * dielectric matrix)
  average eigenvalue GAMMA=   0.8282
  1.9653  1.9653  1.0317  1.0317  0.5666  0.5666  0.3745  0.3071  0.2250  0.2477

 Free energy of the ion-electron system (eV)
  ---------------------------------------------------
  alpha Z        PSCENC =      3308.69179504
  Ewald energy   TEWEN  =    390411.25266016
  -Hartree energ DENC   =   -497326.39428280
  -exchange      EXHF   =         0.00000000
  -V(xc)+E(xc)   XCENC  =      4104.65727448
  PAW double counting   =    101127.44629371  -100195.97683917
  entropy T*S    EENTRO =        -0.29790526
  eigenvalues    EBANDS =    -19404.47960674
  atomic energy  EATOM  =    117323.63093996
  Solvation  Ediel_sol  =         0.00000000
  ---------------------------------------------------
  free energy    TOTEN  =      -651.46967062 eV

  energy without entropy =     -651.17176536  energy(sigma->0) =     -651.32071799


--------------------------------------------------------------------------------------------------------




--------------------------------------- Iteration      1(  16)  ---------------------------------------


    POTLOK:  cpu time      9.8634: real time      1.5086
    SETDIJ:  cpu time      1.5237: real time      0.2177
     EDDAV:  cpu time    106.1078: real time     15.2823
       DOS:  cpu time      0.0269: real time      0.0039
    CHARGE:  cpu time      2.6798: real time      0.6291
    MIXING:  cpu time      0.9238: real time      0.1322
    --------------------------------------------
      LOOP:  cpu time    121.1254: real time     17.7738

 eigenvalue-minimisations  :  8160
 total energy-change (2. order) : 0.9402296E-01  (-0.2463020E-01)
 number of electron     882.0000118 magnetization 
 augmentation part      154.8708580 magnetization 

 Broyden mixing:
  rms(total) = 0.17457E+00    rms(broyden)= 0.17457E+00
  rms(prec ) = 0.24970E+00
  weight for this iteration     100.00

 eigenvalues of (default mixing * dielectric matrix)
  average eigenvalue GAMMA=   0.8185
  2.1237  1.7252  1.2081  1.2081  0.5846  0.5846  0.4849  0.3167  0.3021  0.2254
  0.2399

 Free energy of the ion-electron system (eV)
  ---------------------------------------------------
  alpha Z        PSCENC =      3308.69179504
  Ewald energy   TEWEN  =    390411.25266016
  -Hartree energ DENC   =   -497361.46994390
  -exchange      EXHF   =         0.00000000
  -V(xc)+E(xc)   XCENC  =      4104.75034267
  PAW double counting   =    101250.67368660  -100319.22763352
  entropy T*S    EENTRO =        -0.29909466
  eigenvalues    EBANDS =    -19369.37840001
  atomic energy  EATOM  =    117323.63093996
  Solvation  Ediel_sol  =         0.00000000
  ---------------------------------------------------
  free energy    TOTEN  =      -651.37564766 eV

  energy without entropy =     -651.07655300  energy(sigma->0) =     -651.22610033


--------------------------------------------------------------------------------------------------------




--------------------------------------- Iteration      1(  17)  ---------------------------------------


    POTLOK:  cpu time      9.8967: real time      1.5146
    SETDIJ:  cpu time      1.5106: real time      0.2159
     EDDAV:  cpu time    106.7044: real time     15.3135
       DOS:  cpu time      0.0276: real time      0.0040
    CHARGE:  cpu time      2.7260: real time      0.6282
    MIXING:  cpu time      0.9365: real time      0.1338
    --------------------------------------------
      LOOP:  cpu time    121.8020: real time     17.8100

 eigenvalue-minimisations  :  8192
 total energy-change (2. order) : 0.4800578E-01  (-0.1251970E-01)
 number of electron     882.0000118 magnetization 
 augmentation part      154.8371826 magnetization 

 Broyden mixing:
  rms(total) = 0.11521E+00    rms(broyden)= 0.11521E+00
  rms(prec ) = 0.19474E+00
  weight for this iteration     100.00

 eigenvalues of (default mixing * dielectric matrix)
  average eigenvalue GAMMA=   0.8024
  2.0215  1.6521  1.3761  1.3761  0.6119  0.5887  0.5887  0.3756  0.3051  0.2706
  0.2244  0.2377

 Free energy of the ion-electron system (eV)
  ---------------------------------------------------
  alpha Z        PSCENC =      3308.69179504
  Ewald energy   TEWEN  =    390411.25266016
  -Hartree energ DENC   =   -497387.08161983
  -exchange      EXHF   =         0.00000000
  -V(xc)+E(xc)   XCENC  =      4104.93512443
  PAW double counting   =    101353.24274773  -100421.35054954
  entropy T*S    EENTRO =        -0.29617609
  eigenvalues    EBANDS =    -19344.35256375
  atomic energy  EATOM  =    117323.63093996
  Solvation  Ediel_sol  =         0.00000000
  ---------------------------------------------------
  free energy    TOTEN  =      -651.32764188 eV

  energy without entropy =     -651.03146579  energy(sigma->0) =     -651.17955384


--------------------------------------------------------------------------------------------------------




--------------------------------------- Iteration      1(  18)  ---------------------------------------


    POTLOK:  cpu time      9.8668: real time      1.5094
    SETDIJ:  cpu time      1.4432: real time      0.2063
     EDDAV:  cpu time    106.6212: real time     15.2701
       DOS:  cpu time      0.0266: real time      0.0038
    CHARGE:  cpu time      2.8439: real time      0.6273
    MIXING:  cpu time      0.9694: real time      0.1389
    --------------------------------------------
      LOOP:  cpu time    121.7711: real time     17.7558

 eigenvalue-minimisations  :  8176
 total energy-change (2. order) : 0.3016234E-01  (-0.5217352E-02)
 number of electron     882.0000118 magnetization 
 augmentation part      154.8091301 magnetization 

 Broyden mixing:
  rms(total) = 0.84362E-01    rms(broyden)= 0.84362E-01
  rms(prec ) = 0.17126E+00
  weight for this iteration     100.00

 eigenvalues of (default mixing * dielectric matrix)
  average eigenvalue GAMMA=   0.7830
  2.0587  1.4928  1.4928  1.5111  0.6444  0.6444  0.5477  0.4469  0.3184  0.3111
  0.2527  0.2266  0.2316

 Free energy of the ion-electron system (eV)
  ---------------------------------------------------
  alpha Z        PSCENC =      3308.69179504
  Ewald energy   TEWEN  =    390411.25266016
  -Hartree energ DENC   =   -497413.26658565
  -exchange      EXHF   =         0.00000000
  -V(xc)+E(xc)   XCENC  =      4105.11262264
  PAW double counting   =    101437.87157992  -100505.53404091
  entropy T*S    EENTRO =        -0.29642753
  eigenvalues    EBANDS =    -19318.76002318
  atomic energy  EATOM  =    117323.63093996
  Solvation  Ediel_sol  =         0.00000000
  ---------------------------------------------------
  free energy    TOTEN  =      -651.29747954 eV

  energy without entropy =     -651.00105201  energy(sigma->0) =     -651.14926578


--------------------------------------------------------------------------------------------------------




--------------------------------------- Iteration      1(  19)  ---------------------------------------


    POTLOK:  cpu time      9.9074: real time      1.5172
    SETDIJ:  cpu time      1.4505: real time      0.2078
     EDDAV:  cpu time    106.3274: real time     15.2583
       DOS:  cpu time      0.0090: real time      0.0039
    CHARGE:  cpu time      2.1673: real time      0.6287
    MIXING:  cpu time      1.0064: real time      0.1438
    --------------------------------------------
      LOOP:  cpu time    120.8679: real time     17.7597

 eigenvalue-minimisations  :  8136
 total energy-change (2. order) : 0.3142415E-01  (-0.3214192E-02)
 number of electron     882.0000118 magnetization 
 augmentation part      154.7867810 magnetization 

 Broyden mixing:
  rms(total) = 0.72348E-01    rms(broyden)= 0.72347E-01
  rms(prec ) = 0.15370E+00
  weight for this iteration     100.00

 eigenvalues of (default mixing * dielectric matrix)
  average eigenvalue GAMMA=   0.8131
  2.2787  1.6370  1.6370  1.3663  0.8484  0.8484  0.5366  0.5366  0.4055  0.3051
  0.2959  0.2411  0.2263  0.2208

 Free energy of the ion-electron system (eV)
  ---------------------------------------------------
  alpha Z        PSCENC =      3308.69179504
  Ewald energy   TEWEN  =    390411.25266016
  -Hartree energ DENC   =   -497443.90514806
  -exchange      EXHF   =         0.00000000
  -V(xc)+E(xc)   XCENC  =      4105.22955982
  PAW double counting   =    101491.39732750  -100558.83955642
  entropy T*S    EENTRO =        -0.29653663
  eigenvalues    EBANDS =    -19288.42709677
  atomic energy  EATOM  =    117323.63093996
  Solvation  Ediel_sol  =         0.00000000
  ---------------------------------------------------
  free energy    TOTEN  =      -651.26605539 eV

  energy without entropy =     -650.96951877  energy(sigma->0) =     -651.11778708


--------------------------------------------------------------------------------------------------------




--------------------------------------- Iteration      1(  20)  ---------------------------------------


    POTLOK:  cpu time      9.8107: real time      1.5003
    SETDIJ:  cpu time      1.4782: real time      0.2112
     EDDAV:  cpu time    106.7114: real time     15.2880
       DOS:  cpu time      0.0261: real time      0.0037
    CHARGE:  cpu time      2.7402: real time      0.6275
    MIXING:  cpu time      1.0825: real time      0.1551
    --------------------------------------------
      LOOP:  cpu time    121.8492: real time     17.7859

 eigenvalue-minimisations  :  8232
 total energy-change (2. order) : 0.6988850E-01  (-0.3478789E-02)
 number of electron     882.0000118 magnetization 
 augmentation part      154.7536529 magnetization 

 Broyden mixing:
  rms(total) = 0.63881E-01    rms(broyden)= 0.63880E-01
  rms(prec ) = 0.12744E+00
  weight for this iteration     100.00

 eigenvalues of (default mixing * dielectric matrix)
  average eigenvalue GAMMA=   0.8812
  2.4110  2.4110  1.5632  1.3661  1.3661  0.6855  0.6855  0.5294  0.5294  0.3834
  0.3073  0.2936  0.2413  0.2254  0.2203

 Free energy of the ion-electron system (eV)
  ---------------------------------------------------
  alpha Z        PSCENC =      3308.69179504
  Ewald energy   TEWEN  =    390411.25266016
  -Hartree energ DENC   =   -497520.41983689
  -exchange      EXHF   =         0.00000000
  -V(xc)+E(xc)   XCENC  =      4105.36378035
  PAW double counting   =    101539.77698121  -100607.17989672
  entropy T*S    EENTRO =        -0.29649643
  eigenvalues    EBANDS =    -19212.01609356
  atomic energy  EATOM  =    117323.63093996
  Solvation  Ediel_sol  =         0.00000000
  ---------------------------------------------------
  free energy    TOTEN  =      -651.19616689 eV

  energy without entropy =     -650.89967047  energy(sigma->0) =     -651.04791868


--------------------------------------------------------------------------------------------------------




--------------------------------------- Iteration      1(  21)  ---------------------------------------


    POTLOK:  cpu time      9.7651: real time      1.5005
    SETDIJ:  cpu time      1.4710: real time      0.2103
     EDDAV:  cpu time    108.0589: real time     15.5051
       DOS:  cpu time      0.0255: real time      0.0036
    CHARGE:  cpu time      2.4187: real time      0.6299
    MIXING:  cpu time      1.1376: real time      0.1632
    --------------------------------------------
      LOOP:  cpu time    122.8768: real time     18.0126

 eigenvalue-minimisations  :  8344
 total energy-change (2. order) : 0.9209760E-01  (-0.6569844E-02)
 number of electron     882.0000118 magnetization 
 augmentation part      154.7060611 magnetization 

 Broyden mixing:
  rms(total) = 0.66715E-01    rms(broyden)= 0.66714E-01
  rms(prec ) = 0.98455E-01
  weight for this iteration     100.00

 eigenvalues of (default mixing * dielectric matrix)
  average eigenvalue GAMMA=   0.9163
  2.7842  2.7842  1.4495  1.4495  1.4759  0.7640  0.7640  0.5434  0.5434  0.4345
  0.3796  0.3060  0.2947  0.2419  0.2252  0.2204

 Free energy of the ion-electron system (eV)
  ---------------------------------------------------
  alpha Z        PSCENC =      3308.69179504
  Ewald energy   TEWEN  =    390411.25266016
  -Hartree energ DENC   =   -497641.52353092
  -exchange      EXHF   =         0.00000000
  -V(xc)+E(xc)   XCENC  =      4105.62069814
  PAW double counting   =    101606.90362350  -100673.93583091
  entropy T*S    EENTRO =        -0.29554248
  eigenvalues    EBANDS =    -19091.44888178
  atomic energy  EATOM  =    117323.63093996
  Solvation  Ediel_sol  =         0.00000000
  ---------------------------------------------------
  free energy    TOTEN  =      -651.10406930 eV

  energy without entropy =     -650.80852681  energy(sigma->0) =     -650.95629806


--------------------------------------------------------------------------------------------------------




--------------------------------------- Iteration      1(  22)  ---------------------------------------


    POTLOK:  cpu time      9.9517: real time      1.5275
    SETDIJ:  cpu time      1.4025: real time      0.2006
     EDDAV:  cpu time    107.4590: real time     15.3976
       DOS:  cpu time      0.0250: real time      0.0036
    CHARGE:  cpu time      2.4486: real time      0.6296
    MIXING:  cpu time      1.1135: real time      0.1601
    --------------------------------------------
      LOOP:  cpu time    122.4003: real time     17.9191

 eigenvalue-minimisations  :  8248
 total energy-change (2. order) : 0.4049137E-01  (-0.3143927E-02)
 number of electron     882.0000118 magnetization 
 augmentation part      154.7030084 magnetization 

 Broyden mixing:
  rms(total) = 0.67153E-01    rms(broyden)= 0.67153E-01
  rms(prec ) = 0.92444E-01
  weight for this iteration     100.00

 eigenvalues of (default mixing * dielectric matrix)
  average eigenvalue GAMMA=   0.9206
  3.2527  2.6971  1.5398  1.5398  1.4034  0.8439  0.8439  0.5584  0.5584  0.4646
  0.3780  0.3028  0.3012  0.2785  0.2420  0.2254  0.2203

 Free energy of the ion-electron system (eV)
  ---------------------------------------------------
  alpha Z        PSCENC =      3308.69179504
  Ewald energy   TEWEN  =    390411.25266016
  -Hartree energ DENC   =   -497704.89186164
  -exchange      EXHF   =         0.00000000
  -V(xc)+E(xc)   XCENC  =      4105.61123414
  PAW double counting   =    101557.04119740  -100624.38057101
  entropy T*S    EENTRO =        -0.29395119
  eigenvalues    EBANDS =    -19027.72502079
  atomic energy  EATOM  =    117323.63093996
  Solvation  Ediel_sol  =         0.00000000
  ---------------------------------------------------
  free energy    TOTEN  =      -651.06357793 eV

  energy without entropy =     -650.76962674  energy(sigma->0) =     -650.91660233


--------------------------------------------------------------------------------------------------------




--------------------------------------- Iteration      1(  23)  ---------------------------------------


    POTLOK:  cpu time      9.7520: real time      1.4943
    SETDIJ:  cpu time      1.5118: real time      0.2161
     EDDAV:  cpu time    102.6814: real time     14.7266
       DOS:  cpu time      0.0262: real time      0.0037
    CHARGE:  cpu time      2.6915: real time      0.6269
    MIXING:  cpu time      1.1591: real time      0.1688
    --------------------------------------------
      LOOP:  cpu time    117.8219: real time     17.2365

 eigenvalue-minimisations  :  7800
 total energy-change (2. order) : 0.4749221E-01  (-0.2976558E-02)
 number of electron     882.0000118 magnetization 
 augmentation part      154.7190621 magnetization 

 Broyden mixing:
  rms(total) = 0.35555E-01    rms(broyden)= 0.35555E-01
  rms(prec ) = 0.59444E-01
  weight for this iteration     100.00

 eigenvalues of (default mixing * dielectric matrix)
  average eigenvalue GAMMA=   0.9859
  4.0311  2.4831  1.7976  1.7976  1.2623  1.2623  0.7535  0.7535  0.5947  0.5947
  0.4836  0.3854  0.3064  0.2944  0.2252  0.2203  0.2418  0.2590

 Free energy of the ion-electron system (eV)
  ---------------------------------------------------
  alpha Z        PSCENC =      3308.69179504
  Ewald energy   TEWEN  =    390411.25266016
  -Hartree energ DENC   =   -497746.69865280
  -exchange      EXHF   =         0.00000000
  -V(xc)+E(xc)   XCENC  =      4105.51504597
  PAW double counting   =    101479.61866731  -100547.46246785
  entropy T*S    EENTRO =        -0.29525380
  eigenvalues    EBANDS =    -18985.26881970
  atomic energy  EATOM  =    117323.63093996
  Solvation  Ediel_sol  =         0.00000000
  ---------------------------------------------------
  free energy    TOTEN  =      -651.01608572 eV

  energy without entropy =     -650.72083192  energy(sigma->0) =     -650.86845882


--------------------------------------------------------------------------------------------------------




--------------------------------------- Iteration      1(  24)  ---------------------------------------


    POTLOK:  cpu time      9.6014: real time      1.4717
    SETDIJ:  cpu time      1.4752: real time      0.2107
     EDDAV:  cpu time    103.8490: real time     14.8746
       DOS:  cpu time      0.0257: real time      0.0037
    CHARGE:  cpu time      2.8629: real time      0.6307
    MIXING:  cpu time      1.2180: real time      0.1762
    --------------------------------------------
      LOOP:  cpu time    119.0321: real time     17.3676

 eigenvalue-minimisations  :  7936
 total energy-change (2. order) : 0.2680803E-01  (-0.2863184E-02)
 number of electron     882.0000118 magnetization 
 augmentation part      154.7318082 magnetization 

 Broyden mixing:
  rms(total) = 0.42789E-01    rms(broyden)= 0.42789E-01
  rms(prec ) = 0.58991E-01
  weight for this iteration     100.00

 eigenvalues of (default mixing * dielectric matrix)
  average eigenvalue GAMMA=   1.1028
  6.1850  2.6135  1.8209  1.8209  1.4500  1.4500  0.8224  0.8224  0.5829  0.5829
  0.4849  0.3869  0.3869  0.3070  0.2941  0.2253  0.2203  0.2417  0.2550

 Free energy of the ion-electron system (eV)
  ---------------------------------------------------
  alpha Z        PSCENC =      3308.69179504
  Ewald energy   TEWEN  =    390411.25266016
  -Hartree energ DENC   =   -497817.32849334
  -exchange      EXHF   =         0.00000000
  -V(xc)+E(xc)   XCENC  =      4105.36401784
  PAW double counting   =    101356.33467275  -100424.98931061
  entropy T*S    EENTRO =        -0.29438149
  eigenvalues    EBANDS =    -18913.65117800
  atomic energy  EATOM  =    117323.63093996
  Solvation  Ediel_sol  =         0.00000000
  ---------------------------------------------------
  free energy    TOTEN  =      -650.98927769 eV

  energy without entropy =     -650.69489620  energy(sigma->0) =     -650.84208694


--------------------------------------------------------------------------------------------------------




--------------------------------------- Iteration      1(  25)  ---------------------------------------


    POTLOK:  cpu time      9.5146: real time      1.4630
    SETDIJ:  cpu time      1.5801: real time      0.2258
     EDDAV:  cpu time    103.7125: real time     14.8577
       DOS:  cpu time      0.0262: real time      0.0037
    CHARGE:  cpu time      2.8566: real time      0.6275
    MIXING:  cpu time      1.4210: real time      0.2030
    --------------------------------------------
      LOOP:  cpu time    119.1111: real time     17.3807

 eigenvalue-minimisations  :  7904
 total energy-change (2. order) : 0.3026367E-02  (-0.1485989E-02)
 number of electron     882.0000118 magnetization 
 augmentation part      154.7247218 magnetization 

 Broyden mixing:
  rms(total) = 0.36135E-01    rms(broyden)= 0.36135E-01
  rms(prec ) = 0.45796E-01
  weight for this iteration     100.00

 eigenvalues of (default mixing * dielectric matrix)
  average eigenvalue GAMMA=   1.1493
  7.3871  2.7423  1.6738  1.6738  1.5802  1.5802  0.8706  0.8706  0.5981  0.5981
  0.6059  0.4783  0.4068  0.3778  0.3067  0.2943  0.2253  0.2203  0.2417  0.2551

 Free energy of the ion-electron system (eV)
  ---------------------------------------------------
  alpha Z        PSCENC =      3308.69179504
  Ewald energy   TEWEN  =    390411.25266016
  -Hartree energ DENC   =   -497881.75257691
  -exchange      EXHF   =         0.00000000
  -V(xc)+E(xc)   XCENC  =      4105.34789186
  PAW double counting   =    101310.93789654  -100379.85890902
  entropy T*S    EENTRO =        -0.29416360
  eigenvalues    EBANDS =    -18848.94178536
  atomic energy  EATOM  =    117323.63093996
  Solvation  Ediel_sol  =         0.00000000
  ---------------------------------------------------
  free energy    TOTEN  =      -650.98625132 eV

  energy without entropy =     -650.69208772  energy(sigma->0) =     -650.83916952


--------------------------------------------------------------------------------------------------------




--------------------------------------- Iteration      1(  26)  ---------------------------------------


    POTLOK:  cpu time      9.5580: real time      1.4648
    SETDIJ:  cpu time      1.5899: real time      0.2272
     EDDAV:  cpu time     99.3677: real time     14.3534
       DOS:  cpu time      0.0072: real time      0.0036
    CHARGE:  cpu time      2.2094: real time      0.6461
    MIXING:  cpu time      1.3458: real time      0.1923
    --------------------------------------------
      LOOP:  cpu time    114.0780: real time     16.8874

 eigenvalue-minimisations  :  7472
 total energy-change (2. order) :-0.2178775E-01  (-0.7639526E-03)
 number of electron     882.0000118 magnetization 
 augmentation part      154.7184705 magnetization 

 Broyden mixing:
  rms(total) = 0.17480E-01    rms(broyden)= 0.17480E-01
  rms(prec ) = 0.25490E-01
  weight for this iteration     100.00

 eigenvalues of (default mixing * dielectric matrix)
  average eigenvalue GAMMA=   1.2406
  8.9906  2.9709  2.0348  1.7113  1.7113  1.1346  1.1346  1.0363  0.7012  0.7012
  0.5714  0.5714  0.4793  0.3861  0.3744  0.3067  0.2942  0.2253  0.2203  0.2417
  0.2551

 Free energy of the ion-electron system (eV)
  ---------------------------------------------------
  alpha Z        PSCENC =      3308.69179504
  Ewald energy   TEWEN  =    390411.25266016
  -Hartree energ DENC   =   -497883.82289391
  -exchange      EXHF   =         0.00000000
  -V(xc)+E(xc)   XCENC  =      4105.38009235
  PAW double counting   =    101361.10923658  -100429.74894183
  entropy T*S    EENTRO =        -0.29354044
  eigenvalues    EBANDS =    -18847.20738698
  atomic energy  EATOM  =    117323.63093996
  Solvation  Ediel_sol  =         0.00000000
  ---------------------------------------------------
  free energy    TOTEN  =      -651.00803907 eV

  energy without entropy =     -650.71449862  energy(sigma->0) =     -650.86126884


--------------------------------------------------------------------------------------------------------




--------------------------------------- Iteration      1(  27)  ---------------------------------------


    POTLOK:  cpu time      9.6423: real time      1.4770
    SETDIJ:  cpu time      1.8497: real time      0.2643
     EDDAV:  cpu time    100.6004: real time     14.5613
       DOS:  cpu time      0.0072: real time      0.0036
    CHARGE:  cpu time      2.1767: real time      0.6295
    MIXING:  cpu time      1.4895: real time      0.2129
    --------------------------------------------
      LOOP:  cpu time    115.7657: real time     17.1486

 eigenvalue-minimisations  :  7640
 total energy-change (2. order) :-0.2364563E-01  (-0.9463257E-03)
 number of electron     882.0000118 magnetization 
 augmentation part      154.7105676 magnetization 

 Broyden mixing:
  rms(total) = 0.12140E-01    rms(broyden)= 0.12140E-01
  rms(prec ) = 0.16693E-01
  weight for this iteration     100.00

 eigenvalues of (default mixing * dielectric matrix)
  average eigenvalue GAMMA=   1.3801
 11.0525  3.8528  2.1681  1.7458  1.7458  1.3483  1.3483  0.9351  0.9351  0.7916
  0.5872  0.5872  0.4974  0.4619  0.3902  0.3709  0.3068  0.2942  0.2253  0.2203
  0.2417  0.2551

 Free energy of the ion-electron system (eV)
  ---------------------------------------------------
  alpha Z        PSCENC =      3308.69179504
  Ewald energy   TEWEN  =    390411.25266016
  -Hartree energ DENC   =   -497895.91786794
  -exchange      EXHF   =         0.00000000
  -V(xc)+E(xc)   XCENC  =      4105.39568090
  PAW double counting   =    101398.36936449  -100466.85935268
  entropy T*S    EENTRO =        -0.29286184
  eigenvalues    EBANDS =    -18835.30204279
  atomic energy  EATOM  =    117323.63093996
  Solvation  Ediel_sol  =         0.00000000
  ---------------------------------------------------
  free energy    TOTEN  =      -651.03168469 eV

  energy without entropy =     -650.73882286  energy(sigma->0) =     -650.88525378


--------------------------------------------------------------------------------------------------------




--------------------------------------- Iteration      1(  28)  ---------------------------------------


    POTLOK:  cpu time      9.6080: real time      1.4747
    SETDIJ:  cpu time      1.6204: real time      0.2316
     EDDAV:  cpu time    102.2164: real time     14.6822
       DOS:  cpu time      0.0074: real time      0.0037
    CHARGE:  cpu time      2.1715: real time      0.6276
    MIXING:  cpu time      1.4380: real time      0.2055
    --------------------------------------------
      LOOP:  cpu time    117.0615: real time     17.2254

 eigenvalue-minimisations  :  7744
 total energy-change (2. order) :-0.1892277E-01  (-0.6739555E-03)
 number of electron     882.0000118 magnetization 
 augmentation part      154.7072008 magnetization 

 Broyden mixing:
  rms(total) = 0.76527E-02    rms(broyden)= 0.76525E-02
  rms(prec ) = 0.96182E-02
  weight for this iteration     100.00

 eigenvalues of (default mixing * dielectric matrix)
  average eigenvalue GAMMA=   1.5598
 13.9735  4.9332  2.3795  1.7598  1.7598  1.7189  1.2080  1.2080  0.8840  0.8840
  0.7613  0.5869  0.5869  0.4856  0.4427  0.3878  0.3729  0.3068  0.2942  0.2253
  0.2203  0.2417  0.2551

 Free energy of the ion-electron system (eV)
  ---------------------------------------------------
  alpha Z        PSCENC =      3308.69179504
  Ewald energy   TEWEN  =    390411.25266016
  -Hartree energ DENC   =   -497917.00205831
  -exchange      EXHF   =         0.00000000
  -V(xc)+E(xc)   XCENC  =      4105.38655343
  PAW double counting   =    101406.22869034  -100474.70691746
  entropy T*S    EENTRO =        -0.29280718
  eigenvalues    EBANDS =    -18814.23946346
  atomic energy  EATOM  =    117323.63093996
  Solvation  Ediel_sol  =         0.00000000
  ---------------------------------------------------
  free energy    TOTEN  =      -651.05060747 eV

  energy without entropy =     -650.75780029  energy(sigma->0) =     -650.90420388


--------------------------------------------------------------------------------------------------------




--------------------------------------- Iteration      1(  29)  ---------------------------------------


    POTLOK:  cpu time      9.6077: real time      1.4748
    SETDIJ:  cpu time      1.5162: real time      0.2171
     EDDAV:  cpu time    104.1968: real time     15.0418
       DOS:  cpu time      0.0075: real time      0.0038
    CHARGE:  cpu time      2.1656: real time      0.6269
    MIXING:  cpu time      1.8145: real time      0.2593
    --------------------------------------------
      LOOP:  cpu time    119.3083: real time     17.6237

 eigenvalue-minimisations  :  7984
 total energy-change (2. order) :-0.9000396E-02  (-0.2074874E-03)
 number of electron     882.0000118 magnetization 
 augmentation part      154.7084228 magnetization 

 Broyden mixing:
  rms(total) = 0.47562E-02    rms(broyden)= 0.47561E-02
  rms(prec ) = 0.60418E-02
  weight for this iteration     100.00

 eigenvalues of (default mixing * dielectric matrix)
  average eigenvalue GAMMA=   1.6608
 16.4533  5.5014  2.3971  2.0110  1.7288  1.7288  1.2082  1.2082  1.0684  0.8091
  0.8091  0.5837  0.5837  0.5341  0.4856  0.4457  0.3863  0.3731  0.3068  0.2942
  0.2253  0.2203  0.2417  0.2551

 Free energy of the ion-electron system (eV)
  ---------------------------------------------------
  alpha Z        PSCENC =      3308.69179504
  Ewald energy   TEWEN  =    390411.25266016
  -Hartree energ DENC   =   -497922.94715516
  -exchange      EXHF   =         0.00000000
  -V(xc)+E(xc)   XCENC  =      4105.36100614
  PAW double counting   =    101401.21247230  -100469.71846032
  entropy T*S    EENTRO =        -0.29274777
  eigenvalues    EBANDS =    -18808.25011821
  atomic energy  EATOM  =    117323.63093996
  Solvation  Ediel_sol  =         0.00000000
  ---------------------------------------------------
  free energy    TOTEN  =      -651.05960787 eV

  energy without entropy =     -650.76686009  energy(sigma->0) =     -650.91323398


--------------------------------------------------------------------------------------------------------




--------------------------------------- Iteration      1(  30)  ---------------------------------------


    POTLOK:  cpu time      9.6479: real time      1.4785
    SETDIJ:  cpu time      1.4766: real time      0.2110
     EDDAV:  cpu time    102.4413: real time     14.7088
       DOS:  cpu time      0.0265: real time      0.0038
    CHARGE:  cpu time      2.2758: real time      0.6275
    MIXING:  cpu time      1.5247: real time      0.2179
    --------------------------------------------
      LOOP:  cpu time    117.3928: real time     17.2474

 eigenvalue-minimisations  :  7856
 total energy-change (2. order) :-0.3731940E-02  (-0.6125927E-04)
 number of electron     882.0000118 magnetization 
 augmentation part      154.7079596 magnetization 

 Broyden mixing:
  rms(total) = 0.27618E-02    rms(broyden)= 0.27618E-02
  rms(prec ) = 0.33468E-02
  weight for this iteration     100.00

 eigenvalues of (default mixing * dielectric matrix)
  average eigenvalue GAMMA=   1.7890
 19.2768  5.9855  2.5467  2.3658  1.7451  1.7451  1.3171  1.1361  1.1361  0.9189
  0.8449  0.8449  0.5848  0.5848  0.4857  0.4600  0.4430  0.3873  0.3724  0.3068
  0.2942  0.2253  0.2203  0.2417  0.2551

 Free energy of the ion-electron system (eV)
  ---------------------------------------------------
  alpha Z        PSCENC =      3308.69179504
  Ewald energy   TEWEN  =    390411.25266016
  -Hartree energ DENC   =   -497923.47341270
  -exchange      EXHF   =         0.00000000
  -V(xc)+E(xc)   XCENC  =      4105.36182837
  PAW double counting   =    101404.93702887  -100473.40018284
  entropy T*S    EENTRO =        -0.29269016
  eigenvalues    EBANDS =    -18807.77130650
  atomic energy  EATOM  =    117323.63093996
  Solvation  Ediel_sol  =         0.00000000
  ---------------------------------------------------
  free energy    TOTEN  =      -651.06333981 eV

  energy without entropy =     -650.77064965  energy(sigma->0) =     -650.91699473


--------------------------------------------------------------------------------------------------------




--------------------------------------- Iteration      1(  31)  ---------------------------------------


    POTLOK:  cpu time      9.7013: real time      1.4859
    SETDIJ:  cpu time      1.5179: real time      0.2169
     EDDAV:  cpu time    100.1023: real time     14.3396
       DOS:  cpu time      0.0072: real time      0.0036
    CHARGE:  cpu time      2.1693: real time      0.6276
    MIXING:  cpu time      1.5759: real time      0.2253
    --------------------------------------------
      LOOP:  cpu time    115.0739: real time     16.8988

 eigenvalue-minimisations  :  7544
 total energy-change (2. order) :-0.2878718E-02  (-0.5899884E-04)
 number of electron     882.0000118 magnetization 
 augmentation part      154.7085090 magnetization 

 Broyden mixing:
  rms(total) = 0.16309E-02    rms(broyden)= 0.16309E-02
  rms(prec ) = 0.19081E-02
  weight for this iteration     100.00

 eigenvalues of (default mixing * dielectric matrix)
  average eigenvalue GAMMA=   1.7906
 20.1275  6.0766  2.6903  2.2887  1.7563  1.7563  1.3655  1.3655  1.0459  1.0459
  0.7896  0.7896  0.5843  0.5843  0.6048  0.4827  0.4579  0.4406  0.3874  0.3723
  0.3068  0.2942  0.2253  0.2203  0.2417  0.2551

 Free energy of the ion-electron system (eV)
  ---------------------------------------------------
  alpha Z        PSCENC =      3308.69179504
  Ewald energy   TEWEN  =    390411.25266016
  -Hartree energ DENC   =   -497923.52958604
  -exchange      EXHF   =         0.00000000
  -V(xc)+E(xc)   XCENC  =      4105.35660358
  PAW double counting   =    101402.89808577  -100471.34606360
  entropy T*S    EENTRO =        -0.29264752
  eigenvalues    EBANDS =    -18807.72800587
  atomic energy  EATOM  =    117323.63093996
  Solvation  Ediel_sol  =         0.00000000
  ---------------------------------------------------
  free energy    TOTEN  =      -651.06621852 eV

  energy without entropy =     -650.77357101  energy(sigma->0) =     -650.91989476


--------------------------------------------------------------------------------------------------------




--------------------------------------- Iteration      1(  32)  ---------------------------------------


    POTLOK:  cpu time      9.7197: real time      1.4887
    SETDIJ:  cpu time      1.4731: real time      0.2105
     EDDAV:  cpu time     73.8271: real time     12.9132
       DOS:  cpu time      0.0241: real time      0.0034
    CHARGE:  cpu time      2.8475: real time      0.6250
    MIXING:  cpu time      1.6370: real time      0.2339
    --------------------------------------------
      LOOP:  cpu time     89.5286: real time     15.4748

 eigenvalue-minimisations  :  6592
 total energy-change (2. order) :-0.6968315E-03  (-0.9676312E-05)
 number of electron     882.0000118 magnetization 
 augmentation part      154.7089609 magnetization 

 Broyden mixing:
  rms(total) = 0.10041E-02    rms(broyden)= 0.10041E-02
  rms(prec ) = 0.11723E-02
  weight for this iteration     100.00

 eigenvalues of (default mixing * dielectric matrix)
  average eigenvalue GAMMA=   1.8149
 20.8903  6.2009  2.8099  2.3085  1.7036  1.7036  1.6865  1.6865  1.1152  1.1152
  0.8454  0.8454  0.7604  0.5847  0.5847  0.4999  0.4897  0.4392  0.4300  0.3871
  0.3725  0.3068  0.2942  0.2253  0.2203  0.2417  0.2551

 Free energy of the ion-electron system (eV)
  ---------------------------------------------------
  alpha Z        PSCENC =      3308.69179504
  Ewald energy   TEWEN  =    390411.25266016
  -Hartree energ DENC   =   -497923.13130210
  -exchange      EXHF   =         0.00000000
  -V(xc)+E(xc)   XCENC  =      4105.35198147
  PAW double counting   =    101400.56387112  -100469.02135561
  entropy T*S    EENTRO =        -0.29265404
  eigenvalues    EBANDS =    -18808.11285136
  atomic energy  EATOM  =    117323.63093996
  Solvation  Ediel_sol  =         0.00000000
  ---------------------------------------------------
  free energy    TOTEN  =      -651.06691536 eV

  energy without entropy =     -650.77426131  energy(sigma->0) =     -650.92058834


--------------------------------------------------------------------------------------------------------




--------------------------------------- Iteration      1(  33)  ---------------------------------------


    POTLOK:  cpu time      9.7724: real time      1.4973
    SETDIJ:  cpu time      1.5196: real time      0.2179
     EDDAV:  cpu time     73.9271: real time     12.4028
       DOS:  cpu time      0.0260: real time      0.0037
    CHARGE:  cpu time      2.6000: real time      0.6272
    MIXING:  cpu time      1.7084: real time      0.2442
    --------------------------------------------
      LOOP:  cpu time     89.5534: real time     14.9932

 eigenvalue-minimisations  :  6176
 total energy-change (2. order) :-0.7230289E-03  (-0.1351995E-04)
 number of electron     882.0000118 magnetization 
 augmentation part      154.7095748 magnetization 

 Broyden mixing:
  rms(total) = 0.10845E-02    rms(broyden)= 0.10845E-02
  rms(prec ) = 0.14817E-02
  weight for this iteration     100.00

 eigenvalues of (default mixing * dielectric matrix)
  average eigenvalue GAMMA=   1.8169
 21.0590  6.4354  3.2119  2.4775  1.7431  1.7431  1.6578  1.6578  1.1161  1.1161
  0.9042  0.9042  0.7829  0.7829  0.5844  0.5844  0.2253  0.2203  0.2417  0.2551
  0.2942  0.3068  0.4802  0.4750  0.3724  0.3869  0.4352  0.4197

 Free energy of the ion-electron system (eV)
  ---------------------------------------------------
  alpha Z        PSCENC =      3308.69179504
  Ewald energy   TEWEN  =    390411.25266016
  -Hartree energ DENC   =   -497922.38434648
  -exchange      EXHF   =         0.00000000
  -V(xc)+E(xc)   XCENC  =      4105.34705176
  PAW double counting   =    101398.00570980  -100466.47329836
  entropy T*S    EENTRO =        -0.29268506
  eigenvalues    EBANDS =    -18808.84546520
  atomic energy  EATOM  =    117323.63093996
  Solvation  Ediel_sol  =         0.00000000
  ---------------------------------------------------
  free energy    TOTEN  =      -651.06763838 eV

  energy without entropy =     -650.77495333  energy(sigma->0) =     -650.92129586


--------------------------------------------------------------------------------------------------------




--------------------------------------- Iteration      1(  34)  ---------------------------------------


    POTLOK:  cpu time      9.7619: real time      1.4943
    SETDIJ:  cpu time      1.5332: real time      0.2193
     EDDAV:  cpu time     67.5403: real time     12.2302
       DOS:  cpu time      0.0266: real time      0.0038
    CHARGE:  cpu time      2.8473: real time      0.6272
    MIXING:  cpu time      1.7694: real time      0.2529
    --------------------------------------------
      LOOP:  cpu time     83.4786: real time     14.8276

 eigenvalue-minimisations  :  6080
 total energy-change (2. order) :-0.2914438E-03  (-0.4868174E-05)
 number of electron     882.0000118 magnetization 
 augmentation part      154.7092946 magnetization 

 Broyden mixing:
  rms(total) = 0.36491E-03    rms(broyden)= 0.36490E-03
  rms(prec ) = 0.61960E-03
  weight for this iteration     100.00

 eigenvalues of (default mixing * dielectric matrix)
  average eigenvalue GAMMA=   1.7906
 21.0065  6.5375  3.3625  2.4770  1.7510  1.7510  1.8598  1.3277  1.3277  1.1076
  1.1076  0.8315  0.8037  0.8037  0.5848  0.5848  0.5909  0.2253  0.2203  0.2417
  0.2551  0.2942  0.3068  0.4801  0.4694  0.3724  0.3869  0.4408  0.4186

 Free energy of the ion-electron system (eV)
  ---------------------------------------------------
  alpha Z        PSCENC =      3308.69179504
  Ewald energy   TEWEN  =    390411.25266016
  -Hartree energ DENC   =   -497922.27669089
  -exchange      EXHF   =         0.00000000
  -V(xc)+E(xc)   XCENC  =      4105.34873260
  PAW double counting   =    101398.68582799  -100467.14734825
  entropy T*S    EENTRO =        -0.29266498
  eigenvalues    EBANDS =    -18808.96118144
  atomic energy  EATOM  =    117323.63093996
  Solvation  Ediel_sol  =         0.00000000
  ---------------------------------------------------
  free energy    TOTEN  =      -651.06792983 eV

  energy without entropy =     -650.77526485  energy(sigma->0) =     -650.92159734


--------------------------------------------------------------------------------------------------------




--------------------------------------- Iteration      1(  35)  ---------------------------------------


    POTLOK:  cpu time      9.7145: real time      1.4880
    SETDIJ:  cpu time      1.5870: real time      0.2276
     EDDAV:  cpu time     53.4083: real time     11.2487
       DOS:  cpu time      0.0267: real time      0.0038
    CHARGE:  cpu time      2.8455: real time      0.6262
    MIXING:  cpu time      1.8371: real time      0.2626
    --------------------------------------------
      LOOP:  cpu time     69.4192: real time     13.8569

 eigenvalue-minimisations  :  5304
 total energy-change (2. order) :-0.7411922E-04  (-0.6075879E-06)
 number of electron     882.0000118 magnetization 
 augmentation part      154.7091916 magnetization 

 Broyden mixing:
  rms(total) = 0.21801E-03    rms(broyden)= 0.21801E-03
  rms(prec ) = 0.43625E-03
  weight for this iteration     100.00

 eigenvalues of (default mixing * dielectric matrix)
  average eigenvalue GAMMA=   1.7838
 20.9497  6.6321  3.4774  2.5122  2.1960  1.7540  1.7540  1.4170  1.4170  1.0770
  1.0770  0.9570  0.8703  0.8197  0.8197  0.5843  0.5843  0.2253  0.2203  0.2417
  0.2551  0.2942  0.3068  0.5061  0.4765  0.4765  0.3725  0.3868  0.4377  0.4148

 Free energy of the ion-electron system (eV)
  ---------------------------------------------------
  alpha Z        PSCENC =      3308.69179504
  Ewald energy   TEWEN  =    390411.25266016
  -Hartree energ DENC   =   -497922.28119985
  -exchange      EXHF   =         0.00000000
  -V(xc)+E(xc)   XCENC  =      4105.34899680
  PAW double counting   =    101398.85216633  -100467.31407255
  entropy T*S    EENTRO =        -0.29265711
  eigenvalues    EBANDS =    -18808.95663273
  atomic energy  EATOM  =    117323.63093996
  Solvation  Ediel_sol  =         0.00000000
  ---------------------------------------------------
  free energy    TOTEN  =      -651.06800395 eV

  energy without entropy =     -650.77534683  energy(sigma->0) =     -650.92167539


--------------------------------------------------------------------------------------------------------




--------------------------------------- Iteration      1(  36)  ---------------------------------------


    POTLOK:  cpu time      9.7295: real time      1.4899
    SETDIJ:  cpu time      1.7994: real time      0.2572
     EDDAV:  cpu time     51.6922: real time     10.9555
       DOS:  cpu time      0.0074: real time      0.0037
    CHARGE:  cpu time      2.1765: real time      0.6316
    MIXING:  cpu time      1.9521: real time      0.2849
    --------------------------------------------
      LOOP:  cpu time     67.3572: real time     13.6227

 eigenvalue-minimisations  :  5032
 total energy-change (2. order) :-0.6398403E-04  (-0.7186811E-06)
 number of electron     882.0000118 magnetization 
 augmentation part      154.7092077 magnetization 

 Broyden mixing:
  rms(total) = 0.16647E-03    rms(broyden)= 0.16647E-03
  rms(prec ) = 0.37010E-03
  weight for this iteration     100.00

 eigenvalues of (default mixing * dielectric matrix)
  average eigenvalue GAMMA=   1.7706
 20.9590  6.6696  3.6368  2.6271  2.3497  1.7627  1.7627  1.4457  1.4457  1.2582
  1.0522  1.0522  0.8324  0.8324  0.7376  0.7027  0.5836  0.5836  0.2253  0.2203
  0.2417  0.2551  0.2942  0.3068  0.4924  0.4924  0.4587  0.3725  0.3868  0.4370
  0.4127

 Free energy of the ion-electron system (eV)
  ---------------------------------------------------
  alpha Z        PSCENC =      3308.69179504
  Ewald energy   TEWEN  =    390411.25266016
  -Hartree energ DENC   =   -497922.12855179
  -exchange      EXHF   =         0.00000000
  -V(xc)+E(xc)   XCENC  =      4105.34838317
  PAW double counting   =    101398.69332194  -100467.15864384
  entropy T*S    EENTRO =        -0.29265221
  eigenvalues    EBANDS =    -18809.10532036
  atomic energy  EATOM  =    117323.63093996
  Solvation  Ediel_sol  =         0.00000000
  ---------------------------------------------------
  free energy    TOTEN  =      -651.06806793 eV

  energy without entropy =     -650.77541572  energy(sigma->0) =     -650.92174183


--------------------------------------------------------------------------------------------------------




--------------------------------------- Iteration      1(  37)  ---------------------------------------


    POTLOK:  cpu time      9.7678: real time      1.4960
    SETDIJ:  cpu time      1.4447: real time      0.2067
     EDDAV:  cpu time     44.8569: real time     10.4919
       DOS:  cpu time      0.0273: real time      0.0039
    CHARGE:  cpu time      2.3160: real time      0.6273
    MIXING:  cpu time      1.9186: real time      0.2803
    --------------------------------------------
      LOOP:  cpu time     60.3312: real time     13.1060

 eigenvalue-minimisations  :  4808
 total energy-change (2. order) :-0.2240899E-04  (-0.2456701E-06)
 number of electron     882.0000118 magnetization 
 augmentation part      154.7092304 magnetization 

 Broyden mixing:
  rms(total) = 0.16295E-03    rms(broyden)= 0.16295E-03
  rms(prec ) = 0.34831E-03
  weight for this iteration     100.00

 eigenvalues of (default mixing * dielectric matrix)
  average eigenvalue GAMMA=   1.7538
 20.9600  6.6898  3.7238  2.7451  2.3522  1.7664  1.7664  1.4839  1.4292  1.4292
  1.0971  1.0971  0.8613  0.8613  0.7636  0.7636  0.5850  0.5850  0.5888  0.2253
  0.2203  0.2417  0.2551  0.3068  0.2942  0.3725  0.3869  0.4870  0.4754  0.4498
  0.4445  0.4123

 Free energy of the ion-electron system (eV)
  ---------------------------------------------------
  alpha Z        PSCENC =      3308.69179504
  Ewald energy   TEWEN  =    390411.25266016
  -Hartree energ DENC   =   -497922.07074355
  -exchange      EXHF   =         0.00000000
  -V(xc)+E(xc)   XCENC  =      4105.34808715
  PAW double counting   =    101398.64131978  -100467.10814201
  entropy T*S    EENTRO =        -0.29265035
  eigenvalues    EBANDS =    -18809.16135652
  atomic energy  EATOM  =    117323.63093996
  Solvation  Ediel_sol  =         0.00000000
  ---------------------------------------------------
  free energy    TOTEN  =      -651.06809034 eV

  energy without entropy =     -650.77543999  energy(sigma->0) =     -650.92176516


--------------------------------------------------------------------------------------------------------




--------------------------------------- Iteration      1(  38)  ---------------------------------------


    POTLOK:  cpu time      9.7415: real time      1.4913
    SETDIJ:  cpu time      1.5222: real time      0.2175
     EDDAV:  cpu time     43.0732: real time     10.3443
       DOS:  cpu time      0.0075: real time      0.0037
    CHARGE:  cpu time      2.1710: real time      0.6291
    MIXING:  cpu time      1.9405: real time      0.2911
    --------------------------------------------
      LOOP:  cpu time     58.4559: real time     12.9771

 eigenvalue-minimisations  :  4696
 total energy-change (2. order) :-0.1214352E-04  (-0.1260417E-06)
 number of electron     882.0000118 magnetization 
 augmentation part      154.7092387 magnetization 

 Broyden mixing:
  rms(total) = 0.12261E-03    rms(broyden)= 0.12261E-03
  rms(prec ) = 0.26778E-03
  weight for this iteration     100.00

 eigenvalues of (default mixing * dielectric matrix)
  average eigenvalue GAMMA=   1.7604
 20.9287  6.7323  3.7258  3.0752  2.2313  2.2313  1.7518  1.7518  1.3830  1.3830
  1.2356  1.0549  1.0549  0.8481  0.8481  0.7960  0.7960  0.5842  0.5842  0.2253
  0.2203  0.2417  0.2551  0.2942  0.3068  0.5229  0.4844  0.4785  0.3725  0.3868
  0.4571  0.4379  0.4125

 Free energy of the ion-electron system (eV)
  ---------------------------------------------------
  alpha Z        PSCENC =      3308.69179504
  Ewald energy   TEWEN  =    390411.25266016
  -Hartree energ DENC   =   -497922.02699164
  -exchange      EXHF   =         0.00000000
  -V(xc)+E(xc)   XCENC  =      4105.34806625
  PAW double counting   =    101398.73462613  -100467.20147334
  entropy T*S    EENTRO =        -0.29264710
  eigenvalues    EBANDS =    -18809.20507795
  atomic energy  EATOM  =    117323.63093996
  Solvation  Ediel_sol  =         0.00000000
  ---------------------------------------------------
  free energy    TOTEN  =      -651.06810248 eV

  energy without entropy =     -650.77545538  energy(sigma->0) =     -650.92177893


--------------------------------------------------------------------------------------------------------




--------------------------------------- Iteration      1(  39)  ---------------------------------------


    POTLOK:  cpu time      9.7479: real time      1.4930
    SETDIJ:  cpu time      1.4845: real time      0.2122
     EDDAV:  cpu time     45.1288: real time     10.5165
       DOS:  cpu time      0.0249: real time      0.0036
    CHARGE:  cpu time      2.2310: real time      0.6276
    MIXING:  cpu time      1.9198: real time      0.3022
    --------------------------------------------
      LOOP:  cpu time     60.5370: real time     13.1550

 eigenvalue-minimisations  :  4776
 total energy-change (2. order) :-0.1161957E-04  (-0.2255695E-06)
 number of electron     882.0000118 magnetization 
 augmentation part      154.7092113 magnetization 

 Broyden mixing:
  rms(total) = 0.78242E-04    rms(broyden)= 0.78241E-04
  rms(prec ) = 0.13634E-03
  weight for this iteration     100.00

 eigenvalues of (default mixing * dielectric matrix)
  average eigenvalue GAMMA=   1.7620
 20.9126  6.7608  3.9278  3.4071  2.5067  2.2524  1.7558  1.7558  1.4695  1.4695
  1.1676  1.0743  1.0743  0.8507  0.8507  0.8013  0.8013  0.8065  0.5845  0.5845
  0.2253  0.2203  0.2417  0.2551  0.2942  0.3068  0.5199  0.4827  0.4827  0.3725
  0.3868  0.4547  0.4380  0.4126

 Free energy of the ion-electron system (eV)
  ---------------------------------------------------
  alpha Z        PSCENC =      3308.69179504
  Ewald energy   TEWEN  =    390411.25266016
  -Hartree energ DENC   =   -497921.98653421
  -exchange      EXHF   =         0.00000000
  -V(xc)+E(xc)   XCENC  =      4105.34835615
  PAW double counting   =    101399.02425812  -100467.48954943
  entropy T*S    EENTRO =        -0.29264229
  eigenvalues    EBANDS =    -18809.24739760
  atomic energy  EATOM  =    117323.63093996
  Solvation  Ediel_sol  =         0.00000000
  ---------------------------------------------------
  free energy    TOTEN  =      -651.06811410 eV

  energy without entropy =     -650.77547181  energy(sigma->0) =     -650.92179296


--------------------------------------------------------------------------------------------------------




--------------------------------------- Iteration      1(  40)  ---------------------------------------


    POTLOK:  cpu time      9.7497: real time      1.4931
    SETDIJ:  cpu time      1.3903: real time      0.1987
     EDDAV:  cpu time     39.6279: real time     10.0723
       DOS:  cpu time      0.0074: real time      0.0037
    CHARGE:  cpu time      2.1703: real time      0.6270
    MIXING:  cpu time      2.0117: real time      0.3141
    --------------------------------------------
      LOOP:  cpu time     54.9572: real time     12.7088

 eigenvalue-minimisations  :  4520
 total energy-change (2. order) :-0.3341615E-05  (-0.5011852E-07)
 number of electron     882.0000118 magnetization 
 augmentation part      154.7092146 magnetization 

 Broyden mixing:
  rms(total) = 0.59819E-04    rms(broyden)= 0.59819E-04
  rms(prec ) = 0.88383E-04
  weight for this iteration     100.00

 eigenvalues of (default mixing * dielectric matrix)
  average eigenvalue GAMMA=   1.7865
 20.9099  6.7879  4.8218  3.4912  2.7299  2.3483  1.7525  1.7525  1.6121  1.6121
  1.1964  1.1964  1.0045  1.0045  1.0056  0.8146  0.8146  0.8132  0.5838  0.5838
  0.6073  0.2253  0.2203  0.2417  0.2551  0.3068  0.2942  0.3725  0.3868  0.5100
  0.4901  0.4781  0.4536  0.4390  0.4125

 Free energy of the ion-electron system (eV)
  ---------------------------------------------------
  alpha Z        PSCENC =      3308.69179504
  Ewald energy   TEWEN  =    390411.25266016
  -Hartree energ DENC   =   -497922.01132683
  -exchange      EXHF   =         0.00000000
  -V(xc)+E(xc)   XCENC  =      4105.34829176
  PAW double counting   =    101398.96308639  -100467.42845520
  entropy T*S    EENTRO =        -0.29264030
  eigenvalues    EBANDS =    -18809.22246841
  atomic energy  EATOM  =    117323.63093996
  Solvation  Ediel_sol  =         0.00000000
  ---------------------------------------------------
  free energy    TOTEN  =      -651.06811744 eV

  energy without entropy =     -650.77547714  energy(sigma->0) =     -650.92179729


--------------------------------------------------------------------------------------------------------




--------------------------------------- Iteration      1(  41)  ---------------------------------------


    POTLOK:  cpu time      9.7725: real time      1.4954
    SETDIJ:  cpu time      1.4308: real time      0.2045
     EDDAV:  cpu time     38.5453: real time     10.0528
       DOS:  cpu time      0.0073: real time      0.0037
    CHARGE:  cpu time      2.1670: real time      0.6260
    MIXING:  cpu time      2.0056: real time      0.3222
    --------------------------------------------
      LOOP:  cpu time     53.9286: real time     12.7045

 eigenvalue-minimisations  :  4392
 total energy-change (2. order) :-0.2085697E-05  (-0.3271745E-07)
 number of electron     882.0000118 magnetization 
 augmentation part      154.7092180 magnetization 

 Broyden mixing:
  rms(total) = 0.31091E-04    rms(broyden)= 0.31091E-04
  rms(prec ) = 0.43404E-04
  weight for this iteration     100.00

 eigenvalues of (default mixing * dielectric matrix)
  average eigenvalue GAMMA=   1.8565
 20.9091  7.4511  6.5625  3.5918  3.0273  2.4092  1.9573  1.7518  1.7518  1.5935
  1.3307  1.3307  1.0683  1.0683  0.8903  0.8903  0.8143  0.8143  0.7922  0.5842
  0.5842  0.2253  0.2203  0.2417  0.2551  0.3068  0.2942  0.5774  0.3725  0.3868
  0.5083  0.4831  0.4831  0.4551  0.4382  0.4125

 Free energy of the ion-electron system (eV)
  ---------------------------------------------------
  alpha Z        PSCENC =      3308.69179504
  Ewald energy   TEWEN  =    390411.25266016
  -Hartree energ DENC   =   -497922.03435027
  -exchange      EXHF   =         0.00000000
  -V(xc)+E(xc)   XCENC  =      4105.34823660
  PAW double counting   =    101398.86431277  -100467.32968714
  entropy T*S    EENTRO =        -0.29263944
  eigenvalues    EBANDS =    -18809.19938721
  atomic energy  EATOM  =    117323.63093996
  Solvation  Ediel_sol  =         0.00000000
  ---------------------------------------------------
  free energy    TOTEN  =      -651.06811953 eV

  energy without entropy =     -650.77548009  energy(sigma->0) =     -650.92179981


--------------------------------------------------------------------------------------------------------




--------------------------------------- Iteration      1(  42)  ---------------------------------------


    POTLOK:  cpu time      9.8450: real time      1.5070
    SETDIJ:  cpu time      1.5276: real time      0.2183
     EDDAV:  cpu time     35.6725: real time      9.6214
       DOS:  cpu time      0.0254: real time      0.0036
    CHARGE:  cpu time      2.2256: real time      0.6284
    MIXING:  cpu time      1.9885: real time      0.3327
    --------------------------------------------
      LOOP:  cpu time     51.2845: real time     12.3115

 eigenvalue-minimisations  :  4184
 total energy-change (2. order) :-0.1482491E-05  (-0.2114678E-07)
 number of electron     882.0000118 magnetization 
 augmentation part      154.7092287 magnetization 

 Broyden mixing:
  rms(total) = 0.19840E-04    rms(broyden)= 0.19840E-04
  rms(prec ) = 0.25388E-04
  weight for this iteration     100.00

 eigenvalues of (default mixing * dielectric matrix)
  average eigenvalue GAMMA=   1.8951
 20.9000  9.4225  6.6636  3.7125  3.0319  2.4231  1.9818  1.7535  1.7535  1.6291
  1.3553  1.3553  1.1228  1.1228  0.9168  0.9168  0.8357  0.8357  0.7845  0.7845
  0.5842  0.5842  0.2253  0.2203  0.2417  0.2551  0.3068  0.2942  0.5608  0.3725
  0.3868  0.5133  0.4825  0.4825  0.4545  0.4384  0.4125

 Free energy of the ion-electron system (eV)
  ---------------------------------------------------
  alpha Z        PSCENC =      3308.69179504
  Ewald energy   TEWEN  =    390411.25266016
  -Hartree energ DENC   =   -497922.03685274
  -exchange      EXHF   =         0.00000000
  -V(xc)+E(xc)   XCENC  =      4105.34818692
  PAW double counting   =    101398.82326366  -100467.28874584
  entropy T*S    EENTRO =        -0.29263860
  eigenvalues    EBANDS =    -18809.19672957
  atomic energy  EATOM  =    117323.63093996
  Solvation  Ediel_sol  =         0.00000000
  ---------------------------------------------------
  free energy    TOTEN  =      -651.06812101 eV

  energy without entropy =     -650.77548242  energy(sigma->0) =     -650.92180171


--------------------------------------------------------------------------------------------------------




--------------------------------------- Iteration      1(  43)  ---------------------------------------


    POTLOK:  cpu time      9.8592: real time      1.5079
    SETDIJ:  cpu time      1.5143: real time      0.2164
     EDDAV:  cpu time     27.0733: real time      8.8810
       DOS:  cpu time      0.0247: real time      0.0035
    --------------------------------------------
      LOOP:  cpu time     38.4709: real time     10.6087

 eigenvalue-minimisations  :  3712
 total energy-change (2. order) :-0.4947360E-06  (-0.5640906E-08)
 number of electron     882.0000118 magnetization 
 augmentation part      154.7092287 magnetization 

 Free energy of the ion-electron system (eV)
  ---------------------------------------------------
  alpha Z        PSCENC =      3308.69179504
  Ewald energy   TEWEN  =    390411.25266016
  -Hartree energ DENC   =   -497922.03405342
  -exchange      EXHF   =         0.00000000
  -V(xc)+E(xc)   XCENC  =      4105.34820684
  PAW double counting   =    101398.84173342  -100467.30721546
  entropy T*S    EENTRO =        -0.29263818
  eigenvalues    EBANDS =    -18809.19954986
  atomic energy  EATOM  =    117323.63093996
  Solvation  Ediel_sol  =         0.00000000
  ---------------------------------------------------
  free energy    TOTEN  =      -651.06812151 eV

  energy without entropy =     -650.77548333  energy(sigma->0) =     -650.92180242


--------------------------------------------------------------------------------------------------------




 average (electrostatic) potential at core
  the test charge radii are     1.0818
  (the norm of the test charge is              1.0000)
       1 -78.0554       2 -77.9622       3 -78.2524       4 -78.0579       5 -77.9742
       6 -78.2523       7 -78.0579       8 -77.9742       9 -78.2524      10 -78.0579
      11 -77.9742      12 -78.2523      13 -78.0627      14 -78.0044      15 -78.2528
      16 -78.0627      17 -78.0044      18 -78.2523      19 -78.0579      20 -77.9742
      21 -78.2524      22 -78.0627      23 -78.0044      24 -78.2523      25 -78.0627
      26 -78.0044      27 -78.2524      28 -78.3492      29 -78.2261      30 -78.3676
      31 -78.2135      32 -78.3676      33 -78.2261      34 -78.3676      35 -78.2135
      36 -78.3677      37 -78.1826      38 -78.3677      39 -78.2135      40 -78.3676
      41 -78.2261      42 -78.3677      43 -78.2135      44 -78.3677      45 -78.2261
      46 -78.3480      47 -78.2131      48 -78.3541      49 -78.2269      50 -78.3541
      51 -78.2131      52 -78.3541      53 -78.2269      54 -78.3393      55 -78.1588
      56 -78.3393      57 -78.2269      58 -78.3541      59 -78.2131      60 -78.3393
      61 -78.2269      62 -78.3393      63 -78.2131
 
 
 
 E-fermi :   3.4569     XC(G=0):  -6.9530     alpha+bet : -8.9042

 Fermi energy:         3.4568855201

 k-point     1 :       0.0000    0.0000    0.0000
  band No.  band energies     occupation 
      1     -57.7458      2.00000
      2     -57.6793      2.00000
      3     -57.6485      2.00000
      4     -57.6475      2.00000
      5     -57.6475      2.00000
      6     -57.6467      2.00000
      7     -57.6135      2.00000
      8     -57.6115      2.00000
      9     -57.6056      2.00000
     10     -57.6056      2.00000
     11     -57.6008      2.00000
     12     -57.6008      2.00000
     13     -57.6008      2.00000
     14     -57.5953      2.00000
     15     -57.5759      2.00000
     16     -57.5759      2.00000
     17     -57.5751      2.00000
     18     -57.5709      2.00000
     19     -57.5264      2.00000
     20     -57.4846      2.00000
     21     -57.4827      2.00000
     22     -57.4786      2.00000
     23     -57.4786      2.00000
     24     -57.4757      2.00000
     25     -57.4723      2.00000
     26     -57.4717      2.00000
     27     -57.4648      2.00000
     28     -57.4648      2.00000
     29     -57.4640      2.00000
     30     -57.4640      2.00000
     31     -57.4640      2.00000
     32     -57.4637      2.00000
     33     -57.4568      2.00000
     34     -57.4568      2.00000
     35     -57.4519      2.00000
     36     -57.4419      2.00000
     37     -57.4397      2.00000
     38     -57.4356      2.00000
     39     -57.4356      2.00000
     40     -57.4281      2.00000
     41     -57.4218      2.00000
     42     -57.4218      2.00000
     43     -57.4185      2.00000
     44     -57.4050      2.00000
     45     -57.3620      2.00000
     46     -57.2698      2.00000
     47     -57.2698      2.00000
     48     -57.2680      2.00000
     49     -57.2665      2.00000
     50     -57.2662      2.00000
     51     -57.2628      2.00000
     52     -57.2628      2.00000
     53     -57.2608      2.00000
     54     -57.2449      2.00000
     55     -57.2372      2.00000
     56     -57.2372      2.00000
     57     -57.2340      2.00000
     58     -57.2045      2.00000
     59     -57.2041      2.00000
     60     -57.2041      2.00000
     61     -57.1977      2.00000
     62     -57.1951      2.00000
     63     -57.1613      2.00000
     64     -32.3250      2.00000
     65     -32.3194      2.00000
     66     -32.3194      2.00000
     67     -32.2815      2.00000
     68     -32.2548      2.00000
     69     -32.2476      2.00000
     70     -32.2437      2.00000
     71     -32.2437      2.00000
     72     -32.2423      2.00000
     73     -32.2335      2.00000
     74     -32.2329      2.00000
     75     -32.2329      2.00000
     76     -32.1654      2.00000
     77     -32.1588      2.00000
     78     -32.1588      2.00000
     79     -32.1213      2.00000
     80     -32.1157      2.00000
     81     -32.1134      2.00000
     82     -32.1134      2.00000
     83     -32.1064      2.00000
     84     -32.1003      2.00000
     85     -32.0923      2.00000
     86     -32.0893      2.00000
     87     -32.0893      2.00000
     88     -32.0881      2.00000
     89     -32.0868      2.00000
     90     -32.0843      2.00000
     91     -32.0841      2.00000
     92     -32.0841      2.00000
     93     -32.0679      2.00000
     94     -32.0679      2.00000
     95     -32.0665      2.00000
     96     -32.0575      2.00000
     97     -32.0536      2.00000
     98     -32.0536      2.00000
     99     -32.0414      2.00000
    100     -32.0124      2.00000
    101     -31.9834      2.00000
    102     -31.9759      2.00000
    103     -31.9759      2.00000
    104     -31.9460      2.00000
    105     -31.9370      2.00000
    106     -31.9370      2.00000
    107     -31.9333      2.00000
    108     -31.8860      2.00000
    109     -31.8457      2.00000
    110     -31.8385      2.00000
    111     -31.8385      2.00000
    112     -31.8338      2.00000
    113     -31.8278      2.00000
    114     -31.8278      2.00000
    115     -31.8241      2.00000
    116     -31.8193      2.00000
    117     -31.8100      2.00000
    118     -31.8100      2.00000
    119     -31.8022      2.00000
    120     -31.7966      2.00000
    121     -31.7966      2.00000
    122     -31.7653      2.00000
    123     -31.7592      2.00000
    124     -31.7494      2.00000
    125     -31.7290      2.00000
    126     -31.7290      2.00000
    127     -31.7274      2.00000
    128     -31.7274      2.00000
    129     -31.7197      2.00000
    130     -31.7190      2.00000
    131     -31.7071      2.00000
    132     -31.6935      2.00000
    133     -31.6893      2.00000
    134     -31.6893      2.00000
    135     -31.6699      2.00000
    136     -31.6627      2.00000
    137     -31.6627      2.00000
    138     -31.6427      2.00000
    139     -31.6333      2.00000
    140     -31.6144      2.00000
    141     -31.6098      2.00000
    142     -31.6075      2.00000
    143     -31.6075      2.00000
    144     -31.5989      2.00000
    145     -31.5989      2.00000
    146     -31.5936      2.00000
    147     -31.5833      2.00000
    148     -31.5630      2.00000
    149     -31.5630      2.00000
    150     -31.5523      2.00000
    151     -31.5435      2.00000
    152     -31.5267      2.00000
    153     -31.5267      2.00000
    154     -31.5083      2.00000
    155     -31.5083      2.00000
    156     -31.4829      2.00000
    157     -31.4737      2.00000
    158     -31.4703      2.00000
    159     -31.4421      2.00000
    160     -31.4421      2.00000
    161     -31.4400      2.00000
    162     -31.4340      2.00000
    163     -31.4340      2.00000
    164     -31.4340      2.00000
    165     -31.4275      2.00000
    166     -31.4265      2.00000
    167     -31.4219      2.00000
    168     -31.4219      2.00000
    169     -31.4126      2.00000
    170     -31.4120      2.00000
    171     -31.4120      2.00000
    172     -31.3939      2.00000
    173     -31.3852      2.00000
    174     -31.3852      2.00000
    175     -31.3804      2.00000
    176     -31.3660      2.00000
    177     -31.3495      2.00000
    178     -31.3495      2.00000
    179     -31.3337      2.00000
    180     -31.3230      2.00000
    181     -31.3129      2.00000
    182     -31.3119      2.00000
    183     -31.3103      2.00000
    184     -31.3073      2.00000
    185     -31.3073      2.00000
    186     -31.2997      2.00000
    187     -31.2890      2.00000
    188     -31.2890      2.00000
    189     -31.2816      2.00000
    190     -31.2816      2.00000
    191     -31.2731      2.00000
    192     -31.2689      2.00000
    193     -31.2639      2.00000
    194     -31.2639      2.00000
    195     -31.2609      2.00000
    196     -31.2594      2.00000
    197     -31.2546      2.00000
    198     -31.2533      2.00000
    199     -31.2533      2.00000
    200     -31.2508      2.00000
    201     -31.2442      2.00000
    202     -31.2432      2.00000
    203     -31.2432      2.00000
    204     -31.2292      2.00000
    205     -31.2029      2.00000
    206     -31.1787      2.00000
    207     -31.1787      2.00000
    208     -31.1541      2.00000
    209     -31.1501      2.00000
    210     -31.1475      2.00000
    211     -31.1475      2.00000
    212     -31.1473      2.00000
    213     -31.1459      2.00000
    214     -31.1459      2.00000
    215     -31.1360      2.00000
    216     -31.1347      2.00000
    217     -31.1347      2.00000
    218     -31.1339      2.00000
    219     -31.1322      2.00000
    220     -31.1185      2.00000
    221     -31.1113      2.00000
    222     -31.1083      2.00000
    223     -31.1083      2.00000
    224     -31.0886      2.00000
    225     -31.0822      2.00000
    226     -31.0812      2.00000
    227     -31.0812      2.00000
    228     -31.0790      2.00000
    229     -31.0742      2.00000
    230     -31.0626      2.00000
    231     -31.0626      2.00000
    232     -31.0586      2.00000
    233     -31.0540      2.00000
    234     -31.0520      2.00000
    235     -31.0447      2.00000
    236     -31.0447      2.00000
    237     -31.0370      2.00000
    238     -31.0370      2.00000
    239     -31.0323      2.00000
    240     -31.0245      2.00000
    241     -31.0245      2.00000
    242     -31.0106      2.00000
    243     -30.9847      2.00000
    244     -30.9542      2.00000
    245     -30.9542      2.00000
    246     -30.9525      2.00000
    247     -30.9439      2.00000
    248     -30.9439      2.00000
    249     -30.9352      2.00000
    250     -30.9339      2.00000
    251     -30.9188      2.00000
    252     -30.9188      2.00000
    253      -3.2814      2.00000
    254      -2.3102      2.00000
    255      -1.6494      2.00000
    256      -1.5069      2.00000
    257      -1.4646      2.00000
    258      -1.4646      2.00000
    259      -1.4643      2.00000
    260      -1.4638      2.00000
    261      -1.4055      2.00000
    262      -1.4002      2.00000
    263      -1.3860      2.00000
    264      -1.3860      2.00000
    265      -1.2836      2.00000
    266      -1.2576      2.00000
    267      -1.2310      2.00000
    268      -1.2310      2.00000
    269      -1.0942      2.00000
    270      -1.0816      2.00000
    271      -1.0693      2.00000
    272      -1.0517      2.00000
    273      -1.0517      2.00000
    274      -1.0355      2.00000
    275      -0.9346      2.00000
    276      -0.9210      2.00000
    277      -0.9174      2.00000
    278      -0.9174      2.00000
    279      -0.7296      2.00000
    280      -0.6646      2.00000
    281      -0.6289      2.00000
    282      -0.6289      2.00000
    283      -0.6064      2.00000
    284      -0.6064      2.00000
    285      -0.5973      2.00000
    286      -0.5959      2.00000
    287      -0.5777      2.00000
    288      -0.3458      2.00000
    289      -0.2363      2.00000
    290      -0.2256      2.00000
    291      -0.2256      2.00000
    292      -0.2236      2.00000
    293      -0.2020      2.00000
    294      -0.1199      2.00000
    295      -0.1199      2.00000
    296      -0.1131      2.00000
    297      -0.0849      2.00000
    298      -0.0824      2.00000
    299      -0.0741      2.00000
    300      -0.0519      2.00000
    301      -0.0519      2.00000
    302      -0.0182      2.00000
    303      -0.0166      2.00000
    304       0.0063      2.00000
    305       0.0076      2.00000
    306       0.0076      2.00000
    307       0.0106      2.00000
    308       0.0238      2.00000
    309       0.0238      2.00000
    310       0.0568      2.00000
    311       0.0576      2.00000
    312       0.0635      2.00000
    313       0.0635      2.00000
    314       0.1342      2.00000
    315       0.2762      2.00000
    316       0.3895      2.00000
    317       0.4032      2.00000
    318       0.4032      2.00000
    319       0.4996      2.00000
    320       0.5084      2.00000
    321       0.5084      2.00000
    322       0.5313      2.00000
    323       0.5500      2.00000
    324       0.5500      2.00000
    325       0.5576      2.00000
    326       0.5644      2.00000
    327       0.5973      2.00000
    328       0.5986      2.00000
    329       0.5986      2.00000
    330       0.6262      2.00000
    331       0.6968      2.00000
    332       0.6968      2.00000
    333       0.7202      2.00000
    334       0.7238      2.00000
    335       0.7523      2.00000
    336       0.7523      2.00000
    337       0.7752      2.00000
    338       0.7837      2.00000
    339       0.7966      2.00000
    340       0.8089      2.00000
    341       0.8261      2.00000
    342       0.8261      2.00000
    343       0.8474      2.00000
    344       0.8938      2.00000
    345       0.9057      2.00000
    346       0.9057      2.00000
    347       0.9182      2.00000
    348       0.9324      2.00000
    349       0.9976      2.00000
    350       0.9976      2.00000
    351       1.0244      2.00000
    352       1.0244      2.00000
    353       1.0852      2.00000
    354       1.1574      2.00000
    355       1.2128      2.00000
    356       1.2140      2.00000
    357       1.2140      2.00000
    358       1.2157      2.00000
    359       1.2206      2.00000
    360       1.2914      2.00000
    361       1.3329      2.00000
    362       1.3347      2.00000
    363       1.3456      2.00000
    364       1.3456      2.00000
    365       1.3514      2.00000
    366       1.3514      2.00000
    367       1.3610      2.00000
    368       1.4026      2.00000
    369       1.4026      2.00000
    370       1.4301      2.00000
    371       1.4301      2.00000
    372       1.4476      2.00000
    373       1.4566      2.00000
    374       1.5234      2.00000
    375       1.5593      2.00000
    376       1.6264      2.00000
    377       1.6441      2.00000
    378       1.6501      2.00000
    379       1.6501      2.00000
    380       1.7385      2.00000
    381       1.7541      2.00000
    382       1.7541      2.00000
    383       1.8114      2.00000
    384       1.8963      2.00000
    385       1.9433      2.00000
    386       1.9433      2.00000
    387       1.9496      2.00000
    388       1.9843      2.00000
    389       1.9985      2.00000
    390       1.9985      2.00000
    391       2.0695      2.00000
    392       2.0965      2.00000
    393       2.0965      2.00000
    394       2.1030      2.00000
    395       2.1313      2.00000
    396       2.1320      2.00000
    397       2.1506      2.00000
    398       2.1906      2.00000
    399       2.1906      2.00000
    400       2.2189      2.00000
    401       2.2189      2.00000
    402       2.2791      2.00000
    403       2.2831      2.00000
    404       2.2831      2.00000
    405       2.2979      2.00000
    406       2.2992      2.00000
    407       2.3096      2.00000
    408       2.3572      2.00000
    409       2.3572      2.00000
    410       2.3748      2.00000
    411       2.3748      2.00000
    412       2.4618      2.00000
    413       2.4897      2.00000
    414       2.5394      2.00000
    415       2.6501      2.00000
    416       2.6501      2.00000
    417       2.6631      2.00000
    418       2.6779      2.00000
    419       2.6779      2.00000
    420       2.6798      2.00000
    421       2.7033      2.00000
    422       2.7545      2.00000
    423       2.7545      2.00000
    424       2.8640      2.00000
    425       2.8974      2.00000
    426       2.8974      2.00000
    427       2.9085      2.00000
    428       2.9213      2.00000
    429       3.1607      1.99997
    430       3.1962      1.99977
    431       3.2172      1.99930
    432       3.2172      1.99930
    433       3.2550      1.99569
    434       3.2550      1.99569
    435       3.2616      1.99425
    436       3.2668      1.99281
    437       3.3924      1.63824
    438       3.4004      1.57573
    439       3.4734      0.81570
    440       3.4734      0.81570
    441       3.5272      0.31997
    442       3.6167      0.02385
    443       3.6313      0.01366
    444       3.6352      0.01166
    445       3.6352      0.01166
    446       3.6591      0.00425
    447       3.6591      0.00425
    448       3.6799      0.00161
    449       3.7107      0.00033
    450       3.7122      0.00030
    451       3.7122      0.00030
    452       3.7138      0.00028
    453       3.7746      0.00001
    454       3.7746      0.00001
    455       3.7852      0.00000
    456       3.7902      0.00000
    457       3.7903      0.00000
    458       3.8758      0.00000
    459       3.8758      0.00000
    460       3.9018      0.00000
    461       3.9157      0.00000
    462       3.9157      0.00000
    463       3.9483      0.00000
    464       4.0322      0.00000
    465       4.0345      0.00000
    466       4.0572      0.00000
    467       4.0607      0.00000
    468       4.0607      0.00000
    469       4.1057      0.00000
    470       4.1057      0.00000
    471       4.1076      0.00000
    472       4.1157      0.00000
    473       4.1881      0.00000
    474       4.1991      0.00000
    475       4.2684      0.00000
    476       4.2684      0.00000
    477       4.3706      0.00000
    478       4.5229      0.00000
    479       4.5409      0.00000
    480       4.5450      0.00000
    481       4.5450      0.00000
    482       4.5555      0.00000
    483       4.5555      0.00000
    484       4.5690      0.00000
    485       4.5962      0.00000
    486       4.6336      0.00000
    487       4.6565      0.00000
    488       4.6565      0.00000
    489       4.6945      0.00000
    490       4.7419      0.00000
    491       4.7688      0.00000
    492       4.7688      0.00000
    493       4.8122      0.00000
    494       4.8240      0.00000
    495       4.8283      0.00000
    496       4.8283      0.00000
    497       4.8506      0.00000
    498       4.8772      0.00000
    499       4.8966      0.00000
    500       4.9274      0.00000
    501       4.9274      0.00000
    502       4.9919      0.00000
    503       4.9981      0.00000
    504       5.0303      0.00000
    505       5.0963      0.00000
    506       5.0963      0.00000
    507       5.1170      0.00000
    508       5.1681      0.00000
    509       5.1681      0.00000
    510       5.1869      0.00000
    511       5.1945      0.00000
    512       5.2218      0.00000
    513       5.2614      0.00000
    514       5.2614      0.00000
    515       5.3025      0.00000
    516       5.3113      0.00000
    517       5.3113      0.00000
    518       5.3400      0.00000
    519       5.3724      0.00000
    520       5.3947      0.00000
    521       5.3981      0.00000
    522       5.3982      0.00000
    523       5.4606      0.00000
    524       5.4650      0.00000
    525       5.4715      0.00000
    526       5.4770      0.00000
    527       5.5040      0.00000
    528       5.5243      0.00000
    529       5.5384      0.00000

 k-point     2 :       0.2500    0.0000    0.0000
  band No.  band energies     occupation 
      1     -57.7385      2.00000
      2     -57.6857      2.00000
      3     -57.6736      2.00000
      4     -57.6441      2.00000
      5     -57.6438      2.00000
      6     -57.6343      2.00000
      7     -57.6176      2.00000
      8     -57.6171      2.00000
      9     -57.6110      2.00000
     10     -57.6093      2.00000
     11     -57.6027      2.00000
     12     -57.5911      2.00000
     13     -57.5879      2.00000
     14     -57.5861      2.00000
     15     -57.5845      2.00000
     16     -57.5811      2.00000
     17     -57.5665      2.00000
     18     -57.5643      2.00000
     19     -57.5227      2.00000
     20     -57.4968      2.00000
     21     -57.4814      2.00000
     22     -57.4769      2.00000
     23     -57.4753      2.00000
     24     -57.4747      2.00000
     25     -57.4722      2.00000
     26     -57.4709      2.00000
     27     -57.4677      2.00000
     28     -57.4675      2.00000
     29     -57.4640      2.00000
     30     -57.4632      2.00000
     31     -57.4628      2.00000
     32     -57.4625      2.00000
     33     -57.4624      2.00000
     34     -57.4586      2.00000
     35     -57.4491      2.00000
     36     -57.4463      2.00000
     37     -57.4425      2.00000
     38     -57.4404      2.00000
     39     -57.4328      2.00000
     40     -57.4308      2.00000
     41     -57.4251      2.00000
     42     -57.4221      2.00000
     43     -57.4108      2.00000
     44     -57.3939      2.00000
     45     -57.3652      2.00000
     46     -57.2745      2.00000
     47     -57.2695      2.00000
     48     -57.2670      2.00000
     49     -57.2669      2.00000
     50     -57.2644      2.00000
     51     -57.2627      2.00000
     52     -57.2608      2.00000
     53     -57.2593      2.00000
     54     -57.2468      2.00000
     55     -57.2402      2.00000
     56     -57.2372      2.00000
     57     -57.2326      2.00000
     58     -57.2122      2.00000
     59     -57.2041      2.00000
     60     -57.1995      2.00000
     61     -57.1951      2.00000
     62     -57.1916      2.00000
     63     -57.1634      2.00000
     64     -32.3462      2.00000
     65     -32.3352      2.00000
     66     -32.3156      2.00000
     67     -32.2861      2.00000
     68     -32.2640      2.00000
     69     -32.2533      2.00000
     70     -32.2457      2.00000
     71     -32.2250      2.00000
     72     -32.2214      2.00000
     73     -32.2026      2.00000
     74     -32.1938      2.00000
     75     -32.1828      2.00000
     76     -32.1801      2.00000
     77     -32.1776      2.00000
     78     -32.1623      2.00000
     79     -32.1607      2.00000
     80     -32.1579      2.00000
     81     -32.1495      2.00000
     82     -32.1392      2.00000
     83     -32.1385      2.00000
     84     -32.1321      2.00000
     85     -32.1180      2.00000
     86     -32.1151      2.00000
     87     -32.1069      2.00000
     88     -32.0941      2.00000
     89     -32.0885      2.00000
     90     -32.0847      2.00000
     91     -32.0752      2.00000
     92     -32.0722      2.00000
     93     -32.0600      2.00000
     94     -32.0587      2.00000
     95     -32.0488      2.00000
     96     -32.0425      2.00000
     97     -32.0208      2.00000
     98     -32.0080      2.00000
     99     -31.9938      2.00000
    100     -31.9783      2.00000
    101     -31.9770      2.00000
    102     -31.9732      2.00000
    103     -31.9652      2.00000
    104     -31.9499      2.00000
    105     -31.9229      2.00000
    106     -31.9197      2.00000
    107     -31.9063      2.00000
    108     -31.9022      2.00000
    109     -31.8804      2.00000
    110     -31.8684      2.00000
    111     -31.8538      2.00000
    112     -31.8506      2.00000
    113     -31.8497      2.00000
    114     -31.8480      2.00000
    115     -31.8374      2.00000
    116     -31.8101      2.00000
    117     -31.8040      2.00000
    118     -31.8003      2.00000
    119     -31.7691      2.00000
    120     -31.7595      2.00000
    121     -31.7581      2.00000
    122     -31.7561      2.00000
    123     -31.7460      2.00000
    124     -31.7407      2.00000
    125     -31.7402      2.00000
    126     -31.7280      2.00000
    127     -31.7268      2.00000
    128     -31.7242      2.00000
    129     -31.7179      2.00000
    130     -31.7138      2.00000
    131     -31.7065      2.00000
    132     -31.7036      2.00000
    133     -31.7020      2.00000
    134     -31.6905      2.00000
    135     -31.6889      2.00000
    136     -31.6791      2.00000
    137     -31.6732      2.00000
    138     -31.6313      2.00000
    139     -31.6278      2.00000
    140     -31.6102      2.00000
    141     -31.6045      2.00000
    142     -31.5902      2.00000
    143     -31.5901      2.00000
    144     -31.5846      2.00000
    145     -31.5745      2.00000
    146     -31.5694      2.00000
    147     -31.5673      2.00000
    148     -31.5578      2.00000
    149     -31.5573      2.00000
    150     -31.5471      2.00000
    151     -31.5398      2.00000
    152     -31.5280      2.00000
    153     -31.5252      2.00000
    154     -31.5163      2.00000
    155     -31.5150      2.00000
    156     -31.5113      2.00000
    157     -31.5027      2.00000
    158     -31.4889      2.00000
    159     -31.4655      2.00000
    160     -31.4607      2.00000
    161     -31.4584      2.00000
    162     -31.4508      2.00000
    163     -31.4482      2.00000
    164     -31.4454      2.00000
    165     -31.4418      2.00000
    166     -31.4292      2.00000
    167     -31.4285      2.00000
    168     -31.4280      2.00000
    169     -31.4233      2.00000
    170     -31.4221      2.00000
    171     -31.4207      2.00000
    172     -31.4091      2.00000
    173     -31.4086      2.00000
    174     -31.4041      2.00000
    175     -31.3839      2.00000
    176     -31.3757      2.00000
    177     -31.3514      2.00000
    178     -31.3360      2.00000
    179     -31.3330      2.00000
    180     -31.3226      2.00000
    181     -31.3119      2.00000
    182     -31.3103      2.00000
    183     -31.3074      2.00000
    184     -31.3056      2.00000
    185     -31.3018      2.00000
    186     -31.2936      2.00000
    187     -31.2926      2.00000
    188     -31.2885      2.00000
    189     -31.2823      2.00000
    190     -31.2789      2.00000
    191     -31.2675      2.00000
    192     -31.2647      2.00000
    193     -31.2628      2.00000
    194     -31.2602      2.00000
    195     -31.2599      2.00000
    196     -31.2484      2.00000
    197     -31.2477      2.00000
    198     -31.2374      2.00000
    199     -31.2347      2.00000
    200     -31.2282      2.00000
    201     -31.2268      2.00000
    202     -31.2194      2.00000
    203     -31.2169      2.00000
    204     -31.2075      2.00000
    205     -31.2029      2.00000
    206     -31.1853      2.00000
    207     -31.1830      2.00000
    208     -31.1825      2.00000
    209     -31.1763      2.00000
    210     -31.1737      2.00000
    211     -31.1541      2.00000
    212     -31.1399      2.00000
    213     -31.1395      2.00000
    214     -31.1378      2.00000
    215     -31.1335      2.00000
    216     -31.1273      2.00000
    217     -31.1230      2.00000
    218     -31.1228      2.00000
    219     -31.1178      2.00000
    220     -31.1104      2.00000
    221     -31.1092      2.00000
    222     -31.1045      2.00000
    223     -31.1019      2.00000
    224     -31.0994      2.00000
    225     -31.0981      2.00000
    226     -31.0891      2.00000
    227     -31.0858      2.00000
    228     -31.0852      2.00000
    229     -31.0831      2.00000
    230     -31.0783      2.00000
    231     -31.0695      2.00000
    232     -31.0677      2.00000
    233     -31.0603      2.00000
    234     -31.0508      2.00000
    235     -31.0467      2.00000
    236     -31.0440      2.00000
    237     -31.0390      2.00000
    238     -31.0263      2.00000
    239     -31.0253      2.00000
    240     -31.0093      2.00000
    241     -31.0056      2.00000
    242     -30.9939      2.00000
    243     -30.9813      2.00000
    244     -30.9581      2.00000
    245     -30.9550      2.00000
    246     -30.9530      2.00000
    247     -30.9478      2.00000
    248     -30.9462      2.00000
    249     -30.9382      2.00000
    250     -30.9359      2.00000
    251     -30.9283      2.00000
    252     -30.9251      2.00000
    253      -3.1377      2.00000
    254      -2.1964      2.00000
    255      -2.1219      2.00000
    256      -1.5708      2.00000
    257      -1.5333      2.00000
    258      -1.4580      2.00000
    259      -1.4267      2.00000
    260      -1.3984      2.00000
    261      -1.3698      2.00000
    262      -1.3684      2.00000
    263      -1.2598      2.00000
    264      -1.2431      2.00000
    265      -1.1426      2.00000
    266      -1.1137      2.00000
    267      -1.0946      2.00000
    268      -1.0833      2.00000
    269      -1.0677      2.00000
    270      -1.0528      2.00000
    271      -1.0468      2.00000
    272      -1.0047      2.00000
    273      -0.9862      2.00000
    274      -0.9774      2.00000
    275      -0.9235      2.00000
    276      -0.9072      2.00000
    277      -0.8792      2.00000
    278      -0.8511      2.00000
    279      -0.8246      2.00000
    280      -0.7831      2.00000
    281      -0.7789      2.00000
    282      -0.6186      2.00000
    283      -0.5425      2.00000
    284      -0.4777      2.00000
    285      -0.4499      2.00000
    286      -0.4343      2.00000
    287      -0.4059      2.00000
    288      -0.3769      2.00000
    289      -0.3609      2.00000
    290      -0.3370      2.00000
    291      -0.3285      2.00000
    292      -0.3236      2.00000
    293      -0.3120      2.00000
    294      -0.2744      2.00000
    295      -0.2506      2.00000
    296      -0.2053      2.00000
    297      -0.1641      2.00000
    298      -0.1618      2.00000
    299      -0.1150      2.00000
    300      -0.0776      2.00000
    301      -0.0619      2.00000
    302      -0.0596      2.00000
    303      -0.0303      2.00000
    304      -0.0090      2.00000
    305      -0.0052      2.00000
    306       0.0015      2.00000
    307       0.0180      2.00000
    308       0.0696      2.00000
    309       0.1680      2.00000
    310       0.1712      2.00000
    311       0.1829      2.00000
    312       0.2014      2.00000
    313       0.2746      2.00000
    314       0.3038      2.00000
    315       0.3120      2.00000
    316       0.3212      2.00000
    317       0.3411      2.00000
    318       0.3575      2.00000
    319       0.3741      2.00000
    320       0.3858      2.00000
    321       0.3993      2.00000
    322       0.4054      2.00000
    323       0.4215      2.00000
    324       0.4680      2.00000
    325       0.4854      2.00000
    326       0.4960      2.00000
    327       0.5304      2.00000
    328       0.5313      2.00000
    329       0.5640      2.00000
    330       0.5745      2.00000
    331       0.5884      2.00000
    332       0.6177      2.00000
    333       0.6404      2.00000
    334       0.6489      2.00000
    335       0.6609      2.00000
    336       0.6887      2.00000
    337       0.7234      2.00000
    338       0.7320      2.00000
    339       0.7398      2.00000
    340       0.7546      2.00000
    341       0.7639      2.00000
    342       0.7862      2.00000
    343       0.8143      2.00000
    344       0.8700      2.00000
    345       0.8778      2.00000
    346       0.8955      2.00000
    347       0.8994      2.00000
    348       0.9056      2.00000
    349       0.9439      2.00000
    350       0.9712      2.00000
    351       0.9986      2.00000
    352       1.0150      2.00000
    353       1.0234      2.00000
    354       1.0914      2.00000
    355       1.1061      2.00000
    356       1.1077      2.00000
    357       1.1305      2.00000
    358       1.1448      2.00000
    359       1.1606      2.00000
    360       1.1902      2.00000
    361       1.2393      2.00000
    362       1.2611      2.00000
    363       1.2764      2.00000
    364       1.3641      2.00000
    365       1.3812      2.00000
    366       1.4185      2.00000
    367       1.4359      2.00000
    368       1.4501      2.00000
    369       1.4821      2.00000
    370       1.5003      2.00000
    371       1.5208      2.00000
    372       1.5804      2.00000
    373       1.6022      2.00000
    374       1.6174      2.00000
    375       1.6256      2.00000
    376       1.6503      2.00000
    377       1.6702      2.00000
    378       1.6789      2.00000
    379       1.7317      2.00000
    380       1.7410      2.00000
    381       1.7445      2.00000
    382       1.7583      2.00000
    383       1.8158      2.00000
    384       1.8176      2.00000
    385       1.8809      2.00000
    386       1.8889      2.00000
    387       1.9331      2.00000
    388       1.9355      2.00000
    389       1.9720      2.00000
    390       2.0019      2.00000
    391       2.0086      2.00000
    392       2.0248      2.00000
    393       2.0406      2.00000
    394       2.0698      2.00000
    395       2.1265      2.00000
    396       2.1340      2.00000
    397       2.1410      2.00000
    398       2.1582      2.00000
    399       2.1794      2.00000
    400       2.1904      2.00000
    401       2.2085      2.00000
    402       2.2333      2.00000
    403       2.2664      2.00000
    404       2.2796      2.00000
    405       2.2930      2.00000
    406       2.3117      2.00000
    407       2.3578      2.00000
    408       2.3857      2.00000
    409       2.4252      2.00000
    410       2.4303      2.00000
    411       2.4444      2.00000
    412       2.4737      2.00000
    413       2.4954      2.00000
    414       2.5462      2.00000
    415       2.5466      2.00000
    416       2.6022      2.00000
    417       2.6042      2.00000
    418       2.6547      2.00000
    419       2.6551      2.00000
    420       2.7731      2.00000
    421       2.7909      2.00000
    422       2.8244      2.00000
    423       2.8481      2.00000
    424       2.8655      2.00000
    425       2.8664      2.00000
    426       2.8921      2.00000
    427       2.9283      2.00000
    428       3.0421      2.00000
    429       3.0548      2.00000
    430       3.0589      2.00000
    431       3.1064      2.00000
    432       3.1229      2.00000
    433       3.1403      1.99999
    434       3.1519      1.99998
    435       3.2329      1.99846
    436       3.2960      1.97711
    437       3.3128      1.95839
    438       3.3301      1.92711
    439       3.3825      1.70750
    440       3.3983      1.59255
    441       3.4144      1.45251
    442       3.4905      0.63475
    443       3.5251      0.33440
    444       3.5533      0.17267
    445       3.5587      0.14974
    446       3.6042      0.03719
    447       3.7377      0.00007
    448       3.7485      0.00004
    449       3.7754      0.00001
    450       3.7796      0.00001
    451       3.8427      0.00000
    452       3.8554      0.00000
    453       3.8585      0.00000
    454       3.8806      0.00000
    455       3.8936      0.00000
    456       3.9217      0.00000
    457       3.9368      0.00000
    458       3.9668      0.00000
    459       3.9743      0.00000
    460       3.9781      0.00000
    461       3.9862      0.00000
    462       4.0676      0.00000
    463       4.0989      0.00000
    464       4.1571      0.00000
    465       4.1992      0.00000
    466       4.2155      0.00000
    467       4.2569      0.00000
    468       4.2784      0.00000
    469       4.2795      0.00000
    470       4.3353      0.00000
    471       4.3559      0.00000
    472       4.3892      0.00000
    473       4.4031      0.00000
    474       4.4056      0.00000
    475       4.4105      0.00000
    476       4.4379      0.00000
    477       4.4678      0.00000
    478       4.4742      0.00000
    479       4.5086      0.00000
    480       4.5308      0.00000
    481       4.5321      0.00000
    482       4.6018      0.00000
    483       4.6154      0.00000
    484       4.6244      0.00000
    485       4.6459      0.00000
    486       4.6831      0.00000
    487       4.6841      0.00000
    488       4.6955      0.00000
    489       4.7002      0.00000
    490       4.7233      0.00000
    491       4.7296      0.00000
    492       4.7552      0.00000
    493       4.7946      0.00000
    494       4.8079      0.00000
    495       4.8342      0.00000
    496       4.8634      0.00000
    497       4.8725      0.00000
    498       4.8914      0.00000
    499       4.9080      0.00000
    500       4.9363      0.00000
    501       4.9746      0.00000
    502       4.9922      0.00000
    503       4.9933      0.00000
    504       5.0076      0.00000
    505       5.0663      0.00000
    506       5.0935      0.00000
    507       5.1064      0.00000
    508       5.1425      0.00000
    509       5.1651      0.00000
    510       5.1740      0.00000
    511       5.1825      0.00000
    512       5.1999      0.00000
    513       5.2320      0.00000
    514       5.2345      0.00000
    515       5.2547      0.00000
    516       5.2548      0.00000
    517       5.2765      0.00000
    518       5.2807      0.00000
    519       5.2979      0.00000
    520       5.3046      0.00000
    521       5.3581      0.00000
    522       5.3592      0.00000
    523       5.3725      0.00000
    524       5.3944      0.00000
    525       5.4682      0.00000
    526       5.5210      0.00000
    527       5.5501      0.00000
    528       5.5613      0.00000
    529       5.5729      0.00000

 k-point     3 :       0.5000    0.0000    0.0000
  band No.  band energies     occupation 
      1     -57.7191      2.00000
      2     -57.7158      2.00000
      3     -57.6625      2.00000
      4     -57.6533      2.00000
      5     -57.6348      2.00000
      6     -57.6339      2.00000
      7     -57.6321      2.00000
      8     -57.6293      2.00000
      9     -57.6055      2.00000
     10     -57.5972      2.00000
     11     -57.5972      2.00000
     12     -57.5955      2.00000
     13     -57.5931      2.00000
     14     -57.5829      2.00000
     15     -57.5791      2.00000
     16     -57.5755      2.00000
     17     -57.5627      2.00000
     18     -57.5609      2.00000
     19     -57.5136      2.00000
     20     -57.5106      2.00000
     21     -57.4777      2.00000
     22     -57.4760      2.00000
     23     -57.4746      2.00000
     24     -57.4734      2.00000
     25     -57.4729      2.00000
     26     -57.4726      2.00000
     27     -57.4725      2.00000
     28     -57.4688      2.00000
     29     -57.4673      2.00000
     30     -57.4637      2.00000
     31     -57.4632      2.00000
     32     -57.4628      2.00000
     33     -57.4618      2.00000
     34     -57.4611      2.00000
     35     -57.4523      2.00000
     36     -57.4473      2.00000
     37     -57.4441      2.00000
     38     -57.4392      2.00000
     39     -57.4310      2.00000
     40     -57.4303      2.00000
     41     -57.4245      2.00000
     42     -57.4225      2.00000
     43     -57.4103      2.00000
     44     -57.3811      2.00000
     45     -57.3717      2.00000
     46     -57.2767      2.00000
     47     -57.2691      2.00000
     48     -57.2674      2.00000
     49     -57.2665      2.00000
     50     -57.2648      2.00000
     51     -57.2625      2.00000
     52     -57.2605      2.00000
     53     -57.2532      2.00000
     54     -57.2511      2.00000
     55     -57.2424      2.00000
     56     -57.2372      2.00000
     57     -57.2319      2.00000
     58     -57.2149      2.00000
     59     -57.2042      2.00000
     60     -57.1992      2.00000
     61     -57.1951      2.00000
     62     -57.1854      2.00000
     63     -57.1662      2.00000
     64     -32.3620      2.00000
     65     -32.3452      2.00000
     66     -32.3078      2.00000
     67     -32.2861      2.00000
     68     -32.2606      2.00000
     69     -32.2416      2.00000
     70     -32.2411      2.00000
     71     -32.2180      2.00000
     72     -32.2120      2.00000
     73     -32.2089      2.00000
     74     -32.2015      2.00000
     75     -32.1988      2.00000
     76     -32.1779      2.00000
     77     -32.1761      2.00000
     78     -32.1759      2.00000
     79     -32.1626      2.00000
     80     -32.1585      2.00000
     81     -32.1544      2.00000
     82     -32.1501      2.00000
     83     -32.1413      2.00000
     84     -32.1264      2.00000
     85     -32.1226      2.00000
     86     -32.1172      2.00000
     87     -32.0998      2.00000
     88     -32.0956      2.00000
     89     -32.0928      2.00000
     90     -32.0868      2.00000
     91     -32.0737      2.00000
     92     -32.0686      2.00000
     93     -32.0675      2.00000
     94     -32.0571      2.00000
     95     -32.0559      2.00000
     96     -32.0527      2.00000
     97     -32.0489      2.00000
     98     -32.0131      2.00000
     99     -31.9884      2.00000
    100     -31.9677      2.00000
    101     -31.9567      2.00000
    102     -31.9512      2.00000
    103     -31.9396      2.00000
    104     -31.9352      2.00000
    105     -31.9078      2.00000
    106     -31.9065      2.00000
    107     -31.9008      2.00000
    108     -31.8861      2.00000
    109     -31.8840      2.00000
    110     -31.8748      2.00000
    111     -31.8701      2.00000
    112     -31.8507      2.00000
    113     -31.8380      2.00000
    114     -31.8316      2.00000
    115     -31.8310      2.00000
    116     -31.8201      2.00000
    117     -31.8102      2.00000
    118     -31.7886      2.00000
    119     -31.7808      2.00000
    120     -31.7772      2.00000
    121     -31.7691      2.00000
    122     -31.7624      2.00000
    123     -31.7542      2.00000
    124     -31.7393      2.00000
    125     -31.7381      2.00000
    126     -31.7372      2.00000
    127     -31.7357      2.00000
    128     -31.7306      2.00000
    129     -31.7188      2.00000
    130     -31.7074      2.00000
    131     -31.7054      2.00000
    132     -31.6887      2.00000
    133     -31.6837      2.00000
    134     -31.6663      2.00000
    135     -31.6656      2.00000
    136     -31.6621      2.00000
    137     -31.6473      2.00000
    138     -31.6374      2.00000
    139     -31.6310      2.00000
    140     -31.6194      2.00000
    141     -31.6002      2.00000
    142     -31.5862      2.00000
    143     -31.5748      2.00000
    144     -31.5689      2.00000
    145     -31.5680      2.00000
    146     -31.5664      2.00000
    147     -31.5533      2.00000
    148     -31.5458      2.00000
    149     -31.5441      2.00000
    150     -31.5383      2.00000
    151     -31.5346      2.00000
    152     -31.5339      2.00000
    153     -31.5324      2.00000
    154     -31.5318      2.00000
    155     -31.5214      2.00000
    156     -31.5174      2.00000
    157     -31.5151      2.00000
    158     -31.5048      2.00000
    159     -31.4947      2.00000
    160     -31.4947      2.00000
    161     -31.4902      2.00000
    162     -31.4796      2.00000
    163     -31.4794      2.00000
    164     -31.4702      2.00000
    165     -31.4603      2.00000
    166     -31.4271      2.00000
    167     -31.4263      2.00000
    168     -31.4260      2.00000
    169     -31.4256      2.00000
    170     -31.4239      2.00000
    171     -31.4202      2.00000
    172     -31.4121      2.00000
    173     -31.4065      2.00000
    174     -31.4042      2.00000
    175     -31.3964      2.00000
    176     -31.3677      2.00000
    177     -31.3613      2.00000
    178     -31.3458      2.00000
    179     -31.3378      2.00000
    180     -31.3340      2.00000
    181     -31.3246      2.00000
    182     -31.3216      2.00000
    183     -31.3174      2.00000
    184     -31.3120      2.00000
    185     -31.3115      2.00000
    186     -31.2828      2.00000
    187     -31.2824      2.00000
    188     -31.2660      2.00000
    189     -31.2644      2.00000
    190     -31.2625      2.00000
    191     -31.2616      2.00000
    192     -31.2604      2.00000
    193     -31.2440      2.00000
    194     -31.2432      2.00000
    195     -31.2418      2.00000
    196     -31.2401      2.00000
    197     -31.2348      2.00000
    198     -31.2335      2.00000
    199     -31.2332      2.00000
    200     -31.2250      2.00000
    201     -31.2164      2.00000
    202     -31.2114      2.00000
    203     -31.2105      2.00000
    204     -31.2069      2.00000
    205     -31.2038      2.00000
    206     -31.1903      2.00000
    207     -31.1874      2.00000
    208     -31.1749      2.00000
    209     -31.1731      2.00000
    210     -31.1722      2.00000
    211     -31.1687      2.00000
    212     -31.1613      2.00000
    213     -31.1498      2.00000
    214     -31.1346      2.00000
    215     -31.1337      2.00000
    216     -31.1331      2.00000
    217     -31.1149      2.00000
    218     -31.1091      2.00000
    219     -31.1090      2.00000
    220     -31.1044      2.00000
    221     -31.1042      2.00000
    222     -31.1032      2.00000
    223     -31.1023      2.00000
    224     -31.1022      2.00000
    225     -31.0959      2.00000
    226     -31.0936      2.00000
    227     -31.0849      2.00000
    228     -31.0844      2.00000
    229     -31.0834      2.00000
    230     -31.0829      2.00000
    231     -31.0731      2.00000
    232     -31.0710      2.00000
    233     -31.0658      2.00000
    234     -31.0634      2.00000
    235     -31.0530      2.00000
    236     -31.0503      2.00000
    237     -31.0348      2.00000
    238     -31.0287      2.00000
    239     -31.0262      2.00000
    240     -31.0045      2.00000
    241     -30.9850      2.00000
    242     -30.9761      2.00000
    243     -30.9663      2.00000
    244     -30.9582      2.00000
    245     -30.9574      2.00000
    246     -30.9535      2.00000
    247     -30.9499      2.00000
    248     -30.9490      2.00000
    249     -30.9481      2.00000
    250     -30.9465      2.00000
    251     -30.9343      2.00000
    252     -30.9338      2.00000
    253      -2.7341      2.00000
    254      -2.7224      2.00000
    255      -1.9062      2.00000
    256      -1.8835      2.00000
    257      -1.5348      2.00000
    258      -1.4732      2.00000
    259      -1.3202      2.00000
    260      -1.2532      2.00000
    261      -1.1958      2.00000
    262      -1.1755      2.00000
    263      -1.1623      2.00000
    264      -1.1617      2.00000
    265      -1.1117      2.00000
    266      -1.0510      2.00000
    267      -1.0492      2.00000
    268      -1.0441      2.00000
    269      -1.0267      2.00000
    270      -0.9838      2.00000
    271      -0.9717      2.00000
    272      -0.9281      2.00000
    273      -0.9016      2.00000
    274      -0.8695      2.00000
    275      -0.8584      2.00000
    276      -0.8572      2.00000
    277      -0.8476      2.00000
    278      -0.8396      2.00000
    279      -0.8376      2.00000
    280      -0.7840      2.00000
    281      -0.7422      2.00000
    282      -0.7273      2.00000
    283      -0.7213      2.00000
    284      -0.7057      2.00000
    285      -0.4506      2.00000
    286      -0.4359      2.00000
    287      -0.4292      2.00000
    288      -0.4016      2.00000
    289      -0.3722      2.00000
    290      -0.3630      2.00000
    291      -0.3609      2.00000
    292      -0.3410      2.00000
    293      -0.3114      2.00000
    294      -0.2671      2.00000
    295      -0.2382      2.00000
    296      -0.2284      2.00000
    297      -0.2050      2.00000
    298      -0.2004      2.00000
    299      -0.1958      2.00000
    300      -0.1952      2.00000
    301      -0.1448      2.00000
    302      -0.0765      2.00000
    303      -0.0477      2.00000
    304      -0.0132      2.00000
    305       0.0184      2.00000
    306       0.0250      2.00000
    307       0.0517      2.00000
    308       0.0924      2.00000
    309       0.1086      2.00000
    310       0.1116      2.00000
    311       0.1360      2.00000
    312       0.1741      2.00000
    313       0.2200      2.00000
    314       0.2559      2.00000
    315       0.3192      2.00000
    316       0.3331      2.00000
    317       0.3708      2.00000
    318       0.3931      2.00000
    319       0.4097      2.00000
    320       0.4200      2.00000
    321       0.4220      2.00000
    322       0.4245      2.00000
    323       0.4289      2.00000
    324       0.4397      2.00000
    325       0.4421      2.00000
    326       0.4465      2.00000
    327       0.5100      2.00000
    328       0.5208      2.00000
    329       0.5506      2.00000
    330       0.5512      2.00000
    331       0.5583      2.00000
    332       0.5706      2.00000
    333       0.5792      2.00000
    334       0.6063      2.00000
    335       0.6133      2.00000
    336       0.6160      2.00000
    337       0.6341      2.00000
    338       0.6584      2.00000
    339       0.6802      2.00000
    340       0.6927      2.00000
    341       0.7019      2.00000
    342       0.7393      2.00000
    343       0.7461      2.00000
    344       0.7518      2.00000
    345       0.7801      2.00000
    346       0.7911      2.00000
    347       0.7979      2.00000
    348       0.8170      2.00000
    349       0.8489      2.00000
    350       0.9724      2.00000
    351       0.9949      2.00000
    352       1.0334      2.00000
    353       1.0445      2.00000
    354       1.0518      2.00000
    355       1.1000      2.00000
    356       1.1017      2.00000
    357       1.1338      2.00000
    358       1.1549      2.00000
    359       1.1802      2.00000
    360       1.1954      2.00000
    361       1.2272      2.00000
    362       1.3497      2.00000
    363       1.3739      2.00000
    364       1.3840      2.00000
    365       1.3850      2.00000
    366       1.4067      2.00000
    367       1.4461      2.00000
    368       1.4586      2.00000
    369       1.4695      2.00000
    370       1.4941      2.00000
    371       1.5011      2.00000
    372       1.5040      2.00000
    373       1.5456      2.00000
    374       1.5542      2.00000
    375       1.5557      2.00000
    376       1.5756      2.00000
    377       1.6095      2.00000
    378       1.6130      2.00000
    379       1.6306      2.00000
    380       1.7903      2.00000
    381       1.8161      2.00000
    382       1.8374      2.00000
    383       1.8820      2.00000
    384       1.9077      2.00000
    385       1.9122      2.00000
    386       1.9184      2.00000
    387       1.9425      2.00000
    388       1.9524      2.00000
    389       1.9619      2.00000
    390       1.9632      2.00000
    391       1.9754      2.00000
    392       1.9836      2.00000
    393       1.9961      2.00000
    394       2.0030      2.00000
    395       2.0475      2.00000
    396       2.0492      2.00000
    397       2.0700      2.00000
    398       2.0818      2.00000
    399       2.0822      2.00000
    400       2.0948      2.00000
    401       2.1437      2.00000
    402       2.1814      2.00000
    403       2.2238      2.00000
    404       2.2597      2.00000
    405       2.2668      2.00000
    406       2.2724      2.00000
    407       2.2825      2.00000
    408       2.2935      2.00000
    409       2.4317      2.00000
    410       2.4827      2.00000
    411       2.5405      2.00000
    412       2.5911      2.00000
    413       2.5958      2.00000
    414       2.6493      2.00000
    415       2.6692      2.00000
    416       2.6943      2.00000
    417       2.6981      2.00000
    418       2.7182      2.00000
    419       2.7565      2.00000
    420       2.7764      2.00000
    421       2.7890      2.00000
    422       2.8230      2.00000
    423       2.8557      2.00000
    424       2.8715      2.00000
    425       2.8843      2.00000
    426       2.9616      2.00000
    427       3.0225      2.00000
    428       3.0578      2.00000
    429       3.0893      2.00000
    430       3.0997      2.00000
    431       3.1010      2.00000
    432       3.1374      1.99999
    433       3.1639      1.99997
    434       3.2159      1.99935
    435       3.2421      1.99762
    436       3.2421      1.99761
    437       3.2656      1.99318
    438       3.2712      1.99137
    439       3.3428      1.89331
    440       3.3559      1.84680
    441       3.4053      1.53447
    442       3.4443      1.14082
    443       3.4477      1.10329
    444       3.5081      0.46907
    445       3.5319      0.28874
    446       3.5975      0.04668
    447       3.6223      0.01935
    448       3.6520      0.00580
    449       3.7168      0.00024
    450       3.7642      0.00001
    451       3.8342      0.00000
    452       3.8447      0.00000
    453       3.8467      0.00000
    454       3.8940      0.00000
    455       3.9087      0.00000
    456       4.0205      0.00000
    457       4.0685      0.00000
    458       4.0778      0.00000
    459       4.0995      0.00000
    460       4.1294      0.00000
    461       4.1404      0.00000
    462       4.1888      0.00000
    463       4.2023      0.00000
    464       4.2302      0.00000
    465       4.2305      0.00000
    466       4.2779      0.00000
    467       4.2917      0.00000
    468       4.3454      0.00000
    469       4.3650      0.00000
    470       4.4511      0.00000
    471       4.5009      0.00000
    472       4.5126      0.00000
    473       4.5406      0.00000
    474       4.5528      0.00000
    475       4.5566      0.00000
    476       4.5695      0.00000
    477       4.5777      0.00000
    478       4.5841      0.00000
    479       4.5902      0.00000
    480       4.6196      0.00000
    481       4.6278      0.00000
    482       4.6360      0.00000
    483       4.6459      0.00000
    484       4.6475      0.00000
    485       4.6697      0.00000
    486       4.6921      0.00000
    487       4.7245      0.00000
    488       4.7436      0.00000
    489       4.8004      0.00000
    490       4.8236      0.00000
    491       4.8322      0.00000
    492       4.8567      0.00000
    493       4.8801      0.00000
    494       4.8896      0.00000
    495       4.9070      0.00000
    496       4.9076      0.00000
    497       4.9207      0.00000
    498       4.9216      0.00000
    499       4.9324      0.00000
    500       4.9510      0.00000
    501       4.9557      0.00000
    502       4.9572      0.00000
    503       4.9675      0.00000
    504       5.0201      0.00000
    505       5.0260      0.00000
    506       5.0311      0.00000
    507       5.0536      0.00000
    508       5.0824      0.00000
    509       5.1185      0.00000
    510       5.1490      0.00000
    511       5.1542      0.00000
    512       5.1546      0.00000
    513       5.1875      0.00000
    514       5.2505      0.00000
    515       5.2565      0.00000
    516       5.2848      0.00000
    517       5.2964      0.00000
    518       5.3153      0.00000
    519       5.3258      0.00000
    520       5.3604      0.00000
    521       5.3687      0.00000
    522       5.3882      0.00000
    523       5.3924      0.00000
    524       5.3944      0.00000
    525       5.3960      0.00000
    526       5.4353      0.00000
    527       5.4491      0.00000
    528       5.5220      0.00000
    529       5.5615      0.00000

 k-point     4 :       0.2500    0.2500    0.0000
  band No.  band energies     occupation 
      1     -57.7314      2.00000
      2     -57.6807      2.00000
      3     -57.6802      2.00000
      4     -57.6682      2.00000
      5     -57.6424      2.00000
      6     -57.6325      2.00000
      7     -57.6293      2.00000
      8     -57.6111      2.00000
      9     -57.6082      2.00000
     10     -57.6047      2.00000
     11     -57.5966      2.00000
     12     -57.5926      2.00000
     13     -57.5861      2.00000
     14     -57.5837      2.00000
     15     -57.5789      2.00000
     16     -57.5737      2.00000
     17     -57.5708      2.00000
     18     -57.5601      2.00000
     19     -57.5191      2.00000
     20     -57.4943      2.00000
     21     -57.4937      2.00000
     22     -57.4760      2.00000
     23     -57.4745      2.00000
     24     -57.4738      2.00000
     25     -57.4735      2.00000
     26     -57.4715      2.00000
     27     -57.4706      2.00000
     28     -57.4666      2.00000
     29     -57.4666      2.00000
     30     -57.4655      2.00000
     31     -57.4619      2.00000
     32     -57.4618      2.00000
     33     -57.4601      2.00000
     34     -57.4560      2.00000
     35     -57.4497      2.00000
     36     -57.4462      2.00000
     37     -57.4461      2.00000
     38     -57.4435      2.00000
     39     -57.4396      2.00000
     40     -57.4368      2.00000
     41     -57.4232      2.00000
     42     -57.4145      2.00000
     43     -57.3990      2.00000
     44     -57.3936      2.00000
     45     -57.3682      2.00000
     46     -57.2738      2.00000
     47     -57.2733      2.00000
     48     -57.2678      2.00000
     49     -57.2661      2.00000
     50     -57.2638      2.00000
     51     -57.2598      2.00000
     52     -57.2596      2.00000
     53     -57.2592      2.00000
     54     -57.2485      2.00000
     55     -57.2401      2.00000
     56     -57.2400      2.00000
     57     -57.2304      2.00000
     58     -57.2163      2.00000
     59     -57.2058      2.00000
     60     -57.1955      2.00000
     61     -57.1915      2.00000
     62     -57.1913      2.00000
     63     -57.1654      2.00000
     64     -32.3497      2.00000
     65     -32.3347      2.00000
     66     -32.3325      2.00000
     67     -32.3041      2.00000
     68     -32.2761      2.00000
     69     -32.2725      2.00000
     70     -32.2285      2.00000
     71     -32.2269      2.00000
     72     -32.2154      2.00000
     73     -32.1930      2.00000
     74     -32.1853      2.00000
     75     -32.1829      2.00000
     76     -32.1693      2.00000
     77     -32.1682      2.00000
     78     -32.1630      2.00000
     79     -32.1585      2.00000
     80     -32.1542      2.00000
     81     -32.1498      2.00000
     82     -32.1480      2.00000
     83     -32.1324      2.00000
     84     -32.1304      2.00000
     85     -32.1218      2.00000
     86     -32.1179      2.00000
     87     -32.1129      2.00000
     88     -32.1029      2.00000
     89     -32.0951      2.00000
     90     -32.0874      2.00000
     91     -32.0729      2.00000
     92     -32.0726      2.00000
     93     -32.0554      2.00000
     94     -32.0532      2.00000
     95     -32.0285      2.00000
     96     -32.0188      2.00000
     97     -32.0039      2.00000
     98     -32.0038      2.00000
     99     -31.9951      2.00000
    100     -31.9832      2.00000
    101     -31.9818      2.00000
    102     -31.9744      2.00000
    103     -31.9562      2.00000
    104     -31.9525      2.00000
    105     -31.9251      2.00000
    106     -31.9189      2.00000
    107     -31.9101      2.00000
    108     -31.8963      2.00000
    109     -31.8885      2.00000
    110     -31.8794      2.00000
    111     -31.8711      2.00000
    112     -31.8626      2.00000
    113     -31.8417      2.00000
    114     -31.8370      2.00000
    115     -31.8349      2.00000
    116     -31.8309      2.00000
    117     -31.8067      2.00000
    118     -31.8013      2.00000
    119     -31.7996      2.00000
    120     -31.7895      2.00000
    121     -31.7708      2.00000
    122     -31.7550      2.00000
    123     -31.7494      2.00000
    124     -31.7366      2.00000
    125     -31.7309      2.00000
    126     -31.7293      2.00000
    127     -31.7112      2.00000
    128     -31.7052      2.00000
    129     -31.7022      2.00000
    130     -31.6961      2.00000
    131     -31.6959      2.00000
    132     -31.6943      2.00000
    133     -31.6889      2.00000
    134     -31.6777      2.00000
    135     -31.6698      2.00000
    136     -31.6501      2.00000
    137     -31.6400      2.00000
    138     -31.6325      2.00000
    139     -31.6280      2.00000
    140     -31.6243      2.00000
    141     -31.6113      2.00000
    142     -31.5924      2.00000
    143     -31.5911      2.00000
    144     -31.5860      2.00000
    145     -31.5827      2.00000
    146     -31.5731      2.00000
    147     -31.5697      2.00000
    148     -31.5654      2.00000
    149     -31.5500      2.00000
    150     -31.5479      2.00000
    151     -31.5366      2.00000
    152     -31.5365      2.00000
    153     -31.5155      2.00000
    154     -31.5154      2.00000
    155     -31.5098      2.00000
    156     -31.5027      2.00000
    157     -31.4949      2.00000
    158     -31.4876      2.00000
    159     -31.4777      2.00000
    160     -31.4731      2.00000
    161     -31.4697      2.00000
    162     -31.4677      2.00000
    163     -31.4667      2.00000
    164     -31.4461      2.00000
    165     -31.4455      2.00000
    166     -31.4434      2.00000
    167     -31.4386      2.00000
    168     -31.4335      2.00000
    169     -31.4320      2.00000
    170     -31.4215      2.00000
    171     -31.4213      2.00000
    172     -31.4168      2.00000
    173     -31.4082      2.00000
    174     -31.3933      2.00000
    175     -31.3931      2.00000
    176     -31.3713      2.00000
    177     -31.3702      2.00000
    178     -31.3671      2.00000
    179     -31.3640      2.00000
    180     -31.3634      2.00000
    181     -31.3284      2.00000
    182     -31.3141      2.00000
    183     -31.2987      2.00000
    184     -31.2979      2.00000
    185     -31.2966      2.00000
    186     -31.2829      2.00000
    187     -31.2734      2.00000
    188     -31.2686      2.00000
    189     -31.2676      2.00000
    190     -31.2640      2.00000
    191     -31.2555      2.00000
    192     -31.2504      2.00000
    193     -31.2455      2.00000
    194     -31.2445      2.00000
    195     -31.2432      2.00000
    196     -31.2331      2.00000
    197     -31.2328      2.00000
    198     -31.2310      2.00000
    199     -31.2275      2.00000
    200     -31.2241      2.00000
    201     -31.2220      2.00000
    202     -31.2217      2.00000
    203     -31.2118      2.00000
    204     -31.2070      2.00000
    205     -31.2066      2.00000
    206     -31.2013      2.00000
    207     -31.1988      2.00000
    208     -31.1861      2.00000
    209     -31.1805      2.00000
    210     -31.1730      2.00000
    211     -31.1711      2.00000
    212     -31.1504      2.00000
    213     -31.1456      2.00000
    214     -31.1431      2.00000
    215     -31.1419      2.00000
    216     -31.1332      2.00000
    217     -31.1319      2.00000
    218     -31.1212      2.00000
    219     -31.1205      2.00000
    220     -31.1099      2.00000
    221     -31.1037      2.00000
    222     -31.1023      2.00000
    223     -31.0978      2.00000
    224     -31.0976      2.00000
    225     -31.0964      2.00000
    226     -31.0943      2.00000
    227     -31.0836      2.00000
    228     -31.0830      2.00000
    229     -31.0768      2.00000
    230     -31.0761      2.00000
    231     -31.0709      2.00000
    232     -31.0641      2.00000
    233     -31.0635      2.00000
    234     -31.0586      2.00000
    235     -31.0482      2.00000
    236     -31.0427      2.00000
    237     -31.0330      2.00000
    238     -31.0269      2.00000
    239     -31.0162      2.00000
    240     -31.0150      2.00000
    241     -31.0032      2.00000
    242     -30.9784      2.00000
    243     -30.9772      2.00000
    244     -30.9629      2.00000
    245     -30.9582      2.00000
    246     -30.9542      2.00000
    247     -30.9491      2.00000
    248     -30.9453      2.00000
    249     -30.9444      2.00000
    250     -30.9412      2.00000
    251     -30.9296      2.00000
    252     -30.9198      2.00000
    253      -2.9971      2.00000
    254      -2.0796      2.00000
    255      -2.0131      2.00000
    256      -2.0053      2.00000
    257      -1.4480      2.00000
    258      -1.4175      2.00000
    259      -1.3956      2.00000
    260      -1.3587      2.00000
    261      -1.3351      2.00000
    262      -1.3152      2.00000
    263      -1.3048      2.00000
    264      -1.2783      2.00000
    265      -1.2706      2.00000
    266      -1.2378      2.00000
    267      -1.1373      2.00000
    268      -0.9956      2.00000
    269      -0.9355      2.00000
    270      -0.9113      2.00000
    271      -0.8890      2.00000
    272      -0.8724      2.00000
    273      -0.8706      2.00000
    274      -0.8648      2.00000
    275      -0.8471      2.00000
    276      -0.8119      2.00000
    277      -0.7936      2.00000
    278      -0.7753      2.00000
    279      -0.7719      2.00000
    280      -0.6890      2.00000
    281      -0.6713      2.00000
    282      -0.5885      2.00000
    283      -0.5474      2.00000
    284      -0.5154      2.00000
    285      -0.5153      2.00000
    286      -0.4879      2.00000
    287      -0.4706      2.00000
    288      -0.4371      2.00000
    289      -0.4058      2.00000
    290      -0.3980      2.00000
    291      -0.3898      2.00000
    292      -0.3577      2.00000
    293      -0.3440      2.00000
    294      -0.2967      2.00000
    295      -0.2917      2.00000
    296      -0.2716      2.00000
    297      -0.2686      2.00000
    298      -0.2233      2.00000
    299      -0.2202      2.00000
    300      -0.1370      2.00000
    301      -0.1332      2.00000
    302      -0.0160      2.00000
    303       0.0065      2.00000
    304       0.0070      2.00000
    305       0.0203      2.00000
    306       0.0410      2.00000
    307       0.1076      2.00000
    308       0.1361      2.00000
    309       0.1521      2.00000
    310       0.1807      2.00000
    311       0.1818      2.00000
    312       0.1961      2.00000
    313       0.2362      2.00000
    314       0.2751      2.00000
    315       0.2769      2.00000
    316       0.2950      2.00000
    317       0.3063      2.00000
    318       0.3245      2.00000
    319       0.3575      2.00000
    320       0.3625      2.00000
    321       0.3736      2.00000
    322       0.4136      2.00000
    323       0.4254      2.00000
    324       0.4378      2.00000
    325       0.4470      2.00000
    326       0.4481      2.00000
    327       0.4868      2.00000
    328       0.4917      2.00000
    329       0.4937      2.00000
    330       0.5155      2.00000
    331       0.5391      2.00000
    332       0.5466      2.00000
    333       0.5681      2.00000
    334       0.5747      2.00000
    335       0.5800      2.00000
    336       0.5960      2.00000
    337       0.6166      2.00000
    338       0.6314      2.00000
    339       0.6396      2.00000
    340       0.6985      2.00000
    341       0.7204      2.00000
    342       0.7816      2.00000
    343       0.8275      2.00000
    344       0.8448      2.00000
    345       0.8514      2.00000
    346       0.8838      2.00000
    347       0.9224      2.00000
    348       0.9284      2.00000
    349       0.9433      2.00000
    350       0.9464      2.00000
    351       0.9549      2.00000
    352       0.9802      2.00000
    353       1.0037      2.00000
    354       1.0302      2.00000
    355       1.0532      2.00000
    356       1.0819      2.00000
    357       1.1394      2.00000
    358       1.1683      2.00000
    359       1.1792      2.00000
    360       1.2368      2.00000
    361       1.2949      2.00000
    362       1.3025      2.00000
    363       1.3235      2.00000
    364       1.3301      2.00000
    365       1.3677      2.00000
    366       1.3777      2.00000
    367       1.3970      2.00000
    368       1.4258      2.00000
    369       1.4376      2.00000
    370       1.4635      2.00000
    371       1.4854      2.00000
    372       1.4944      2.00000
    373       1.5319      2.00000
    374       1.5602      2.00000
    375       1.5602      2.00000
    376       1.6045      2.00000
    377       1.6532      2.00000
    378       1.6784      2.00000
    379       1.6809      2.00000
    380       1.7345      2.00000
    381       1.7537      2.00000
    382       1.7712      2.00000
    383       1.7810      2.00000
    384       1.7996      2.00000
    385       1.8417      2.00000
    386       1.8513      2.00000
    387       1.8909      2.00000
    388       1.9227      2.00000
    389       1.9381      2.00000
    390       1.9445      2.00000
    391       1.9527      2.00000
    392       1.9761      2.00000
    393       1.9879      2.00000
    394       2.0075      2.00000
    395       2.0320      2.00000
    396       2.0482      2.00000
    397       2.0546      2.00000
    398       2.0700      2.00000
    399       2.0764      2.00000
    400       2.1033      2.00000
    401       2.1179      2.00000
    402       2.1761      2.00000
    403       2.2091      2.00000
    404       2.2746      2.00000
    405       2.2942      2.00000
    406       2.3114      2.00000
    407       2.3447      2.00000
    408       2.3727      2.00000
    409       2.4410      2.00000
    410       2.4554      2.00000
    411       2.4741      2.00000
    412       2.5324      2.00000
    413       2.6470      2.00000
    414       2.7271      2.00000
    415       2.7297      2.00000
    416       2.7514      2.00000
    417       2.8364      2.00000
    418       2.8426      2.00000
    419       2.8561      2.00000
    420       2.8578      2.00000
    421       2.8641      2.00000
    422       2.8701      2.00000
    423       2.9039      2.00000
    424       2.9047      2.00000
    425       2.9527      2.00000
    426       2.9744      2.00000
    427       2.9985      2.00000
    428       3.0309      2.00000
    429       3.0348      2.00000
    430       3.0972      2.00000
    431       3.1498      1.99999
    432       3.1551      1.99998
    433       3.2037      1.99966
    434       3.2102      1.99952
    435       3.2510      1.99640
    436       3.2537      1.99594
    437       3.2900      1.98174
    438       3.3002      1.97332
    439       3.3632      1.81481
    440       3.3778      1.73661
    441       3.4158      1.43884
    442       3.4411      1.17643
    443       3.4978      0.56291
    444       3.5409      0.23461
    445       3.5702      0.10893
    446       3.5903      0.05915
    447       3.6554      0.00500
    448       3.7714      0.00001
    449       3.7817      0.00000
    450       3.8176      0.00000
    451       3.8254      0.00000
    452       3.8784      0.00000
    453       3.9310      0.00000
    454       3.9319      0.00000
    455       3.9348      0.00000
    456       3.9711      0.00000
    457       3.9775      0.00000
    458       3.9808      0.00000
    459       4.0350      0.00000
    460       4.0710      0.00000
    461       4.0743      0.00000
    462       4.1431      0.00000
    463       4.1648      0.00000
    464       4.1828      0.00000
    465       4.2329      0.00000
    466       4.2466      0.00000
    467       4.2700      0.00000
    468       4.3200      0.00000
    469       4.3950      0.00000
    470       4.4085      0.00000
    471       4.4244      0.00000
    472       4.4333      0.00000
    473       4.4635      0.00000
    474       4.4890      0.00000
    475       4.4946      0.00000
    476       4.5122      0.00000
    477       4.5337      0.00000
    478       4.5357      0.00000
    479       4.5620      0.00000
    480       4.5890      0.00000
    481       4.5994      0.00000
    482       4.6193      0.00000
    483       4.6239      0.00000
    484       4.6859      0.00000
    485       4.7279      0.00000
    486       4.7340      0.00000
    487       4.7492      0.00000
    488       4.7577      0.00000
    489       4.7710      0.00000
    490       4.7851      0.00000
    491       4.8145      0.00000
    492       4.8160      0.00000
    493       4.8260      0.00000
    494       4.8772      0.00000
    495       4.8882      0.00000
    496       4.9161      0.00000
    497       4.9308      0.00000
    498       4.9373      0.00000
    499       4.9448      0.00000
    500       4.9790      0.00000
    501       5.0072      0.00000
    502       5.0265      0.00000
    503       5.0523      0.00000
    504       5.0566      0.00000
    505       5.0578      0.00000
    506       5.0592      0.00000
    507       5.0877      0.00000
    508       5.1216      0.00000
    509       5.1292      0.00000
    510       5.1361      0.00000
    511       5.1577      0.00000
    512       5.1663      0.00000
    513       5.2075      0.00000
    514       5.2561      0.00000
    515       5.2627      0.00000
    516       5.2669      0.00000
    517       5.2920      0.00000
    518       5.3105      0.00000
    519       5.3206      0.00000
    520       5.3310      0.00000
    521       5.3556      0.00000
    522       5.3587      0.00000
    523       5.3609      0.00000
    524       5.3849      0.00000
    525       5.4204      0.00000
    526       5.4352      0.00000
    527       5.4685      0.00000
    528       5.4937      0.00000
    529       5.5154      0.00000

 k-point     5 :       0.5000    0.2500    0.0000
  band No.  band energies     occupation 
      1     -57.7127      2.00000
      2     -57.7095      2.00000
      3     -57.6671      2.00000
      4     -57.6638      2.00000
      5     -57.6563      2.00000
      6     -57.6487      2.00000
      7     -57.6226      2.00000
      8     -57.6170      2.00000
      9     -57.6044      2.00000
     10     -57.6030      2.00000
     11     -57.5947      2.00000
     12     -57.5858      2.00000
     13     -57.5814      2.00000
     14     -57.5794      2.00000
     15     -57.5771      2.00000
     16     -57.5735      2.00000
     17     -57.5665      2.00000
     18     -57.5581      2.00000
     19     -57.5102      2.00000
     20     -57.5074      2.00000
     21     -57.4867      2.00000
     22     -57.4861      2.00000
     23     -57.4763      2.00000
     24     -57.4729      2.00000
     25     -57.4723      2.00000
     26     -57.4708      2.00000
     27     -57.4705      2.00000
     28     -57.4686      2.00000
     29     -57.4685      2.00000
     30     -57.4678      2.00000
     31     -57.4627      2.00000
     32     -57.4606      2.00000
     33     -57.4593      2.00000
     34     -57.4566      2.00000
     35     -57.4527      2.00000
     36     -57.4493      2.00000
     37     -57.4459      2.00000
     38     -57.4441      2.00000
     39     -57.4390      2.00000
     40     -57.4385      2.00000
     41     -57.4223      2.00000
     42     -57.4082      2.00000
     43     -57.3996      2.00000
     44     -57.3840      2.00000
     45     -57.3740      2.00000
     46     -57.2755      2.00000
     47     -57.2718      2.00000
     48     -57.2697      2.00000
     49     -57.2672      2.00000
     50     -57.2628      2.00000
     51     -57.2600      2.00000
     52     -57.2584      2.00000
     53     -57.2543      2.00000
     54     -57.2522      2.00000
     55     -57.2421      2.00000
     56     -57.2400      2.00000
     57     -57.2291      2.00000
     58     -57.2191      2.00000
     59     -57.2063      2.00000
     60     -57.1955      2.00000
     61     -57.1912      2.00000
     62     -57.1855      2.00000
     63     -57.1681      2.00000
     64     -32.3587      2.00000
     65     -32.3463      2.00000
     66     -32.3329      2.00000
     67     -32.3117      2.00000
     68     -32.2738      2.00000
     69     -32.2585      2.00000
     70     -32.2562      2.00000
     71     -32.2369      2.00000
     72     -32.2165      2.00000
     73     -32.2022      2.00000
     74     -32.1925      2.00000
     75     -32.1814      2.00000
     76     -32.1788      2.00000
     77     -32.1688      2.00000
     78     -32.1571      2.00000
     79     -32.1536      2.00000
     80     -32.1444      2.00000
     81     -32.1408      2.00000
     82     -32.1302      2.00000
     83     -32.1240      2.00000
     84     -32.1199      2.00000
     85     -32.1114      2.00000
     86     -32.1070      2.00000
     87     -32.1069      2.00000
     88     -32.1029      2.00000
     89     -32.0947      2.00000
     90     -32.0913      2.00000
     91     -32.0807      2.00000
     92     -32.0723      2.00000
     93     -32.0687      2.00000
     94     -32.0675      2.00000
     95     -32.0214      2.00000
     96     -32.0044      2.00000
     97     -31.9911      2.00000
     98     -31.9908      2.00000
     99     -31.9867      2.00000
    100     -31.9816      2.00000
    101     -31.9779      2.00000
    102     -31.9665      2.00000
    103     -31.9444      2.00000
    104     -31.9415      2.00000
    105     -31.9207      2.00000
    106     -31.9176      2.00000
    107     -31.9102      2.00000
    108     -31.9091      2.00000
    109     -31.8975      2.00000
    110     -31.8928      2.00000
    111     -31.8873      2.00000
    112     -31.8788      2.00000
    113     -31.8772      2.00000
    114     -31.8560      2.00000
    115     -31.8362      2.00000
    116     -31.8301      2.00000
    117     -31.8273      2.00000
    118     -31.8194      2.00000
    119     -31.7822      2.00000
    120     -31.7804      2.00000
    121     -31.7658      2.00000
    122     -31.7506      2.00000
    123     -31.7504      2.00000
    124     -31.7170      2.00000
    125     -31.7155      2.00000
    126     -31.7136      2.00000
    127     -31.7101      2.00000
    128     -31.7038      2.00000
    129     -31.6994      2.00000
    130     -31.6847      2.00000
    131     -31.6845      2.00000
    132     -31.6763      2.00000
    133     -31.6752      2.00000
    134     -31.6679      2.00000
    135     -31.6673      2.00000
    136     -31.6653      2.00000
    137     -31.6606      2.00000
    138     -31.6215      2.00000
    139     -31.6172      2.00000
    140     -31.6074      2.00000
    141     -31.5995      2.00000
    142     -31.5958      2.00000
    143     -31.5944      2.00000
    144     -31.5765      2.00000
    145     -31.5606      2.00000
    146     -31.5559      2.00000
    147     -31.5541      2.00000
    148     -31.5502      2.00000
    149     -31.5472      2.00000
    150     -31.5467      2.00000
    151     -31.5387      2.00000
    152     -31.5316      2.00000
    153     -31.5222      2.00000
    154     -31.5168      2.00000
    155     -31.5117      2.00000
    156     -31.5085      2.00000
    157     -31.5068      2.00000
    158     -31.5029      2.00000
    159     -31.5011      2.00000
    160     -31.4964      2.00000
    161     -31.4886      2.00000
    162     -31.4861      2.00000
    163     -31.4818      2.00000
    164     -31.4753      2.00000
    165     -31.4627      2.00000
    166     -31.4556      2.00000
    167     -31.4451      2.00000
    168     -31.4449      2.00000
    169     -31.4382      2.00000
    170     -31.4315      2.00000
    171     -31.4290      2.00000
    172     -31.4256      2.00000
    173     -31.4153      2.00000
    174     -31.3961      2.00000
    175     -31.3875      2.00000
    176     -31.3849      2.00000
    177     -31.3702      2.00000
    178     -31.3643      2.00000
    179     -31.3286      2.00000
    180     -31.3142      2.00000
    181     -31.3125      2.00000
    182     -31.3046      2.00000
    183     -31.3039      2.00000
    184     -31.3029      2.00000
    185     -31.3026      2.00000
    186     -31.3000      2.00000
    187     -31.2868      2.00000
    188     -31.2840      2.00000
    189     -31.2761      2.00000
    190     -31.2693      2.00000
    191     -31.2574      2.00000
    192     -31.2543      2.00000
    193     -31.2434      2.00000
    194     -31.2326      2.00000
    195     -31.2319      2.00000
    196     -31.2305      2.00000
    197     -31.2224      2.00000
    198     -31.2199      2.00000
    199     -31.2176      2.00000
    200     -31.2115      2.00000
    201     -31.2104      2.00000
    202     -31.2066      2.00000
    203     -31.2066      2.00000
    204     -31.2030      2.00000
    205     -31.1980      2.00000
    206     -31.1950      2.00000
    207     -31.1922      2.00000
    208     -31.1890      2.00000
    209     -31.1854      2.00000
    210     -31.1816      2.00000
    211     -31.1658      2.00000
    212     -31.1654      2.00000
    213     -31.1593      2.00000
    214     -31.1539      2.00000
    215     -31.1535      2.00000
    216     -31.1361      2.00000
    217     -31.1190      2.00000
    218     -31.1157      2.00000
    219     -31.1157      2.00000
    220     -31.1144      2.00000
    221     -31.1113      2.00000
    222     -31.1097      2.00000
    223     -31.1058      2.00000
    224     -31.1021      2.00000
    225     -31.0981      2.00000
    226     -31.0973      2.00000
    227     -31.0853      2.00000
    228     -31.0837      2.00000
    229     -31.0771      2.00000
    230     -31.0692      2.00000
    231     -31.0689      2.00000
    232     -31.0616      2.00000
    233     -31.0610      2.00000
    234     -31.0545      2.00000
    235     -31.0538      2.00000
    236     -31.0427      2.00000
    237     -31.0349      2.00000
    238     -31.0268      2.00000
    239     -31.0186      2.00000
    240     -31.0038      2.00000
    241     -30.9891      2.00000
    242     -30.9733      2.00000
    243     -30.9731      2.00000
    244     -30.9674      2.00000
    245     -30.9642      2.00000
    246     -30.9620      2.00000
    247     -30.9504      2.00000
    248     -30.9501      2.00000
    249     -30.9447      2.00000
    250     -30.9339      2.00000
    251     -30.9297      2.00000
    252     -30.9222      2.00000
    253      -2.6032      2.00000
    254      -2.5918      2.00000
    255      -1.7802      2.00000
    256      -1.7574      2.00000
    257      -1.7153      2.00000
    258      -1.7071      2.00000
    259      -1.3951      2.00000
    260      -1.3329      2.00000
    261      -1.2762      2.00000
    262      -1.2593      2.00000
    263      -1.1830      2.00000
    264      -1.1201      2.00000
    265      -1.0648      2.00000
    266      -1.0259      2.00000
    267      -1.0225      2.00000
    268      -0.9768      2.00000
    269      -0.9332      2.00000
    270      -0.9161      2.00000
    271      -0.8968      2.00000
    272      -0.8798      2.00000
    273      -0.8531      2.00000
    274      -0.8066      2.00000
    275      -0.7961      2.00000
    276      -0.7452      2.00000
    277      -0.7344      2.00000
    278      -0.7230      2.00000
    279      -0.7151      2.00000
    280      -0.7068      2.00000
    281      -0.6693      2.00000
    282      -0.6619      2.00000
    283      -0.6014      2.00000
    284      -0.5746      2.00000
    285      -0.4958      2.00000
    286      -0.4878      2.00000
    287      -0.4829      2.00000
    288      -0.4776      2.00000
    289      -0.4662      2.00000
    290      -0.4409      2.00000
    291      -0.3956      2.00000
    292      -0.3464      2.00000
    293      -0.3167      2.00000
    294      -0.2885      2.00000
    295      -0.2719      2.00000
    296      -0.2654      2.00000
    297      -0.2447      2.00000
    298      -0.2120      2.00000
    299      -0.2079      2.00000
    300      -0.1861      2.00000
    301      -0.1604      2.00000
    302      -0.1224      2.00000
    303      -0.1097      2.00000
    304      -0.0458      2.00000
    305      -0.0336      2.00000
    306       0.0283      2.00000
    307       0.0388      2.00000
    308       0.0518      2.00000
    309       0.0724      2.00000
    310       0.0925      2.00000
    311       0.1195      2.00000
    312       0.1611      2.00000
    313       0.2325      2.00000
    314       0.2553      2.00000
    315       0.2770      2.00000
    316       0.3048      2.00000
    317       0.3086      2.00000
    318       0.3118      2.00000
    319       0.3185      2.00000
    320       0.3342      2.00000
    321       0.3578      2.00000
    322       0.3706      2.00000
    323       0.3789      2.00000
    324       0.4074      2.00000
    325       0.4320      2.00000
    326       0.4323      2.00000
    327       0.4395      2.00000
    328       0.4658      2.00000
    329       0.4763      2.00000
    330       0.4855      2.00000
    331       0.4955      2.00000
    332       0.5194      2.00000
    333       0.5487      2.00000
    334       0.5643      2.00000
    335       0.6056      2.00000
    336       0.6373      2.00000
    337       0.6556      2.00000
    338       0.6670      2.00000
    339       0.6699      2.00000
    340       0.6934      2.00000
    341       0.6946      2.00000
    342       0.7317      2.00000
    343       0.7786      2.00000
    344       0.8137      2.00000
    345       0.8169      2.00000
    346       0.8362      2.00000
    347       0.8557      2.00000
    348       0.8823      2.00000
    349       0.9020      2.00000
    350       0.9211      2.00000
    351       0.9308      2.00000
    352       1.0050      2.00000
    353       1.0060      2.00000
    354       1.0371      2.00000
    355       1.0632      2.00000
    356       1.0923      2.00000
    357       1.1369      2.00000
    358       1.1487      2.00000
    359       1.1683      2.00000
    360       1.1685      2.00000
    361       1.1833      2.00000
    362       1.2463      2.00000
    363       1.2708      2.00000
    364       1.2819      2.00000
    365       1.3389      2.00000
    366       1.3570      2.00000
    367       1.4117      2.00000
    368       1.4382      2.00000
    369       1.4639      2.00000
    370       1.4738      2.00000
    371       1.4822      2.00000
    372       1.5018      2.00000
    373       1.5019      2.00000
    374       1.5099      2.00000
    375       1.5145      2.00000
    376       1.5309      2.00000
    377       1.5586      2.00000
    378       1.5980      2.00000
    379       1.6297      2.00000
    380       1.6434      2.00000
    381       1.6556      2.00000
    382       1.7071      2.00000
    383       1.7090      2.00000
    384       1.7522      2.00000
    385       1.7593      2.00000
    386       1.8191      2.00000
    387       1.8233      2.00000
    388       1.8496      2.00000
    389       1.8525      2.00000
    390       1.8759      2.00000
    391       1.8973      2.00000
    392       1.9009      2.00000
    393       1.9101      2.00000
    394       1.9165      2.00000
    395       1.9405      2.00000
    396       1.9516      2.00000
    397       2.0035      2.00000
    398       2.0700      2.00000
    399       2.0829      2.00000
    400       2.1129      2.00000
    401       2.1828      2.00000
    402       2.2064      2.00000
    403       2.2867      2.00000
    404       2.3380      2.00000
    405       2.3583      2.00000
    406       2.3606      2.00000
    407       2.4466      2.00000
    408       2.4830      2.00000
    409       2.5087      2.00000
    410       2.5133      2.00000
    411       2.5413      2.00000
    412       2.6215      2.00000
    413       2.6983      2.00000
    414       2.7313      2.00000
    415       2.7920      2.00000
    416       2.8225      2.00000
    417       2.8808      2.00000
    418       2.8943      2.00000
    419       2.8999      2.00000
    420       2.9234      2.00000
    421       2.9625      2.00000
    422       2.9627      2.00000
    423       3.0269      2.00000
    424       3.0352      2.00000
    425       3.0448      2.00000
    426       3.0513      2.00000
    427       3.0618      2.00000
    428       3.0820      2.00000
    429       3.1130      2.00000
    430       3.1746      1.99993
    431       3.1785      1.99992
    432       3.1945      1.99979
    433       3.2258      1.99892
    434       3.2591      1.99485
    435       3.2608      1.99445
    436       3.2863      1.98414
    437       3.3008      1.97273
    438       3.3687      1.78741
    439       3.3711      1.77476
    440       3.3930      1.63366
    441       3.4404      1.18475
    442       3.4735      0.81475
    443       3.4889      0.65024
    444       3.5250      0.33570
    445       3.5830      0.07444
    446       3.6040      0.03743
    447       3.6171      0.02351
    448       3.6199      0.02116
    449       3.6371      0.01082
    450       3.6597      0.00413
    451       3.6948      0.00077
    452       3.8457      0.00000
    453       3.9188      0.00000
    454       3.9633      0.00000
    455       3.9719      0.00000
    456       3.9948      0.00000
    457       4.0642      0.00000
    458       4.0854      0.00000
    459       4.1211      0.00000
    460       4.1342      0.00000
    461       4.1400      0.00000
    462       4.1686      0.00000
    463       4.1914      0.00000
    464       4.2029      0.00000
    465       4.2404      0.00000
    466       4.2855      0.00000
    467       4.3299      0.00000
    468       4.3704      0.00000
    469       4.3939      0.00000
    470       4.4074      0.00000
    471       4.5006      0.00000
    472       4.5383      0.00000
    473       4.5461      0.00000
    474       4.5872      0.00000
    475       4.6138      0.00000
    476       4.6257      0.00000
    477       4.6404      0.00000
    478       4.6509      0.00000
    479       4.6602      0.00000
    480       4.6768      0.00000
    481       4.6840      0.00000
    482       4.6924      0.00000
    483       4.7121      0.00000
    484       4.7230      0.00000
    485       4.7247      0.00000
    486       4.7360      0.00000
    487       4.7682      0.00000
    488       4.7839      0.00000
    489       4.8006      0.00000
    490       4.8033      0.00000
    491       4.8260      0.00000
    492       4.8492      0.00000
    493       4.8573      0.00000
    494       4.8725      0.00000
    495       4.8966      0.00000
    496       4.9317      0.00000
    497       4.9702      0.00000
    498       4.9755      0.00000
    499       5.0075      0.00000
    500       5.0408      0.00000
    501       5.0475      0.00000
    502       5.0539      0.00000
    503       5.0609      0.00000
    504       5.0626      0.00000
    505       5.0837      0.00000
    506       5.0978      0.00000
    507       5.1162      0.00000
    508       5.1188      0.00000
    509       5.1352      0.00000
    510       5.1399      0.00000
    511       5.1515      0.00000
    512       5.2062      0.00000
    513       5.2138      0.00000
    514       5.2212      0.00000
    515       5.2334      0.00000
    516       5.2477      0.00000
    517       5.2588      0.00000
    518       5.2819      0.00000
    519       5.3135      0.00000
    520       5.3301      0.00000
    521       5.3393      0.00000
    522       5.3416      0.00000
    523       5.3835      0.00000
    524       5.4018      0.00000
    525       5.4116      0.00000
    526       5.4196      0.00000
    527       5.4593      0.00000
    528       5.4709      0.00000
    529       5.4869      0.00000

 k-point     6 :       0.5000    0.5000    0.0000
  band No.  band energies     occupation 
      1     -57.6959      2.00000
      2     -57.6925      2.00000
      3     -57.6925      2.00000
      4     -57.6900      2.00000
      5     -57.6480      2.00000
      6     -57.6374      2.00000
      7     -57.6374      2.00000
      8     -57.6338      2.00000
      9     -57.5932      2.00000
     10     -57.5928      2.00000
     11     -57.5928      2.00000
     12     -57.5865      2.00000
     13     -57.5760      2.00000
     14     -57.5754      2.00000
     15     -57.5709      2.00000
     16     -57.5709      2.00000
     17     -57.5689      2.00000
     18     -57.5568      2.00000
     19     -57.5017      2.00000
     20     -57.4993      2.00000
     21     -57.4993      2.00000
     22     -57.4980      2.00000
     23     -57.4728      2.00000
     24     -57.4728      2.00000
     25     -57.4726      2.00000
     26     -57.4726      2.00000
     27     -57.4711      2.00000
     28     -57.4711      2.00000
     29     -57.4706      2.00000
     30     -57.4693      2.00000
     31     -57.4625      2.00000
     32     -57.4583      2.00000
     33     -57.4579      2.00000
     34     -57.4571      2.00000
     35     -57.4571      2.00000
     36     -57.4488      2.00000
     37     -57.4488      2.00000
     38     -57.4451      2.00000
     39     -57.4423      2.00000
     40     -57.4383      2.00000
     41     -57.4217      2.00000
     42     -57.3955      2.00000
     43     -57.3908      2.00000
     44     -57.3908      2.00000
     45     -57.3777      2.00000
     46     -57.2732      2.00000
     47     -57.2732      2.00000
     48     -57.2716      2.00000
     49     -57.2699      2.00000
     50     -57.2593      2.00000
     51     -57.2573      2.00000
     52     -57.2564      2.00000
     53     -57.2564      2.00000
     54     -57.2546      2.00000
     55     -57.2418      2.00000
     56     -57.2418      2.00000
     57     -57.2274      2.00000
     58     -57.2225      2.00000
     59     -57.2071      2.00000
     60     -57.1950      2.00000
     61     -57.1856      2.00000
     62     -57.1856      2.00000
     63     -57.1708      2.00000
     64     -32.3663      2.00000
     65     -32.3663      2.00000
     66     -32.3235      2.00000
     67     -32.2876      2.00000
     68     -32.2876      2.00000
     69     -32.2815      2.00000
     70     -32.2567      2.00000
     71     -32.2444      2.00000
     72     -32.2444      2.00000
     73     -32.2410      2.00000
     74     -32.2014      2.00000
     75     -32.2014      2.00000
     76     -32.1791      2.00000
     77     -32.1602      2.00000
     78     -32.1602      2.00000
     79     -32.1592      2.00000
     80     -32.1245      2.00000
     81     -32.1132      2.00000
     82     -32.1132      2.00000
     83     -32.1043      2.00000
     84     -32.0932      2.00000
     85     -32.0932      2.00000
     86     -32.0920      2.00000
     87     -32.0858      2.00000
     88     -32.0703      2.00000
     89     -32.0697      2.00000
     90     -32.0697      2.00000
     91     -32.0688      2.00000
     92     -32.0494      2.00000
     93     -32.0432      2.00000
     94     -32.0402      2.00000
     95     -32.0402      2.00000
     96     -32.0243      2.00000
     97     -32.0243      2.00000
     98     -32.0212      2.00000
     99     -32.0180      2.00000
    100     -31.9880      2.00000
    101     -31.9464      2.00000
    102     -31.9464      2.00000
    103     -31.9370      2.00000
    104     -31.9287      2.00000
    105     -31.9281      2.00000
    106     -31.9281      2.00000
    107     -31.9260      2.00000
    108     -31.9182      2.00000
    109     -31.9182      2.00000
    110     -31.9057      2.00000
    111     -31.9039      2.00000
    112     -31.8971      2.00000
    113     -31.8873      2.00000
    114     -31.8873      2.00000
    115     -31.8701      2.00000
    116     -31.8701      2.00000
    117     -31.8530      2.00000
    118     -31.7858      2.00000
    119     -31.7839      2.00000
    120     -31.7834      2.00000
    121     -31.7834      2.00000
    122     -31.7613      2.00000
    123     -31.7316      2.00000
    124     -31.7267      2.00000
    125     -31.7267      2.00000
    126     -31.7124      2.00000
    127     -31.7082      2.00000
    128     -31.6834      2.00000
    129     -31.6773      2.00000
    130     -31.6696      2.00000
    131     -31.6696      2.00000
    132     -31.6484      2.00000
    133     -31.6429      2.00000
    134     -31.6429      2.00000
    135     -31.6336      2.00000
    136     -31.6238      2.00000
    137     -31.6232      2.00000
    138     -31.6213      2.00000
    139     -31.6212      2.00000
    140     -31.6212      2.00000
    141     -31.6185      2.00000
    142     -31.6185      2.00000
    143     -31.5704      2.00000
    144     -31.5693      2.00000
    145     -31.5671      2.00000
    146     -31.5671      2.00000
    147     -31.5519      2.00000
    148     -31.5481      2.00000
    149     -31.5481      2.00000
    150     -31.5418      2.00000
    151     -31.5372      2.00000
    152     -31.5146      2.00000
    153     -31.5136      2.00000
    154     -31.5117      2.00000
    155     -31.5117      2.00000
    156     -31.5034      2.00000
    157     -31.5034      2.00000
    158     -31.5020      2.00000
    159     -31.5008      2.00000
    160     -31.4975      2.00000
    161     -31.4975      2.00000
    162     -31.4966      2.00000
    163     -31.4949      2.00000
    164     -31.4882      2.00000
    165     -31.4853      2.00000
    166     -31.4800      2.00000
    167     -31.4800      2.00000
    168     -31.4738      2.00000
    169     -31.4673      2.00000
    170     -31.4536      2.00000
    171     -31.4465      2.00000
    172     -31.4465      2.00000
    173     -31.4278      2.00000
    174     -31.3832      2.00000
    175     -31.3832      2.00000
    176     -31.3656      2.00000
    177     -31.3371      2.00000
    178     -31.3184      2.00000
    179     -31.3165      2.00000
    180     -31.3165      2.00000
    181     -31.3149      2.00000
    182     -31.3019      2.00000
    183     -31.3019      2.00000
    184     -31.2915      2.00000
    185     -31.2879      2.00000
    186     -31.2784      2.00000
    187     -31.2774      2.00000
    188     -31.2774      2.00000
    189     -31.2677      2.00000
    190     -31.2667      2.00000
    191     -31.2667      2.00000
    192     -31.2629      2.00000
    193     -31.2544      2.00000
    194     -31.2544      2.00000
    195     -31.2331      2.00000
    196     -31.2330      2.00000
    197     -31.2287      2.00000
    198     -31.2234      2.00000
    199     -31.2206      2.00000
    200     -31.2182      2.00000
    201     -31.2182      2.00000
    202     -31.2168      2.00000
    203     -31.2050      2.00000
    204     -31.2050      2.00000
    205     -31.1988      2.00000
    206     -31.1947      2.00000
    207     -31.1947      2.00000
    208     -31.1934      2.00000
    209     -31.1861      2.00000
    210     -31.1820      2.00000
    211     -31.1775      2.00000
    212     -31.1775      2.00000
    213     -31.1590      2.00000
    214     -31.1394      2.00000
    215     -31.1394      2.00000
    216     -31.1346      2.00000
    217     -31.1214      2.00000
    218     -31.1180      2.00000
    219     -31.1162      2.00000
    220     -31.1159      2.00000
    221     -31.1159      2.00000
    222     -31.1068      2.00000
    223     -31.1068      2.00000
    224     -31.1056      2.00000
    225     -31.1043      2.00000
    226     -31.1043      2.00000
    227     -31.1042      2.00000
    228     -31.0710      2.00000
    229     -31.0710      2.00000
    230     -31.0703      2.00000
    231     -31.0687      2.00000
    232     -31.0570      2.00000
    233     -31.0570      2.00000
    234     -31.0547      2.00000
    235     -31.0546      2.00000
    236     -31.0332      2.00000
    237     -31.0332      2.00000
    238     -31.0318      2.00000
    239     -31.0005      2.00000
    240     -30.9958      2.00000
    241     -30.9958      2.00000
    242     -30.9806      2.00000
    243     -30.9744      2.00000
    244     -30.9719      2.00000
    245     -30.9719      2.00000
    246     -30.9706      2.00000
    247     -30.9515      2.00000
    248     -30.9515      2.00000
    249     -30.9393      2.00000
    250     -30.9261      2.00000
    251     -30.9261      2.00000
    252     -30.9146      2.00000
    253      -2.2474      2.00000
    254      -2.2263      2.00000
    255      -2.2263      2.00000
    256      -2.2261      2.00000
    257      -1.4521      2.00000
    258      -1.4243      2.00000
    259      -1.4243      2.00000
    260      -1.4153      2.00000
    261      -1.3554      2.00000
    262      -1.3433      2.00000
    263      -1.0409      2.00000
    264      -1.0214      2.00000
    265      -0.9834      2.00000
    266      -0.9834      2.00000
    267      -0.9590      2.00000
    268      -0.9590      2.00000
    269      -0.9286      2.00000
    270      -0.9197      2.00000
    271      -0.8836      2.00000
    272      -0.8207      2.00000
    273      -0.8192      2.00000
    274      -0.8192      2.00000
    275      -0.8148      2.00000
    276      -0.7208      2.00000
    277      -0.7099      2.00000
    278      -0.7099      2.00000
    279      -0.5692      2.00000
    280      -0.5686      2.00000
    281      -0.5686      2.00000
    282      -0.5678      2.00000
    283      -0.5389      2.00000
    284      -0.5221      2.00000
    285      -0.5221      2.00000
    286      -0.5213      2.00000
    287      -0.5036      2.00000
    288      -0.4899      2.00000
    289      -0.4882      2.00000
    290      -0.4827      2.00000
    291      -0.4827      2.00000
    292      -0.3837      2.00000
    293      -0.3575      2.00000
    294      -0.3549      2.00000
    295      -0.3208      2.00000
    296      -0.3208      2.00000
    297      -0.2778      2.00000
    298      -0.2510      2.00000
    299      -0.2510      2.00000
    300      -0.2357      2.00000
    301      -0.1812      2.00000
    302      -0.1812      2.00000
    303      -0.1590      2.00000
    304      -0.1294      2.00000
    305      -0.0188      2.00000
    306       0.0207      2.00000
    307       0.0207      2.00000
    308       0.0209      2.00000
    309       0.1140      2.00000
    310       0.2093      2.00000
    311       0.2125      2.00000
    312       0.2125      2.00000
    313       0.2340      2.00000
    314       0.2340      2.00000
    315       0.2688      2.00000
    316       0.2837      2.00000
    317       0.2837      2.00000
    318       0.2861      2.00000
    319       0.3085      2.00000
    320       0.3213      2.00000
    321       0.3213      2.00000
    322       0.3553      2.00000
    323       0.3553      2.00000
    324       0.3755      2.00000
    325       0.3886      2.00000
    326       0.3886      2.00000
    327       0.4036      2.00000
    328       0.4093      2.00000
    329       0.4160      2.00000
    330       0.4287      2.00000
    331       0.4287      2.00000
    332       0.4408      2.00000
    333       0.4454      2.00000
    334       0.4666      2.00000
    335       0.4826      2.00000
    336       0.5251      2.00000
    337       0.5251      2.00000
    338       0.5305      2.00000
    339       0.6809      2.00000
    340       0.6809      2.00000
    341       0.7151      2.00000
    342       0.7933      2.00000
    343       0.7933      2.00000
    344       0.8709      2.00000
    345       0.8709      2.00000
    346       0.8719      2.00000
    347       0.8885      2.00000
    348       0.9005      2.00000
    349       0.9360      2.00000
    350       0.9489      2.00000
    351       0.9489      2.00000
    352       0.9588      2.00000
    353       0.9600      2.00000
    354       1.0074      2.00000
    355       1.0500      2.00000
    356       1.0500      2.00000
    357       1.1672      2.00000
    358       1.1687      2.00000
    359       1.1687      2.00000
    360       1.1779      2.00000
    361       1.1845      2.00000
    362       1.2138      2.00000
    363       1.2383      2.00000
    364       1.2383      2.00000
    365       1.2898      2.00000
    366       1.3003      2.00000
    367       1.3228      2.00000
    368       1.3246      2.00000
    369       1.3246      2.00000
    370       1.4111      2.00000
    371       1.4111      2.00000
    372       1.4644      2.00000
    373       1.4644      2.00000
    374       1.4746      2.00000
    375       1.4952      2.00000
    376       1.4952      2.00000
    377       1.5040      2.00000
    378       1.5084      2.00000
    379       1.5138      2.00000
    380       1.5154      2.00000
    381       1.5154      2.00000
    382       1.5204      2.00000
    383       1.5255      2.00000
    384       1.7106      2.00000
    385       1.7130      2.00000
    386       1.7463      2.00000
    387       1.7463      2.00000
    388       1.8196      2.00000
    389       1.8196      2.00000
    390       1.8315      2.00000
    391       1.8831      2.00000
    392       1.9006      2.00000
    393       1.9211      2.00000
    394       1.9211      2.00000
    395       1.9302      2.00000
    396       1.9333      2.00000
    397       1.9543      2.00000
    398       2.0116      2.00000
    399       2.0116      2.00000
    400       2.2557      2.00000
    401       2.2557      2.00000
    402       2.2641      2.00000
    403       2.2801      2.00000
    404       2.3092      2.00000
    405       2.3092      2.00000
    406       2.5103      2.00000
    407       2.5103      2.00000
    408       2.5303      2.00000
    409       2.6613      2.00000
    410       2.6790      2.00000
    411       2.7060      2.00000
    412       2.7965      2.00000
    413       2.7965      2.00000
    414       2.8411      2.00000
    415       2.8411      2.00000
    416       2.9193      2.00000
    417       2.9578      2.00000
    418       3.0018      2.00000
    419       3.0018      2.00000
    420       3.0077      2.00000
    421       3.0081      2.00000
    422       3.0096      2.00000
    423       3.0096      2.00000
    424       3.0390      2.00000
    425       3.0451      2.00000
    426       3.0619      2.00000
    427       3.0619      2.00000
    428       3.0698      2.00000
    429       3.1071      2.00000
    430       3.1314      2.00000
    431       3.1862      1.99987
    432       3.2680      1.99246
    433       3.2680      1.99246
    434       3.3506      1.86713
    435       3.3506      1.86713
    436       3.3956      1.61377
    437       3.4197      1.40128
    438       3.4412      1.17582
    439       3.4516      1.05976
    440       3.4516      1.05976
    441       3.5017      0.52625
    442       3.5737      0.09840
    443       3.5737      0.09840
    444       3.5892      0.06140
    445       3.6394      0.00985
    446       3.6608      0.00392
    447       3.6767      0.00188
    448       3.6767      0.00188
    449       3.7199      0.00020
    450       3.7208      0.00019
    451       3.7208      0.00019
    452       3.9169      0.00000
    453       3.9598      0.00000
    454       3.9598      0.00000
    455       3.9645      0.00000
    456       4.0085      0.00000
    457       4.0858      0.00000
    458       4.0858      0.00000
    459       4.1049      0.00000
    460       4.1575      0.00000
    461       4.1899      0.00000
    462       4.2038      0.00000
    463       4.2038      0.00000
    464       4.2309      0.00000
    465       4.2877      0.00000
    466       4.2896      0.00000
    467       4.2896      0.00000
    468       4.3491      0.00000
    469       4.3550      0.00000
    470       4.3550      0.00000
    471       4.3563      0.00000
    472       4.3974      0.00000
    473       4.4182      0.00000
    474       4.4414      0.00000
    475       4.4414      0.00000
    476       4.5250      0.00000
    477       4.5250      0.00000
    478       4.5471      0.00000
    479       4.6036      0.00000
    480       4.6158      0.00000
    481       4.6158      0.00000
    482       4.6226      0.00000
    483       4.6318      0.00000
    484       4.8149      0.00000
    485       4.8289      0.00000
    486       4.8751      0.00000
    487       4.8751      0.00000
    488       4.8836      0.00000
    489       4.8836      0.00000
    490       4.8869      0.00000
    491       4.9210      0.00000
    492       4.9423      0.00000
    493       4.9630      0.00000
    494       4.9827      0.00000
    495       4.9867      0.00000
    496       5.0056      0.00000
    497       5.0075      0.00000
    498       5.0075      0.00000
    499       5.0125      0.00000
    500       5.0125      0.00000
    501       5.0587      0.00000
    502       5.0682      0.00000
    503       5.0682      0.00000
    504       5.1135      0.00000
    505       5.1375      0.00000
    506       5.1464      0.00000
    507       5.1464      0.00000
    508       5.1482      0.00000
    509       5.1482      0.00000
    510       5.1521      0.00000
    511       5.1609      0.00000
    512       5.2011      0.00000
    513       5.2566      0.00000
    514       5.2782      0.00000
    515       5.2782      0.00000
    516       5.2860      0.00000
    517       5.2872      0.00000
    518       5.3519      0.00000
    519       5.3534      0.00000
    520       5.3534      0.00000
    521       5.3566      0.00000
    522       5.3932      0.00000
    523       5.4350      0.00000
    524       5.4776      0.00000
    525       5.4776      0.00000
    526       5.4864      0.00000
    527       5.5007      0.00000
    528       5.6366      0.00000
    529       5.6547      0.00000


--------------------------------------------------------------------------------------------------------


 soft charge-density along one line, spin component           1
         0         1         2         3         4         5         6         7         8         9
 total charge-density along one line
 
 pseudopotential strength for first ion, spin component:           1
 -5.001  11.911   0.000   0.013  -0.000  -0.000  -0.002   0.000
 11.911   3.242  -0.000  -0.007   0.000   0.000  -0.014  -0.000
  0.000  -0.000 -18.694  -0.000  -0.000   9.544   0.000   0.000
  0.013  -0.007  -0.000 -18.724   0.000   0.000   9.574  -0.000
 -0.000   0.000  -0.000   0.000 -18.694   0.000  -0.000   9.544
 -0.000   0.000   9.544   0.000   0.000   5.398  -0.000  -0.000
 -0.002  -0.014   0.000   9.574  -0.000  -0.000   5.385   0.000
  0.000  -0.000   0.000  -0.000   9.544  -0.000   0.000   5.398
 -0.000   0.000  -0.000   0.000   0.000   0.000  -0.000  -0.000
 -0.000   0.000   0.007   0.000   0.000   0.001  -0.000  -0.000
 -0.022   0.012  -0.000   0.015   0.000   0.000  -0.003  -0.000
  0.000  -0.000   0.000  -0.000   0.007  -0.000   0.000   0.001
  0.000  -0.000  -0.000  -0.000  -0.000   0.000   0.000   0.000
 -0.000   0.000  -0.000   0.000   0.000   0.000  -0.000  -0.000
 -0.000   0.000   0.007   0.000   0.000   0.001  -0.000  -0.000
 -0.022   0.012  -0.000   0.015   0.000   0.000  -0.003  -0.000
  0.000  -0.000   0.000  -0.000   0.007  -0.000   0.000   0.001
  0.000  -0.000  -0.000  -0.000  -0.000   0.000   0.000   0.000
 total augmentation occupancy for first ion, spin component:           1
  1.996  -0.030   0.000  -0.003  -0.000   0.000  -0.006   0.000   0.000   0.000   0.023   0.000  -0.000   0.000   0.000  -0.019
 -0.030   1.384   0.000  -0.043   0.000   0.000   0.105   0.000   0.000   0.000   0.090  -0.000   0.000   0.000   0.000  -0.138
  0.000   0.000   1.996   0.000   0.000  -0.029  -0.000   0.000  -0.000  -0.015   0.000   0.000   0.000   0.000  -0.008   0.000
 -0.003  -0.043   0.000   1.996   0.000   0.000  -0.021   0.000   0.000   0.000   0.021  -0.000  -0.000   0.000   0.000  -0.046
 -0.000   0.000   0.000   0.000   1.996   0.000   0.000  -0.029  -0.000   0.000   0.000  -0.015  -0.000   0.000   0.000   0.000
  0.000   0.000  -0.029   0.000   0.000   0.058   0.000   0.000   0.000  -0.098   0.000   0.000   0.000   0.000   0.159  -0.000
 -0.006   0.105  -0.000  -0.021   0.000   0.000   0.035   0.000   0.000   0.000  -0.077  -0.000   0.000   0.000   0.000   0.134
  0.000   0.000   0.000   0.000  -0.029   0.000   0.000   0.058   0.000   0.000  -0.000  -0.098   0.000   0.000   0.000   0.000
  0.000   0.000  -0.000   0.000  -0.000   0.000   0.000   0.000   0.646   0.000   0.000   0.000   0.000  -0.682   0.000   0.000
  0.000   0.000  -0.015   0.000   0.000  -0.098   0.000   0.000   0.000   0.796   0.000   0.000   0.000   0.000  -0.732   0.000
  0.023   0.090   0.000   0.021   0.000   0.000  -0.077  -0.000   0.000   0.000   0.708  -0.000  -0.000   0.000   0.000  -0.846
  0.000  -0.000   0.000  -0.000  -0.015   0.000  -0.000  -0.098   0.000   0.000  -0.000   0.796   0.000   0.000   0.000  -0.000
 -0.000   0.000   0.000  -0.000  -0.000   0.000   0.000   0.000   0.000   0.000  -0.000   0.000   0.816   0.000   0.000   0.000
  0.000   0.000   0.000   0.000   0.000   0.000   0.000   0.000  -0.682   0.000   0.000   0.000   0.000   1.610   0.000   0.000
  0.000   0.000  -0.008   0.000   0.000   0.159   0.000   0.000   0.000  -0.732   0.000   0.000   0.000   0.000   1.588   0.000
 -0.019  -0.138   0.000  -0.046   0.000  -0.000   0.134   0.000   0.000   0.000  -0.846  -0.000   0.000   0.000   0.000   1.654
  0.000  -0.000   0.000   0.000  -0.008   0.000  -0.000   0.159   0.000   0.000   0.000  -0.732   0.000  -0.000   0.000   0.000
  0.000   0.000   0.000   0.000   0.000   0.000  -0.000   0.000  -0.000  -0.000   0.000   0.000  -1.007  -0.000  -0.000  -0.000


------------------------ aborting loop because EDIFF is reached ----------------------------------------


    CHARGE:  cpu time      2.5033: real time      0.7960
    FORLOC:  cpu time      0.7731: real time      0.1105
    FORNL :  cpu time     10.6173: real time      3.6586
    STRESS:  cpu time     34.0341: real time     11.1758
    FORCOR:  cpu time      9.0738: real time      1.3720
    FORHAR:  cpu time      0.5863: real time      0.1852
    MIXING:  cpu time      1.9917: real time      0.3712
    OFIELD:  cpu time      0.0012: real time      0.0002

  FORCE on cell =-STRESS in cart. coord.  units (eV):
  Direction    XX          YY          ZZ          XY          YZ          ZX
  --------------------------------------------------------------------------------------
  Alpha Z  3308.69180  3308.69180  3308.69180
  Ewald  457058.01924457058.01924************    -0.00000     0.00000     0.00000
  Hartree485765.19464485765.19464************    -0.00000    -0.00000    -0.00000
  E(xc)   -4219.55582 -4219.55582 -4227.01938     0.00000     0.00000    -0.00000
  Local  ************************981825.93652     0.00000     0.00000    -0.00000
  n-local -1610.49686 -1597.06321 -1643.54650     2.49004     0.00000    -0.00000
  augment  2153.63580  2153.63580  2148.70755    -0.00000    -0.00000     0.00000
  Kinetic 15851.61468 15900.05938 15869.12636     2.73614     0.00000    -0.00000
  Fock        0.00000     0.00000     0.00000     0.00000     0.00000     0.00000
  -------------------------------------------------------------------------------------
  Total     -54.99262   -54.99262   -31.71791     0.00000     0.00000     0.00000
  in kB     -39.85627   -39.85627   -22.98777     0.00000     0.00000     0.00000
  external pressure =      -34.23 kB  Pullay stress =        0.00 kB


 VOLUME and BASIS-vectors are now :
 -----------------------------------------------------------------------------
  energy-cutoff  :      530.00
  volume of cell :     2210.64
      direct lattice vectors                 reciprocal lattice vectors
     9.498399734  0.000000000  0.000000000     0.105280892  0.000000000  0.000000000
     0.000000000  9.498399734  0.000000000     0.000000000  0.105280892  0.000000000
     0.000000000  0.000000000 24.502899170     0.000000000  0.000000000  0.040811497

  length of vectors
     9.498399734  9.498399734 24.502899170     0.105280892  0.105280892  0.040811497


 FORCES acting on ions
    electron-ion (+dipol)            ewald-force                    non-local-force                 convergence-correction
 -----------------------------------------------------------------------------------------------
   -.218E-12 -.236E-12 0.563E+04   0.226E-12 0.149E-13 -.562E+04   0.139E-23 0.466E-24 -.826E+01   -.711E-13 -.215E-12 0.286E-03
   0.110E-12 0.256E-12 -.567E+04   -.284E-13 0.000E+00 0.567E+04   0.646E-24 -.504E-24 0.801E+01   -.238E-12 -.431E-14 0.187E-03
   0.114E+01 0.114E+01 0.390E+04   -.115E+01 -.115E+01 -.390E+04   0.100E-01 0.100E-01 0.835E+00   0.120E-05 0.120E-05 0.162E-03
   0.387E+00 -.218E-12 0.563E+04   -.365E+00 -.217E-12 -.562E+04   -.952E-02 -.282E-20 -.818E+01   0.121E-04 -.183E-12 0.323E-03
   -.190E+01 -.658E-13 -.566E+04   0.178E+01 -.284E-13 0.565E+04   0.806E-01 0.133E-18 0.870E+01   -.663E-04 -.110E-12 0.959E-04
   -.888E-12 0.166E+01 0.390E+04   0.115E-12 -.168E+01 -.390E+04   0.853E-19 -.209E-02 0.803E+00   0.249E-13 -.289E-04 0.161E-03
   -.387E+00 -.247E-12 0.563E+04   0.365E+00 -.999E-13 -.562E+04   0.952E-02 -.461E-20 -.818E+01   -.121E-04 -.216E-12 0.323E-03
   0.190E+01 0.423E-13 -.566E+04   -.178E+01 0.284E-13 0.565E+04   -.806E-01 0.641E-19 0.870E+01   0.663E-04 -.111E-12 0.959E-04
   -.114E+01 0.114E+01 0.390E+04   0.115E+01 -.115E+01 -.390E+04   -.100E-01 0.100E-01 0.835E+00   -.120E-05 0.120E-05 0.162E-03
   0.106E-11 0.387E+00 0.563E+04   -.753E-13 -.365E+00 -.562E+04   0.123E-20 -.952E-02 -.818E+01   -.101E-12 0.121E-04 0.323E-03
   0.146E-11 -.190E+01 -.566E+04   -.199E-12 0.178E+01 0.565E+04   0.132E-18 0.806E-01 0.870E+01   -.217E-12 -.663E-04 0.959E-04
   0.166E+01 0.944E-12 0.390E+04   -.168E+01 0.170E-12 -.390E+04   -.209E-02 0.674E-19 0.803E+00   -.289E-04 -.208E-13 0.161E-03
   0.490E+00 0.490E+00 0.563E+04   -.490E+00 -.490E+00 -.562E+04   -.413E-02 -.413E-02 -.818E+01   -.182E-04 -.182E-04 0.296E-03
   0.175E+03 0.175E+03 -.567E+04   -.173E+03 -.173E+03 0.567E+04   -.168E+01 -.168E+01 0.745E+01   -.416E-04 -.416E-04 0.159E-03
   0.707E-12 0.566E-12 0.391E+04   0.577E-13 0.164E-12 -.391E+04   0.140E-26 0.163E-24 0.840E+00   0.240E-13 -.663E-13 0.144E-03
   -.490E+00 0.490E+00 0.563E+04   0.490E+00 -.490E+00 -.562E+04   0.413E-02 -.413E-02 -.818E+01   0.182E-04 -.182E-04 0.296E-03
   -.175E+03 0.175E+03 -.567E+04   0.173E+03 -.173E+03 0.567E+04   0.168E+01 -.168E+01 0.745E+01   0.416E-04 -.416E-04 0.159E-03
   -.166E+01 0.742E-12 0.390E+04   0.168E+01 -.719E-13 -.390E+04   0.209E-02 0.762E-19 0.803E+00   0.289E-04 -.509E-13 0.161E-03
   -.121E-11 -.387E+00 0.563E+04   0.244E-14 0.365E+00 -.562E+04   0.324E-20 0.952E-02 -.818E+01   -.907E-13 -.121E-04 0.323E-03
   -.194E-11 0.190E+01 -.566E+04   -.568E-13 -.178E+01 0.565E+04   -.292E-19 -.806E-01 0.870E+01   -.268E-12 0.663E-04 0.959E-04
   0.114E+01 -.114E+01 0.390E+04   -.115E+01 0.115E+01 -.390E+04   0.100E-01 -.100E-01 0.835E+00   0.120E-05 -.120E-05 0.162E-03
   0.490E+00 -.490E+00 0.563E+04   -.490E+00 0.490E+00 -.562E+04   -.413E-02 0.413E-02 -.818E+01   -.182E-04 0.182E-04 0.296E-03
   0.175E+03 -.175E+03 -.567E+04   -.173E+03 0.173E+03 0.567E+04   -.168E+01 0.168E+01 0.745E+01   -.416E-04 0.416E-04 0.159E-03
   0.187E-11 -.166E+01 0.390E+04   0.391E-13 0.168E+01 -.390E+04   0.672E-19 0.209E-02 0.803E+00   0.110E-13 0.289E-04 0.161E-03
   -.490E+00 -.490E+00 0.563E+04   0.490E+00 0.490E+00 -.562E+04   0.413E-02 0.413E-02 -.818E+01   0.182E-04 0.182E-04 0.296E-03
   -.175E+03 -.175E+03 -.567E+04   0.173E+03 0.173E+03 0.567E+04   0.168E+01 0.168E+01 0.745E+01   0.416E-04 0.416E-04 0.159E-03
   -.114E+01 -.114E+01 0.390E+04   0.115E+01 0.115E+01 -.390E+04   -.100E-01 -.100E-01 0.835E+00   -.120E-05 -.120E-05 0.162E-03
   -.294E-13 -.105E-13 0.195E+04   0.782E-13 -.146E-12 -.195E+04   0.352E-23 -.157E-23 -.676E+00   -.848E-13 -.139E-12 -.853E-04
   0.553E+01 0.553E+01 0.337E+01   -.551E+01 -.551E+01 -.329E+01   -.498E-03 -.498E-03 0.867E-01   0.287E-04 0.287E-04 0.133E-03
   0.250E+01 0.127E-12 0.195E+04   -.243E+01 -.470E-10 -.195E+04   -.101E-01 -.868E-20 -.733E+00   0.205E-05 -.169E-12 -.708E-04
   0.879E-12 0.133E+02 0.145E+02   -.470E-10 -.135E+02 -.144E+02   -.172E-18 0.722E-01 -.534E-01   0.116E-13 -.692E-04 0.145E-03
   -.250E+01 0.664E-13 0.195E+04   0.243E+01 -.500E-10 -.195E+04   0.101E-01 0.279E-20 -.733E+00   -.205E-05 -.129E-12 -.708E-04
   -.553E+01 0.553E+01 0.337E+01   0.551E+01 -.551E+01 -.329E+01   0.498E-03 -.498E-03 0.867E-01   -.287E-04 0.287E-04 0.133E-03
   0.295E-14 0.250E+01 0.195E+04   0.000E+00 -.243E+01 -.195E+04   0.587E-20 -.101E-01 -.733E+00   -.130E-12 0.205E-05 -.708E-04
   0.133E+02 0.771E-12 0.145E+02   -.135E+02 -.470E-10 -.144E+02   0.722E-01 -.121E-18 -.534E-01   -.692E-04 -.870E-13 0.145E-03
   0.497E+01 0.497E+01 0.196E+04   -.493E+01 -.493E+01 -.196E+04   -.381E-01 -.381E-01 -.723E+00   -.362E-04 -.362E-04 -.894E-04
   0.819E-12 0.857E-12 0.673E+02   -.470E-10 -.499E-10 -.674E+02   -.481E-24 -.568E-24 -.613E+00   -.218E-13 -.917E-13 0.490E-04
   -.497E+01 0.497E+01 0.196E+04   0.493E+01 -.493E+01 -.196E+04   0.381E-01 -.381E-01 -.723E+00   0.362E-04 -.362E-04 -.894E-04
   -.133E+02 0.752E-12 0.145E+02   0.135E+02 -.970E-10 -.144E+02   -.722E-01 -.535E-19 -.534E-01   0.692E-04 -.147E-12 0.145E-03
   -.157E-12 -.250E+01 0.195E+04   -.149E-12 0.243E+01 -.195E+04   -.464E-20 0.101E-01 -.733E+00   -.428E-13 -.205E-05 -.708E-04
   0.553E+01 -.553E+01 0.337E+01   -.551E+01 0.551E+01 -.329E+01   -.498E-03 0.498E-03 0.867E-01   0.287E-04 -.287E-04 0.133E-03
   0.497E+01 -.497E+01 0.196E+04   -.493E+01 0.493E+01 -.196E+04   -.381E-01 0.381E-01 -.723E+00   -.362E-04 0.362E-04 -.894E-04
   0.432E-12 -.133E+02 0.145E+02   -.470E-10 0.135E+02 -.144E+02   0.817E-19 -.722E-01 -.534E-01   -.617E-13 0.692E-04 0.145E-03
   -.497E+01 -.497E+01 0.196E+04   0.493E+01 0.493E+01 -.196E+04   0.381E-01 0.381E-01 -.723E+00   0.362E-04 0.362E-04 -.894E-04
   -.553E+01 -.553E+01 0.337E+01   0.551E+01 0.551E+01 -.329E+01   0.498E-03 0.498E-03 0.867E-01   -.287E-04 -.287E-04 0.133E-03
   -.117E-12 -.118E-13 -.192E+04   0.142E-12 0.199E-12 0.192E+04   -.702E-24 0.123E-23 0.417E+00   -.226E-12 -.131E-12 0.420E-03
   -.341E+02 -.341E+02 -.398E+04   0.338E+02 0.338E+02 0.398E+04   0.297E+00 0.297E+00 -.698E+00   -.440E-05 -.440E-05 0.428E-03
   0.131E+02 0.151E-12 -.192E+04   -.128E+02 -.288E-10 0.192E+04   -.342E+00 0.335E-20 0.516E+00   0.122E-04 -.248E-12 0.403E-03
   0.945E-12 0.340E+02 -.395E+04   0.576E-12 -.341E+02 0.395E+04   0.715E-19 0.177E+00 -.793E+00   0.191E-13 -.826E-04 0.390E-03
   -.131E+02 0.752E-13 -.192E+04   0.128E+02 -.318E-11 0.192E+04   0.342E+00 -.782E-21 0.516E+00   -.122E-04 -.179E-12 0.403E-03
   0.341E+02 -.341E+02 -.398E+04   -.338E+02 0.338E+02 0.398E+04   -.297E+00 0.297E+00 -.698E+00   0.440E-05 -.440E-05 0.428E-03
   0.137E-12 0.131E+02 -.192E+04   0.000E+00 -.128E+02 0.192E+04   -.864E-20 -.342E+00 0.516E+00   -.218E-12 0.122E-04 0.403E-03
   0.340E+02 0.942E-12 -.395E+04   -.341E+02 0.647E-12 0.395E+04   0.177E+00 -.354E-19 -.793E+00   -.826E-04 -.862E-13 0.390E-03
   0.569E+02 0.569E+02 -.191E+04   -.572E+02 -.572E+02 0.191E+04   -.320E-01 -.320E-01 0.913E+00   -.102E-03 -.102E-03 0.362E-03
   0.569E-12 0.428E-12 -.356E+04   -.445E-10 -.472E-10 0.356E+04   0.156E-23 0.543E-24 -.144E+01   -.317E-13 -.298E-13 0.553E-03
   -.569E+02 0.569E+02 -.191E+04   0.572E+02 -.572E+02 0.191E+04   0.320E-01 -.320E-01 0.913E+00   0.102E-03 -.102E-03 0.362E-03
   -.340E+02 0.119E-11 -.395E+04   0.341E+02 0.824E-12 0.395E+04   -.177E+00 -.101E-18 -.793E+00   0.826E-04 -.112E-12 0.390E-03
   -.216E-12 -.131E+02 -.192E+04   -.114E-12 0.128E+02 0.192E+04   -.568E-20 0.342E+00 0.516E+00   -.169E-12 -.122E-04 0.403E-03
   -.341E+02 0.341E+02 -.398E+04   0.338E+02 -.338E+02 0.398E+04   0.297E+00 -.297E+00 -.698E+00   -.440E-05 0.440E-05 0.428E-03
   0.569E+02 -.569E+02 -.191E+04   -.572E+02 0.572E+02 0.191E+04   -.320E-01 0.320E-01 0.913E+00   -.102E-03 0.102E-03 0.362E-03
   0.120E-11 -.340E+02 -.395E+04   0.512E-12 0.341E+02 0.395E+04   -.584E-19 -.177E+00 -.793E+00   -.108E-13 0.826E-04 0.390E-03
   -.569E+02 -.569E+02 -.191E+04   0.572E+02 0.572E+02 0.191E+04   0.320E-01 0.320E-01 0.913E+00   0.102E-03 0.102E-03 0.362E-03
   0.341E+02 0.341E+02 -.398E+04   -.338E+02 -.338E+02 0.398E+04   -.297E+00 -.297E+00 -.698E+00   0.440E-05 0.440E-05 0.428E-03
 -----------------------------------------------------------------------------------------------
   0.298E-10 0.388E-10 0.194E+01   -.504E-12 0.142E-13 0.455E-10   -.111E-15 -.500E-15 -.195E+01   -.105E-11 -.256E-11 0.131E-01
 
 
 POSITION                                       TOTAL-FORCE (eV/Angst)
 -----------------------------------------------------------------------------------
      0.00000      0.00000      0.00000        -0.000000     -0.000000      1.559502
      0.00000      0.00000      9.34692        -0.000000     -0.000000     -0.097909
      1.58310      1.58310      1.58387        -0.007338     -0.007338     -1.320766
      3.16610      0.00000      0.00000         0.012396     -0.000000      1.556754
      3.13777      0.00000      9.32622        -0.038586     -0.000000      0.031514
      4.74920      1.58310      1.58387        -0.000000     -0.018745     -1.220873
      6.33230      0.00000      0.00000        -0.012396     -0.000000      1.556754
      6.36063      0.00000      9.32622         0.038586     -0.000000      0.031514
      7.91530      1.58310      1.58387         0.007338     -0.007338     -1.320766
      0.00000      3.16610      0.00000        -0.000000      0.012396      1.556754
      0.00000      3.13777      9.32622        -0.000000     -0.038586      0.031514
      1.58310      4.74920      1.58387        -0.018745     -0.000000     -1.220873
      3.16610      3.16610      0.00000        -0.004281     -0.004281      1.523056
      3.37102      3.37102      9.42839        -0.081499     -0.081499     -0.355729
      4.74920      4.74920      1.58387        -0.000000     -0.000000     -1.274228
      6.33230      3.16610      0.00000         0.004281     -0.004281      1.523056
      6.12738      3.37102      9.42839         0.081499     -0.081499     -0.355729
      7.91530      4.74920      1.58387         0.018745     -0.000000     -1.220873
      0.00000      6.33230      0.00000        -0.000000     -0.012396      1.556754
      0.00000      6.36063      9.32622        -0.000000      0.038586      0.031514
      1.58310      7.91530      1.58387        -0.007338      0.007338     -1.320766
      3.16610      6.33230      0.00000        -0.004281      0.004281      1.523056
      3.37102      6.12738      9.42839        -0.081499      0.081499     -0.355729
      4.74920      7.91530      1.58387        -0.000000      0.018745     -1.220873
      6.33230      6.33230      0.00000         0.004281      0.004281      1.523056
      6.12738      6.12738      9.42839         0.081499      0.081499     -0.355729
      7.91530      7.91530      1.58387         0.007338      0.007338     -1.320766
      0.00000      0.00000      3.16773        -0.000000     -0.000000     -0.099104
      1.58310      1.58310      4.75136         0.017029      0.017029      0.165211
      3.16610      0.00000      3.16773         0.056952     -0.000000     -0.179471
      4.74920      1.58310      4.75136        -0.000000     -0.136075      0.059594
      6.33230      0.00000      3.16773        -0.056952     -0.000000     -0.179471
      7.91530      1.58310      4.75136        -0.017029      0.017029      0.165211
      0.00000      3.16610      3.16773        -0.000000      0.056952     -0.179471
      1.58310      4.74920      4.75136        -0.136075     -0.000000      0.059594
      3.16610      3.16610      3.16773         0.001387      0.001387     -0.167481
      4.74920      4.74920      4.75136        -0.000000     -0.000000     -0.704113
      6.33230      3.16610      3.16773        -0.001387      0.001387     -0.167481
      7.91530      4.74920      4.75136         0.136075     -0.000000      0.059594
      0.00000      6.33230      3.16773        -0.000000     -0.056952     -0.179471
      1.58310      7.91530      4.75136         0.017029     -0.017029      0.165211
      3.16610      6.33230      3.16773         0.001387     -0.001387     -0.167481
      4.74920      7.91530      4.75136        -0.000000      0.136075      0.059594
      6.33230      6.33230      3.16773        -0.001387     -0.001387     -0.167481
      7.91530      7.91530      4.75136        -0.017029     -0.017029      0.165211
      0.00000      0.00000      6.33522        -0.000000     -0.000000      0.034557
      1.58302      1.58302      7.97014        -0.015808     -0.015808      0.055253
      3.16610      0.00000      6.33522        -0.009188     -0.000000     -0.251082
      4.74920      1.56953      7.95507        -0.000000      0.065791      0.007881
      6.33230      0.00000      6.33522         0.009188     -0.000000     -0.251082
      7.91538      1.58302      7.97014         0.015808     -0.015808      0.055253
      0.00000      3.16610      6.33522        -0.000000     -0.009188     -0.251082
      1.56953      4.74920      7.95507         0.065791     -0.000000      0.007881
      3.16610      3.16610      6.33522        -0.290318     -0.290318     -0.125847
      4.74920      4.74920      7.74153        -0.000000     -0.000000      1.469241
      6.33230      3.16610      6.33522         0.290318     -0.290318     -0.125847
      7.92887      4.74920      7.95507        -0.065791     -0.000000      0.007881
      0.00000      6.33230      6.33522        -0.000000      0.009188     -0.251082
      1.58302      7.91538      7.97014        -0.015808      0.015808      0.055253
      3.16610      6.33230      6.33522        -0.290318      0.290318     -0.125847
      4.74920      7.92887      7.95507        -0.000000     -0.065791      0.007881
      6.33230      6.33230      6.33522         0.290318      0.290318     -0.125847
      7.91538      7.91538      7.97014         0.015808      0.015808      0.055253
 -----------------------------------------------------------------------------------
    total drift:                                0.000000      0.000000      0.004738


--------------------------------------------------------------------------------------------------------



  FREE ENERGIE OF THE ION-ELECTRON SYSTEM (eV)
  ---------------------------------------------------
  free  energy   TOTEN  =      -651.06812151 eV

  energy  without entropy=     -650.77548333  energy(sigma->0) =     -650.92180242
 


--------------------------------------------------------------------------------------------------------


    POTLOK:  cpu time     11.9220: real time      1.8476


--------------------------------------------------------------------------------------------------------


 stress matrix after NEB project (eV)
    -54.99262      0.00000      0.00000
      0.00000    -54.99262      0.00000
      0.00000      0.00000    -31.71791
  FORCES: max atom, RMS     1.469241    0.209658
  FORCE total and by dimension    1.664110    1.469241
  Stress total and by dimension   83.990487   54.992617
 writing wavefunctions
     LOOP+:  cpu time   4564.6401: real time    739.1354
    4ORBIT:  cpu time      0.0000: real time      0.0000

 total amount of memory used by VASP MPI-rank0  1867921. kBytes
=======================================================================

   base      :      30000. kBytes
   nonlr-proj:      84753. kBytes
   fftplans  :     272216. kBytes
   grid      :     423429. kBytes
   one-center:        979. kBytes
   wavefun   :    1056544. kBytes
 
  
  
 General timing and accounting informations for this job:
 ========================================================
  
                  Total CPU time used (sec):     4665.542
                            User time (sec):     3618.522
                          System time (sec):     1047.019
                         Elapsed time (sec):      787.136
  
                   Maximum memory used (kb):     4628040.
                   Average memory used (kb):          N/A
  
                          Minor page faults:       694648
                          Major page faults:          132
                 Voluntary context switches:       688064
 
 PROFILE, used timers:     226
 =============================
 
 index                 routine                    time                            calls level
----------------------------------------------------------------------------------------------
    1    total_time                          787.136544                                1   1
    2      init_hip                              0.507764                              1   2
    3      crpa_reader                           0.000062                              1   2
    4      hip_init_hipblas                      0.000280                              1   2
    5      hip_init_rocsolver                    0.000070                              1   2
    6      inisym                                0.023338                              1   2
    7        posmap                                0.000121                            2   3
    8      hip_hipfft_makeplans                  0.002761                              3   2
    9        hip_hipfft_makeplan                   0.002757                            6   3
   10      brgrid                                0.015727                              1   2
   11      stufak                                0.266144                              1   2
   12      fft3d_mpi                             0.156515                              3   2
   13        fftbrc_mpi                            0.129412                            3   3
   14          fftbas_plan_mpi                       0.129406                          3   4
   15            dfftw_execute                         0.069773                        9   5
   16            map_forward                           0.041705                        6   5
   17              map_scatter                           0.023621                      3   6
   18      rspher_all                            0.116750                              2   2
   19      m_sumb_d                              0.329623                              1   2
   20      setdij_                               0.247689                              2   2
   21      vectorpot                             0.000013                              1   2
   22      proall                                1.099207                              1   2
   23        phaser                                0.053930                            2   3
   24        rpro_isp                              0.874274                            2   3
   25          fftwav_mpi                            0.091698                       1058   4
   26            fftwav                                0.090302                     1058   5
   27              fft3d                                 0.074672                   1058   6
   28          rpromu_acc                            0.780550                        266   4
   29      orthch                                3.701753                              1   2
   30        overl                                 0.000875                            2   3
   31        orth1                                 3.114155                            2   3
   32        choleski                              0.250544                            2   3
   33        lincom                                0.110182                            2   3
   34      redis_pw_over_bands                   0.000001                              1   2
   35      m_bcast_d                             0.000152                              4   2
   36      m_bcast_z                             0.000546                              2   2
   37      fewald                                0.006098                              1   2
   38        rsp                                   0.004139                            1   3
   39        rcp                                   0.000345                            1   3
   40        m_sumb_d                              0.000100                            5   3
   41      elmin                               697.380916                              1   2
   42        potlok                               58.166147                           39   3
   43          fft3d_mpi                            20.895067                        507   4
   44            fftbrc_mpi                           16.738245                      507   5
   45              fftbas_plan_mpi                      16.737535                    507   6
   46                dfftw_execute                        10.671016                 1521   7
   47                map_forward                           3.015348                  546   7
   48                  map_scatter                           1.779486                273   8
   49                map_backward                          2.997251                  468   7
   50                  map_gather                            1.964610                234   8
   51          ggaall_grid                          11.020438                         39   4
   52          pothar                                1.885293                         39   4
   53        potlok_metagga                        0.000034                           39   3
   54        vectorpot                             0.000255                           39   3
   55        setdij_                               4.817777                           39   3
   56        set_dd_magatom                        0.000253                           39   3
   57        set_dd_paw                            3.632137                           39   3
   58          m_sumb_d                              2.580854                        273   4
   59        eddav                               598.849900                           43   3
   60          phaser                                2.379097                         86   4
   61          newband                              17.083043                      19054   4
   62            w1_copy                               0.777731                    90988   5
   63            fftwav_mpi                            0.958773                    45494   5
   64              fftwav                                0.891692                  45494   6
   65                fft3d                                 0.552703                45494   7
   66            eccp                                  0.953815                    45494   5
   67            truncate_high_frequency_w1            0.006097                    45494   5
   68            setup_precond                         0.323732                    45494   5
   69          hamiltmu                             74.476578                      18968   4
   70            vhamil                                0.469735                   148776   5
   71            raccmu_                              36.526271                    18968   5
   72              overl_mu                              1.644462                  18968   6
   73              racc0mu_acc                          25.396835                  18968   6
   74            kinhamil                              2.961472                   148776   5
   75              fftext_mpi                            2.346907                 148776   6
   76                fft3d_mpi                             1.769425               148776   7
   77                  fft3d                                 1.687115             148776   8
   78          overl                                 1.754032                     252058   4
   79          truncate_high_frequency_w1            0.019926                     148776   4
   80          w1_copy                               2.833262                     355340   4
   81          orth1                                 2.002319                      56904   4
   82          lapack                               18.314396                      18968   4
   83          apply_precond                         0.345012                     103282   4
   84          fftwav_mpi                            4.398007                     206564   4
   85            fftwav                                4.099935                   206564   5
   86              fft3d                                 2.596901                 206564   6
   87          w1_projall                           39.633307                      13206   4
   88            rpromu_acc                           39.615627                    13206   5
   89          ggemm                                 1.053463                      24730   4
   90          lincom                                2.772772                         86   4
   91          m_bcast_z                             0.002001                         43   4
   92          m_sumb_d                              0.000748                         86   4
   93        m_sumb_d                              0.010902                           86   3
   94        densta                                0.142380                           43   3
   95          m_sumb_d                              0.005893                       1760   4
   96        set_charge                           23.706207                           38   3
   97          soft_charge                          12.841423                         38   4
   98            fftwav_mpi                            0.685712                    35060   5
   99              fftwav                                0.643576                  35060   6
  100                fft3d                                 0.389201                35060   7
  101            pw_charge                             0.119667                    35060   5
  102            m_sumb_d                             11.482618                       38   5
  103            fft_gq                                0.373475                       38   5
  104              fft3d_mpi                             0.351875                     38   6
  105                fftbrc_mpi                            0.155982                   38   7
  106                  fftbas_plan_mpi                       0.155936                 38   8
  107                    dfftw_execute                         0.081709              114   9
  108                    map_backward                          0.042321               76   9
  109                      map_gather                            0.026252             38  10
  110          depsum                                0.608989                         38   4
  111            m_sumb_d                              0.076862                       38   5
  112          augmentation_charge                   7.515571                         38   4
  113            fft3d_mpi                             1.674177                       38   5
  114              fftbrc_mpi                            1.358338                     38   6
  115                fftbas_plan_mpi                       1.358276                   38   7
  116                  dfftw_execute                         0.854905                114   8
  117                  map_backward                          0.497425                 76   8
  118                    map_gather                            0.329276               38   9
  119        brmix                                 7.333249                           38   3
  120          brpre                                 0.054841                         38   4
  121          setg0                                 1.568576                         39   4
  122          broyd                                 3.440423                         38   4
  123            brsav                                 0.269550                      900   5
  124            brget                                 0.326695                     3851   5
  125          m_bcast_z                             1.630768                         38   4
  126          m_bcast_d                             0.023694                         38   4
  127        m_bcast_z                             0.000034                            1   3
  128      rotate_active_occupied_orbital        0.000006                              1   2
  129      force_and_stress                     17.835660                              1   2
  130        set_charge                            0.622019                            1   3
  131          soft_charge                           0.336555                          1   4
  132            fftwav_mpi                            0.018278                      921   5
  133              fftwav                                0.017115                    921   6
  134                fft3d                                 0.010382                  921   7
  135            pw_charge                             0.003290                      921   5
  136            m_sumb_d                              0.301229                        1   5
  137            fft_gq                                0.009206                        1   5
  138              fft3d_mpi                             0.008685                      1   6
  139                fftbrc_mpi                            0.003457                    1   7
  140                  fftbas_plan_mpi                       0.003455                  1   8
  141                    dfftw_execute                         0.002133                3   9
  142                    map_backward                          0.001138                2   9
  143                      map_gather                            0.000718              1  10
  144          depsum                                0.014920                          1   4
  145            m_sumb_d                              0.000466                        1   5
  146          augmentation_charge                   0.197866                          1   4
  147            fft3d_mpi                             0.044313                        1   5
  148              fftbrc_mpi                            0.035823                      1   6
  149                fftbas_plan_mpi                       0.035822                    1   7
  150                  dfftw_execute                         0.022475                  3   8
  151                  map_backward                          0.013197                  2   8
  152                    map_gather                            0.008763                1   9
  153        forloc                                0.104418                            1   3
  154        fornlr                                2.918709                            1   3
  155          rspher_all                            0.306691                          3   4
  156          phaser                                0.149313                          6   4
  157          rpro_isp                              2.370946                          6   4
  158            fftwav_mpi                            0.074781                     3174   5
  159              fftwav                                0.070582                   3174   6
  160                fft3d                                 0.043009                 3174   7
  161            rpromu_acc                            2.289284                      798   5
  162          m_sumb_d                              0.061309                          1   4
  163        fordep                                0.739678                            1   3
  164          setdij_                               0.739622                          6   4
  165        setdij_                               2.463912                           20   3
  166        set_dd_magatom                        0.000005                            1   3
  167        set_dd_paw                            0.036531                            1   3
  168          m_sumb_d                              0.009574                          7   4
  169        strkin                                0.047549                            1   3
  170          m_sumb_d                              0.000596                          1   4
  171        strelo                                0.023795                            1   3
  172        strnlr                                8.763085                            1   3
  173          rspher_all                            0.918936                          9   4
  174          phaser                                0.446744                         18   4
  175          rpro_isp                              7.133506                         18   4
  176            fftwav_mpi                            0.225892                     9522   5
  177              fftwav                                0.213109                   9522   6
  178                fft3d                                 0.130406                 9522   7
  179            rpromu_acc                            6.884677                     2394   5
  180          m_sumb_d                              0.171987                          9   4
  181        fft3d_mpi                             0.483176                           11   3
  182          fftbrc_mpi                            0.390035                         11   4
  183            fftbas_plan_mpi                       0.390020                       11   5
  184              dfftw_execute                         0.248230                     33   6
  185              map_forward                           0.064540                     10   6
  186                map_scatter                           0.038152                    5   7
  187              map_backward                          0.076057                     12   6
  188                map_gather                            0.049709                    6   7
  189        ggaall_grid                           0.293825                            1   3
  190        forhar                                0.207095                            2   3
  191        strehar                               0.012839                            1   3
  192        chggra                                0.081762                            1   3
  193          fft3d_mpi                             0.070104                          3   4
  194            fftbrc_mpi                            0.066719                        3   5
  195              fftbas_plan_mpi                       0.066714                      3   6
  196                map_forward                           0.000060                    4   7
  197                  map_scatter                           0.000009                  2   8
  198                map_backward                          0.000019                    2   7
  199                  map_gather                            0.000004                  1   8
  200          pothar                                0.001427                          1   4
  201        brmix                                 0.371209                            1   3
  202          brpre                                 0.001449                          1   4
  203          setg0                                 0.047852                          1   4
  204          broyd                                 0.246579                          1   4
  205            brget                                 0.017048                      199   5
  206            brsav                                 0.015759                       43   5
  207          m_bcast_z                             0.058843                          1   4
  208          m_bcast_d                             0.000408                          1   4
  209        m_bcast_d                             0.002797                            2   3
  210      potlok                                1.503223                              1   2
  211        fft3d_mpi                             0.533019                           13   3
  212          fftbrc_mpi                            0.426348                         13   4
  213            fftbas_plan_mpi                       0.426330                       13   5
  214              dfftw_execute                         0.273031                     39   6
  215              map_forward                           0.076189                     14   6
  216                map_scatter                           0.044685                    7   7
  217              map_backward                          0.075675                     12   6
  218                map_gather                            0.049405                    6   7
  219        ggaall_grid                           0.293961                            1   3
  220        pothar                                0.048445                            1   3
  221      potlok_metagga                        0.000001                              1   2
  222      set_dd_magatom                        0.000004                              1   2
  223      set_dd_paw                            0.027094                              1   2
  224        m_sumb_d                              0.000163                            7   3
  225      densta                                0.003984                              1   2
  226        m_sumb_d                              0.000410                           40   3
 
 Flat profile
 ============
 
             routine name                   CPU           calls
 ---------------------------------------------------------------
 eddav                                 431.781938          43
 total_time                             63.911163           1
 rpromu_acc                             49.570138       16664
 hamiltmu                               34.519100       18968
 racc0mu_acc                            25.396835       18968
 potlok                                 24.993147          40
 lapack                                 18.314396       18968
 m_sumb_d                               15.033334        2354
 newband                                14.062895       19054
 dfftw_execute                          12.223273        1836
 ggaall_grid                            11.608224          41
 raccmu_                                 9.484974       18968
 setdij_                                 8.269000          67
 augmentation_charge                     5.994946          39
 fft3d                                   5.484390      450569
 orth1                                   5.116473       56906
 fft3d_mpi                               4.994882      149391
 w1_copy                                 3.610993      446328
 broyd                                   3.057950          39
 phaser                                  3.029084         112
 lincom                                  2.882954          88
 set_charge                              2.812902          39
 map_gather                              2.428736         325
 fftwav                                  2.229037      301793
 pothar                                  1.935165          41
 map_scatter                             1.885953         290
 overl                                   1.754907      252060
 m_bcast_z                               1.692192          85
 overl_mu                                1.644462       18968
 setg0                                   1.616428          40
 rspher_all                              1.342376          14
 map_forward                             1.311889         580
 map_backward                            1.274348         650
 set_dd_paw                              1.105172          41
 ggemm                                   1.053463       24730
 eccp                                    0.953815       45494
 elmin                                   0.721640           1
 force_and_stress                        0.663255           1
 brmix                                   0.631026          39
 kinhamil                                0.614564      148776
 fftext_mpi                              0.577482      148776
 depsum                                  0.546581          39
 init_hip                                0.507764           1
 vhamil                                  0.469735      148776
 fftwav_mpi                              0.426829      301793
 apply_precond                           0.345012      103282
 brget                                   0.343743        4050
 setup_precond                           0.323732       45494
 brsav                                   0.285309         943
 stufak                                  0.266144           1
 choleski                                0.250544           2
 orthch                                  0.225997           1
 forhar                                  0.207095           2
 soft_charge                             0.184504          39
 fftbas_plan_mpi                         0.179297         615
 proall                                  0.171003           1
 densta                                  0.140061          44
 pw_charge                               0.122958       35981
 forloc                                  0.104418           1
 strnlr                                  0.091913           1
 brpre                                   0.056290          39
 strkin                                  0.046953           1
 rpro_isp                                0.031843          26
 fornlr                                  0.030450           1
 m_bcast_d                               0.027051          45
 truncate_high_frequency_w1              0.026023      194270
 strelo                                  0.023795           1
 inisym                                  0.023217           1
 fft_gq                                  0.022121          39
 w1_projall                              0.017680       13206
 brgrid                                  0.015727           1
 strehar                                 0.012839           1
 chggra                                  0.010231           1
 rsp                                     0.004139           1
 hip_hipfft_makeplan                     0.002757           6
 fewald                                  0.001514           1
 fftbrc_mpi                              0.000864         615
 rcp                                     0.000345           1
 hip_init_hipblas                        0.000280           1
 vectorpot                               0.000268          40
 set_dd_magatom                          0.000262          41
 posmap                                  0.000121           2
 hip_init_rocsolver                      0.000070           1
 crpa_reader                             0.000062           1
 fordep                                  0.000057           1
 potlok_metagga                          0.000035          40
 rotate_active_occupied_orbital          0.000006           1
 hip_hipfft_makeplans                    0.000004           3
 redis_pw_over_bands                     0.000001           1
 ---------------------------------------------------------------
  summed up times    787.136543989182     
 
 Accumulative profile
 ====================
 
             routine name                   CPU           calls
 ---------------------------------------------------------------
 total_time                            787.136544           1
 elmin                                 697.380916           1
 eddav                                 598.849900          43
 hamiltmu                               74.476578       18968
 potlok                                 59.669370          40
 rpromu_acc                             49.570138       16664
 w1_projall                             39.633307       13206
 raccmu_                                36.526271       18968
 fft3d_mpi                              25.986357      149391
 racc0mu_acc                            25.396835       18968
 set_charge                             24.328226          39
 fftbrc_mpi                             19.304359         615
 fftbas_plan_mpi                        19.303495         615
 lapack                                 18.314396       18968
 force_and_stress                       17.835660           1
 newband                                17.083043       19054
 m_sumb_d                               15.033334        2354
 soft_charge                            13.177978          39
 dfftw_execute                          12.223273        1836
 ggaall_grid                            11.608224          41
 rpro_isp                               10.378726          26
 strnlr                                  8.763085           1
 setdij_                                 8.269000          67
 augmentation_charge                     7.713437          39
 brmix                                   7.704458          39
 fftwav_mpi                              6.453140      301793
 fftwav                                  6.026311      301793
 fft3d                                   5.484390      450569
 orth1                                   5.116473       56906
 map_backward                            3.703084         650
 orthch                                  3.701753           1
 set_dd_paw                              3.695762          41
 broyd                                   3.687002          39
 w1_copy                                 3.610993      446328
 map_forward                             3.197842         580
 phaser                                  3.029084         112
 kinhamil                                2.961472      148776
 fornlr                                  2.918709           1
 lincom                                  2.882954          88
 map_gather                              2.428736         325
 fftext_mpi                              2.346907      148776
 pothar                                  1.935165          41
 map_scatter                             1.885953         290
 overl                                   1.754907      252060
 m_bcast_z                               1.692192          85
 overl_mu                                1.644462       18968
 setg0                                   1.616428          40
 rspher_all                              1.342376          14
 proall                                  1.099207           1
 ggemm                                   1.053463       24730
 eccp                                    0.953815       45494
 fordep                                  0.739678           1
 depsum                                  0.623909          39
 init_hip                                0.507764           1
 vhamil                                  0.469735      148776
 fft_gq                                  0.382681          39
 apply_precond                           0.345012      103282
 brget                                   0.343743        4050
 setup_precond                           0.323732       45494
 brsav                                   0.285309         943
 stufak                                  0.266144           1
 choleski                                0.250544           2
 forhar                                  0.207095           2
 densta                                  0.146364          44
 pw_charge                               0.122958       35981
 forloc                                  0.104418           1
 chggra                                  0.081762           1
 brpre                                   0.056290          39
 strkin                                  0.047549           1
 m_bcast_d                               0.027051          45
 truncate_high_frequency_w1              0.026023      194270
 strelo                                  0.023795           1
 inisym                                  0.023338           1
 brgrid                                  0.015727           1
 strehar                                 0.012839           1
 fewald                                  0.006098           1
 rsp                                     0.004139           1
 hip_hipfft_makeplans                    0.002761           3
 hip_hipfft_makeplan                     0.002757           6
 rcp                                     0.000345           1
 hip_init_hipblas                        0.000280           1
 vectorpot                               0.000268          40
 set_dd_magatom                          0.000262          41
 posmap                                  0.000121           2
 hip_init_rocsolver                      0.000070           1
 crpa_reader                             0.000062           1
 potlok_metagga                          0.000035          40
 rotate_active_occupied_orbital          0.000006           1
 redis_pw_over_bands                     0.000001           1
 ---------------------------------------------------------------
 
Profiling took   0.635678  0.326491  0.002890  0.002747 seconds
Profiling took   0.411624 seconds
