srun: ROUTE: split_hostlist: hl=b06r2n11 tree_width 0
 running on    4 total cores
 distrk:  each k-point on    1 cores,    4 groups
 distr:  one band on    1 cores,    1 groups
 HIP runtime initialized ...    4 DCUs will be used
 Created    4 streams on each DCU
 vasp.6.3.2 27Jun22 (build Mar 15 2023 15:45:48) complex                        
  
 POSCAR found type information on POSCAR Mo
 POSCAR found :  1 types and      63 ions
 Reading from existing POTCAR
 scaLAPACK will be used selectively (only on CPU)
 Reading from existing POTCAR
 LDA part: xc-table for Pade appr. of Perdew
 POSCAR found type information on POSCAR Mo
 POSCAR found :  1 types and      63 ions
 Optimize memory usage for KPAR
 POSCAR, INCAR and KPOINTS ok, starting setup
 FFT: planning ... GRIDC
 FFT: planning ... GRID_SOFT
 FFT: planning ... GRID
 WAVECAR not read
 entering main loop
       N       E                     dE             d eps       ncg     rms          rms(c)
DAV:   1     0.108292944215E+05    0.10829E+05   -0.56412E+05  7676   0.160E+03
DAV:   2    -0.239611979848E+03   -0.11069E+05   -0.10779E+05  6954   0.498E+02
DAV:   3    -0.689388839022E+03   -0.44978E+03   -0.43145E+03  8840   0.860E+01
DAV:   4    -0.709273709906E+03   -0.19885E+02   -0.19084E+02  8128   0.129E+01
DAV:   5    -0.710415418763E+03   -0.11417E+01   -0.11189E+01  8736   0.235E+00    0.103E+02
DAV:   6    -0.711987800683E+03   -0.15724E+01   -0.39524E+02  8288   0.282E+01    0.644E+01
DAV:   7    -0.748386131093E+03   -0.36398E+02   -0.90793E+02  8086   0.397E+01    0.536E+01
DAV:   8    -0.667746408834E+03    0.80640E+02   -0.23188E+02  8272   0.223E+01    0.286E+01
DAV:   9    -0.654491269686E+03    0.13255E+02   -0.35691E+01  8312   0.968E+00    0.164E+01
DAV:  10    -0.653794538982E+03    0.69673E+00   -0.58296E+00  8544   0.328E+00    0.139E+01
DAV:  11    -0.653172532911E+03    0.62201E+00   -0.80667E-01  8400   0.165E+00    0.119E+01
DAV:  12    -0.652527806102E+03    0.64473E+00   -0.89369E-01  7896   0.175E+00    0.921E+00
DAV:  13    -0.651963306008E+03    0.56450E+00   -0.46494E+00  8392   0.379E+00    0.594E+00
DAV:  14    -0.651511494989E+03    0.45181E+00   -0.19042E+00  8344   0.250E+00    0.330E+00
DAV:  15    -0.651469670620E+03    0.41824E-01   -0.38310E-01  8216   0.123E+00    0.271E+00
DAV:  16    -0.651375647660E+03    0.94023E-01   -0.24630E-01  8160   0.109E+00    0.175E+00
DAV:  17    -0.651327641881E+03    0.48006E-01   -0.12520E-01  8192   0.758E-01    0.115E+00
DAV:  18    -0.651297479545E+03    0.30162E-01   -0.52174E-02  8176   0.491E-01    0.844E-01
DAV:  19    -0.651266055394E+03    0.31424E-01   -0.32142E-02  8136   0.404E-01    0.723E-01
DAV:  20    -0.651196166894E+03    0.69888E-01   -0.34788E-02  8232   0.359E-01    0.639E-01
DAV:  21    -0.651104069299E+03    0.92098E-01   -0.65698E-02  8344   0.464E-01    0.667E-01
DAV:  22    -0.651063577926E+03    0.40491E-01   -0.31439E-02  8248   0.334E-01    0.672E-01
DAV:  23    -0.651016085716E+03    0.47492E-01   -0.29766E-02  7800   0.272E-01    0.356E-01
DAV:  24    -0.650989277686E+03    0.26808E-01   -0.28632E-02  7936   0.307E-01    0.428E-01
DAV:  25    -0.650986251319E+03    0.30264E-02   -0.14860E-02  7904   0.218E-01    0.361E-01
DAV:  26    -0.651008039066E+03   -0.21788E-01   -0.76395E-03  7472   0.143E-01    0.175E-01
DAV:  27    -0.651031684695E+03   -0.23646E-01   -0.94633E-03  7640   0.145E-01    0.121E-01
DAV:  28    -0.651050607470E+03   -0.18923E-01   -0.67396E-03  7744   0.943E-02    0.765E-02
DAV:  29    -0.651059607865E+03   -0.90004E-02   -0.20749E-03  7984   0.561E-02    0.476E-02
DAV:  30    -0.651063339805E+03   -0.37319E-02   -0.61259E-04  7856   0.365E-02    0.276E-02
DAV:  31    -0.651066218524E+03   -0.28787E-02   -0.58999E-04  7544   0.204E-02    0.163E-02
DAV:  32    -0.651066915355E+03   -0.69683E-03   -0.96763E-05  6592   0.116E-02    0.100E-02
DAV:  33    -0.651067638384E+03   -0.72303E-03   -0.13520E-04  6176   0.876E-03    0.108E-02
DAV:  34    -0.651067929828E+03   -0.29144E-03   -0.48682E-05  6080   0.533E-03    0.365E-03
DAV:  35    -0.651068003947E+03   -0.74119E-04   -0.60759E-06  5304   0.273E-03    0.218E-03
DAV:  36    -0.651068067931E+03   -0.63984E-04   -0.71868E-06  5032   0.160E-03    0.166E-03
DAV:  37    -0.651068090340E+03   -0.22409E-04   -0.24567E-06  4808   0.103E-03    0.163E-03
DAV:  38    -0.651068102484E+03   -0.12144E-04   -0.12604E-06  4696   0.692E-04    0.123E-03
DAV:  39    -0.651068114103E+03   -0.11620E-04   -0.22557E-06  4776   0.755E-04    0.782E-04
DAV:  40    -0.651068117445E+03   -0.33416E-05   -0.50119E-07  4520   0.491E-04    0.598E-04
DAV:  41    -0.651068119531E+03   -0.20857E-05   -0.32717E-07  4392   0.418E-04    0.311E-04
DAV:  42    -0.651068121013E+03   -0.14825E-05   -0.21147E-07  4184   0.296E-04    0.198E-04
DAV:  43    -0.651068121508E+03   -0.49474E-06   -0.56409E-08  3712   0.168E-04
   1 F= -.65106812E+03 E0= -.65092180E+03  d E =-.292638E+00
 writing wavefunctions
 PROFILE, used timers:     226
