  64  64   0   0
  0.3454128E+02  0.9498400E-09  0.9498400E-09  0.2450290E-08  0.5000000E-15
  1.000000000000000E-004
  CAR 
 ni3al                                   
      9.51051913    -60.86714142  301      3.54919469      1.00000000
    -60.867  0.0000E+00  0.0000E+00  0.0000E+00  0.0000E+00
    -60.633  0.0000E+00  0.0000E+00  0.0000E+00  0.0000E+00
    -60.398  0.0000E+00  0.0000E+00  0.0000E+00  0.0000E+00
    -60.163  0.0000E+00  0.0000E+00  0.0000E+00  0.0000E+00
    -59.929  0.0000E+00  0.0000E+00  0.0000E+00  0.0000E+00
    -59.694  0.0000E+00  0.0000E+00  0.0000E+00  0.0000E+00
    -59.460  0.0000E+00  0.0000E+00  0.0000E+00  0.0000E+00
    -59.225  0.0000E+00  0.0000E+00  0.0000E+00  0.0000E+00
    -58.990  0.0000E+00  0.0000E+00  0.0000E+00  0.0000E+00
    -58.756  0.0000E+00  0.0000E+00  0.0000E+00  0.0000E+00
    -58.521 -0.1368E-33 -0.1368E-33 -0.3209E-34 -0.3209E-34
    -58.287 -0.1353E-18 -0.1353E-18 -0.3175E-19 -0.3175E-19
    -58.052 -0.2118E-08 -0.2118E-08 -0.4968E-09 -0.4968E-09
    -57.817 -0.5313E-03 -0.5313E-03 -0.1246E-03 -0.1246E-03
    -57.583  0.5626E-01  0.5626E-01  0.1307E-01  0.1307E-01
    -57.348  0.4585E+00  0.4585E+00  0.1206E+00  0.1206E+00
    -57.114  0.3278E+00  0.3278E+00  0.1975E+00  0.1975E+00
    -56.879  0.2483E-01  0.2483E-01  0.2033E+00  0.2033E+00
    -56.644 -0.5374E-04 -0.5374E-04  0.2033E+00  0.2033E+00
    -56.410 -0.1802E-11 -0.1802E-11  0.2033E+00  0.2033E+00
    -56.175  0.0000E+00  0.0000E+00  0.2033E+00  0.2033E+00
    -55.941  0.0000E+00  0.0000E+00  0.2033E+00  0.2033E+00
    -55.706  0.0000E+00  0.0000E+00  0.2033E+00  0.2033E+00
    -55.472  0.0000E+00  0.0000E+00  0.2033E+00  0.2033E+00
    -55.237  0.0000E+00  0.0000E+00  0.2033E+00  0.2033E+00
    -55.002  0.0000E+00  0.0000E+00  0.2033E+00  0.2033E+00
    -54.768  0.0000E+00  0.0000E+00  0.2033E+00  0.2033E+00
    -54.533  0.0000E+00  0.0000E+00  0.2033E+00  0.2033E+00
    -54.299  0.0000E+00  0.0000E+00  0.2033E+00  0.2033E+00
    -54.064  0.0000E+00  0.0000E+00  0.2033E+00  0.2033E+00
    -53.829  0.0000E+00  0.0000E+00  0.2033E+00  0.2033E+00
    -53.595  0.0000E+00  0.0000E+00  0.2033E+00  0.2033E+00
    -53.360  0.0000E+00  0.0000E+00  0.2033E+00  0.2033E+00
    -53.126  0.0000E+00  0.0000E+00  0.2033E+00  0.2033E+00
    -52.891  0.0000E+00  0.0000E+00  0.2033E+00  0.2033E+00
    -52.656 -0.2326E-35 -0.2326E-35  0.2033E+00  0.2033E+00
    -52.422 -0.8339E-20 -0.8339E-20  0.2033E+00  0.2033E+00
    -52.187 -0.4079E-09 -0.4079E-09  0.2033E+00  0.2033E+00
    -51.953 -0.1895E-03 -0.1895E-03  0.2033E+00  0.2033E+00
    -51.718  0.1427E-01  0.1427E-01  0.2066E+00  0.2066E+00
    -51.483  0.1454E-01  0.1454E-01  0.2100E+00  0.2100E+00
    -51.249 -0.1989E-03 -0.1989E-03  0.2100E+00  0.2100E+00
    -51.014 -0.4697E-09 -0.4697E-09  0.2100E+00  0.2100E+00
    -50.780  0.0000E+00  0.0000E+00  0.2100E+00  0.2100E+00
    -50.545  0.0000E+00  0.0000E+00  0.2100E+00  0.2100E+00
    -50.310  0.0000E+00  0.0000E+00  0.2100E+00  0.2100E+00
    -50.076  0.0000E+00  0.0000E+00  0.2100E+00  0.2100E+00
    -49.841  0.0000E+00  0.0000E+00  0.2100E+00  0.2100E+00
    -49.607  0.0000E+00  0.0000E+00  0.2100E+00  0.2100E+00
    -49.372  0.0000E+00  0.0000E+00  0.2100E+00  0.2100E+00
    -49.138  0.0000E+00  0.0000E+00  0.2100E+00  0.2100E+00
    -48.903  0.0000E+00  0.0000E+00  0.2100E+00  0.2100E+00
    -48.668  0.0000E+00  0.0000E+00  0.2100E+00  0.2100E+00
    -48.434  0.0000E+00  0.0000E+00  0.2100E+00  0.2100E+00
    -48.199  0.0000E+00  0.0000E+00  0.2100E+00  0.2100E+00
    -47.965  0.0000E+00  0.0000E+00  0.2100E+00  0.2100E+00
    -47.730  0.0000E+00  0.0000E+00  0.2100E+00  0.2100E+00
    -47.495  0.0000E+00  0.0000E+00  0.2100E+00  0.2100E+00
    -47.261  0.0000E+00  0.0000E+00  0.2100E+00  0.2100E+00
    -47.026  0.0000E+00  0.0000E+00  0.2100E+00  0.2100E+00
    -46.792  0.0000E+00  0.0000E+00  0.2100E+00  0.2100E+00
    -46.557  0.0000E+00  0.0000E+00  0.2100E+00  0.2100E+00
    -46.322  0.0000E+00  0.0000E+00  0.2100E+00  0.2100E+00
    -46.088  0.0000E+00  0.0000E+00  0.2100E+00  0.2100E+00
    -45.853  0.0000E+00  0.0000E+00  0.2100E+00  0.2100E+00
    -45.619  0.0000E+00  0.0000E+00  0.2100E+00  0.2100E+00
    -45.384  0.0000E+00  0.0000E+00  0.2100E+00  0.2100E+00
    -45.149  0.0000E+00  0.0000E+00  0.2100E+00  0.2100E+00
    -44.915  0.0000E+00  0.0000E+00  0.2100E+00  0.2100E+00
    -44.680  0.0000E+00  0.0000E+00  0.2100E+00  0.2100E+00
    -44.446  0.0000E+00  0.0000E+00  0.2100E+00  0.2100E+00
    -44.211  0.0000E+00  0.0000E+00  0.2100E+00  0.2100E+00
    -43.977  0.0000E+00  0.0000E+00  0.2100E+00  0.2100E+00
    -43.742  0.0000E+00  0.0000E+00  0.2100E+00  0.2100E+00
    -43.507  0.0000E+00  0.0000E+00  0.2100E+00  0.2100E+00
    -43.273  0.0000E+00  0.0000E+00  0.2100E+00  0.2100E+00
    -43.038  0.0000E+00  0.0000E+00  0.2100E+00  0.2100E+00
    -42.804  0.0000E+00  0.0000E+00  0.2100E+00  0.2100E+00
    -42.569  0.0000E+00  0.0000E+00  0.2100E+00  0.2100E+00
    -42.334  0.0000E+00  0.0000E+00  0.2100E+00  0.2100E+00
    -42.100  0.0000E+00  0.0000E+00  0.2100E+00  0.2100E+00
    -41.865  0.0000E+00  0.0000E+00  0.2100E+00  0.2100E+00
    -41.631  0.0000E+00  0.0000E+00  0.2100E+00  0.2100E+00
    -41.396  0.0000E+00  0.0000E+00  0.2100E+00  0.2100E+00
    -41.161  0.0000E+00  0.0000E+00  0.2100E+00  0.2100E+00
    -40.927  0.0000E+00  0.0000E+00  0.2100E+00  0.2100E+00
    -40.692  0.0000E+00  0.0000E+00  0.2100E+00  0.2100E+00
    -40.458  0.0000E+00  0.0000E+00  0.2100E+00  0.2100E+00
    -40.223  0.0000E+00  0.0000E+00  0.2100E+00  0.2100E+00
    -39.988  0.0000E+00  0.0000E+00  0.2100E+00  0.2100E+00
    -39.754  0.0000E+00  0.0000E+00  0.2100E+00  0.2100E+00
    -39.519  0.0000E+00  0.0000E+00  0.2100E+00  0.2100E+00
    -39.285  0.0000E+00  0.0000E+00  0.2100E+00  0.2100E+00
    -39.050  0.0000E+00  0.0000E+00  0.2100E+00  0.2100E+00
    -38.815  0.0000E+00  0.0000E+00  0.2100E+00  0.2100E+00
    -38.581  0.0000E+00  0.0000E+00  0.2100E+00  0.2100E+00
    -38.346  0.0000E+00  0.0000E+00  0.2100E+00  0.2100E+00
    -38.112  0.0000E+00  0.0000E+00  0.2100E+00  0.2100E+00
    -37.877  0.0000E+00  0.0000E+00  0.2100E+00  0.2100E+00
    -37.643  0.0000E+00  0.0000E+00  0.2100E+00  0.2100E+00
    -37.408  0.0000E+00  0.0000E+00  0.2100E+00  0.2100E+00
    -37.173  0.0000E+00  0.0000E+00  0.2100E+00  0.2100E+00
    -36.939  0.0000E+00  0.0000E+00  0.2100E+00  0.2100E+00
    -36.704  0.0000E+00  0.0000E+00  0.2100E+00  0.2100E+00
    -36.470  0.0000E+00  0.0000E+00  0.2100E+00  0.2100E+00
    -36.235  0.0000E+00  0.0000E+00  0.2100E+00  0.2100E+00
    -36.000  0.0000E+00  0.0000E+00  0.2100E+00  0.2100E+00
    -35.766  0.0000E+00  0.0000E+00  0.2100E+00  0.2100E+00
    -35.531  0.0000E+00  0.0000E+00  0.2100E+00  0.2100E+00
    -35.297  0.0000E+00  0.0000E+00  0.2100E+00  0.2100E+00
    -35.062  0.0000E+00  0.0000E+00  0.2100E+00  0.2100E+00
    -34.827  0.0000E+00  0.0000E+00  0.2100E+00  0.2100E+00
    -34.593  0.0000E+00  0.0000E+00  0.2100E+00  0.2100E+00
    -34.358  0.0000E+00  0.0000E+00  0.2100E+00  0.2100E+00
    -34.124  0.0000E+00  0.0000E+00  0.2100E+00  0.2100E+00
    -33.889  0.0000E+00  0.0000E+00  0.2100E+00  0.2100E+00
    -33.654  0.0000E+00  0.0000E+00  0.2100E+00  0.2100E+00
    -33.420  0.0000E+00  0.0000E+00  0.2100E+00  0.2100E+00
    -33.185 -0.1852E-36 -0.1852E-36  0.2100E+00  0.2100E+00
    -32.951 -0.1198E-20 -0.1198E-20  0.2100E+00  0.2100E+00
    -32.716 -0.1322E-09 -0.1322E-09  0.2100E+00  0.2100E+00
    -32.481 -0.2251E-03 -0.2251E-03  0.2099E+00  0.2099E+00
    -32.247  0.3143E-01  0.3143E-01  0.2173E+00  0.2173E+00
    -32.012  0.3250E+00  0.3250E+00  0.2936E+00  0.2936E+00
    -31.778  0.3312E+00  0.3312E+00  0.3713E+00  0.3713E+00
    -31.543  0.3769E+00  0.3769E+00  0.4597E+00  0.4597E+00
    -31.309  0.4778E+00  0.4778E+00  0.5718E+00  0.5718E+00
    -31.074  0.5630E+00  0.5630E+00  0.7038E+00  0.7038E+00
    -30.839  0.4742E+00  0.4742E+00  0.8151E+00  0.8151E+00
    -30.605  0.2112E-01  0.2112E-01  0.8200E+00  0.8200E+00
    -30.370 -0.1239E-03 -0.1239E-03  0.8200E+00  0.8200E+00
    -30.136 -0.2452E-10 -0.2452E-10  0.8200E+00  0.8200E+00
    -29.901  0.0000E+00  0.0000E+00  0.8200E+00  0.8200E+00
    -29.666  0.0000E+00  0.0000E+00  0.8200E+00  0.8200E+00
    -29.432  0.0000E+00  0.0000E+00  0.8200E+00  0.8200E+00
    -29.197  0.0000E+00  0.0000E+00  0.8200E+00  0.8200E+00
    -28.963 -0.1539E-42 -0.1539E-42  0.8200E+00  0.8200E+00
    -28.728 -0.3747E-25 -0.3747E-25  0.8200E+00  0.8200E+00
    -28.493 -0.1310E-12 -0.1310E-12  0.8200E+00  0.8200E+00
    -28.259 -0.5641E-05 -0.5641E-05  0.8200E+00  0.8200E+00
    -28.024  0.2669E-02  0.2669E-02  0.8206E+00  0.8206E+00
    -27.790  0.3811E-01  0.3811E-01  0.8296E+00  0.8296E+00
    -27.555  0.4270E-01  0.4270E-01  0.8396E+00  0.8396E+00
    -27.320  0.1784E-02  0.1784E-02  0.8400E+00  0.8400E+00
    -27.086 -0.4141E-05 -0.4141E-05  0.8400E+00  0.8400E+00
    -26.851 -0.7054E-13 -0.7054E-13  0.8400E+00  0.8400E+00
    -26.617  0.0000E+00  0.0000E+00  0.8400E+00  0.8400E+00
    -26.382  0.0000E+00  0.0000E+00  0.8400E+00  0.8400E+00
    -26.147  0.0000E+00  0.0000E+00  0.8400E+00  0.8400E+00
    -25.913  0.0000E+00  0.0000E+00  0.8400E+00  0.8400E+00
    -25.678  0.0000E+00  0.0000E+00  0.8400E+00  0.8400E+00
    -25.444  0.0000E+00  0.0000E+00  0.8400E+00  0.8400E+00
    -25.209  0.0000E+00  0.0000E+00  0.8400E+00  0.8400E+00
    -24.975  0.0000E+00  0.0000E+00  0.8400E+00  0.8400E+00
    -24.740  0.0000E+00  0.0000E+00  0.8400E+00  0.8400E+00
    -24.505  0.0000E+00  0.0000E+00  0.8400E+00  0.8400E+00
    -24.271  0.0000E+00  0.0000E+00  0.8400E+00  0.8400E+00
    -24.036  0.0000E+00  0.0000E+00  0.8400E+00  0.8400E+00
    -23.802  0.0000E+00  0.0000E+00  0.8400E+00  0.8400E+00
    -23.567  0.0000E+00  0.0000E+00  0.8400E+00  0.8400E+00
    -23.332  0.0000E+00  0.0000E+00  0.8400E+00  0.8400E+00
    -23.098  0.0000E+00  0.0000E+00  0.8400E+00  0.8400E+00
    -22.863  0.0000E+00  0.0000E+00  0.8400E+00  0.8400E+00
    -22.629  0.0000E+00  0.0000E+00  0.8400E+00  0.8400E+00
    -22.394  0.0000E+00  0.0000E+00  0.8400E+00  0.8400E+00
    -22.159  0.0000E+00  0.0000E+00  0.8400E+00  0.8400E+00
    -21.925  0.0000E+00  0.0000E+00  0.8400E+00  0.8400E+00
    -21.690  0.0000E+00  0.0000E+00  0.8400E+00  0.8400E+00
    -21.456  0.0000E+00  0.0000E+00  0.8400E+00  0.8400E+00
    -21.221  0.0000E+00  0.0000E+00  0.8400E+00  0.8400E+00
    -20.986  0.0000E+00  0.0000E+00  0.8400E+00  0.8400E+00
    -20.752  0.0000E+00  0.0000E+00  0.8400E+00  0.8400E+00
    -20.517  0.0000E+00  0.0000E+00  0.8400E+00  0.8400E+00
    -20.283  0.0000E+00  0.0000E+00  0.8400E+00  0.8400E+00
    -20.048  0.0000E+00  0.0000E+00  0.8400E+00  0.8400E+00
    -19.814  0.0000E+00  0.0000E+00  0.8400E+00  0.8400E+00
    -19.579  0.0000E+00  0.0000E+00  0.8400E+00  0.8400E+00
    -19.344  0.0000E+00  0.0000E+00  0.8400E+00  0.8400E+00
    -19.110  0.0000E+00  0.0000E+00  0.8400E+00  0.8400E+00
    -18.875  0.0000E+00  0.0000E+00  0.8400E+00  0.8400E+00
    -18.641  0.0000E+00  0.0000E+00  0.8400E+00  0.8400E+00
    -18.406  0.0000E+00  0.0000E+00  0.8400E+00  0.8400E+00
    -18.171  0.0000E+00  0.0000E+00  0.8400E+00  0.8400E+00
    -17.937  0.0000E+00  0.0000E+00  0.8400E+00  0.8400E+00
    -17.702  0.0000E+00  0.0000E+00  0.8400E+00  0.8400E+00
    -17.468  0.0000E+00  0.0000E+00  0.8400E+00  0.8400E+00
    -17.233 -0.3276E-46 -0.3276E-46  0.8400E+00  0.8400E+00
    -16.998 -0.5960E-28 -0.5960E-28  0.8400E+00  0.8400E+00
    -16.764 -0.1585E-14 -0.1585E-14  0.8400E+00  0.8400E+00
    -16.529 -0.5523E-06 -0.5523E-06  0.8400E+00  0.8400E+00
    -16.295  0.1191E-03  0.1191E-03  0.8400E+00  0.8400E+00
    -16.060  0.1446E-01  0.1446E-01  0.8434E+00  0.8434E+00
    -15.825 -0.3674E-03 -0.3674E-03  0.8433E+00  0.8433E+00
    -15.591 -0.4046E-08 -0.4046E-08  0.8433E+00  0.8433E+00
    -15.356  0.0000E+00  0.0000E+00  0.8433E+00  0.8433E+00
    -15.122  0.0000E+00  0.0000E+00  0.8433E+00  0.8433E+00
    -14.887  0.0000E+00  0.0000E+00  0.8433E+00  0.8433E+00
    -14.652  0.0000E+00  0.0000E+00  0.8433E+00  0.8433E+00
    -14.418  0.0000E+00  0.0000E+00  0.8433E+00  0.8433E+00
    -14.183  0.0000E+00  0.0000E+00  0.8433E+00  0.8433E+00
    -13.949  0.0000E+00  0.0000E+00  0.8433E+00  0.8433E+00
    -13.714  0.0000E+00  0.0000E+00  0.8433E+00  0.8433E+00
    -13.480  0.0000E+00  0.0000E+00  0.8433E+00  0.8433E+00
    -13.245  0.0000E+00  0.0000E+00  0.8433E+00  0.8433E+00
    -13.010  0.0000E+00  0.0000E+00  0.8433E+00  0.8433E+00
    -12.776  0.0000E+00  0.0000E+00  0.8433E+00  0.8433E+00
    -12.541  0.0000E+00  0.0000E+00  0.8433E+00  0.8433E+00
    -12.307  0.0000E+00  0.0000E+00  0.8433E+00  0.8433E+00
    -12.072  0.0000E+00  0.0000E+00  0.8433E+00  0.8433E+00
    -11.837  0.0000E+00  0.0000E+00  0.8433E+00  0.8433E+00
    -11.603  0.0000E+00  0.0000E+00  0.8433E+00  0.8433E+00
    -11.368  0.0000E+00  0.0000E+00  0.8433E+00  0.8433E+00
    -11.134  0.0000E+00  0.0000E+00  0.8433E+00  0.8433E+00
    -10.899  0.0000E+00  0.0000E+00  0.8433E+00  0.8433E+00
    -10.664  0.0000E+00  0.0000E+00  0.8433E+00  0.8433E+00
    -10.430  0.0000E+00  0.0000E+00  0.8433E+00  0.8433E+00
    -10.195  0.0000E+00  0.0000E+00  0.8433E+00  0.8433E+00
     -9.961  0.0000E+00  0.0000E+00  0.8433E+00  0.8433E+00
     -9.726  0.0000E+00  0.0000E+00  0.8433E+00  0.8433E+00
     -9.491  0.0000E+00  0.0000E+00  0.8433E+00  0.8433E+00
     -9.257  0.0000E+00  0.0000E+00  0.8433E+00  0.8433E+00
     -9.022  0.0000E+00  0.0000E+00  0.8433E+00  0.8433E+00
     -8.788  0.0000E+00  0.0000E+00  0.8433E+00  0.8433E+00
     -8.553  0.0000E+00  0.0000E+00  0.8433E+00  0.8433E+00
     -8.318  0.0000E+00  0.0000E+00  0.8433E+00  0.8433E+00
     -8.084  0.0000E+00  0.0000E+00  0.8433E+00  0.8433E+00
     -7.849  0.0000E+00  0.0000E+00  0.8433E+00  0.8433E+00
     -7.615  0.0000E+00  0.0000E+00  0.8433E+00  0.8433E+00
     -7.380  0.0000E+00  0.0000E+00  0.8433E+00  0.8433E+00
     -7.146  0.0000E+00  0.0000E+00  0.8433E+00  0.8433E+00
     -6.911  0.0000E+00  0.0000E+00  0.8433E+00  0.8433E+00
     -6.676  0.0000E+00  0.0000E+00  0.8433E+00  0.8433E+00
     -6.442  0.0000E+00  0.0000E+00  0.8433E+00  0.8433E+00
     -6.207  0.0000E+00  0.0000E+00  0.8433E+00  0.8433E+00
     -5.973  0.0000E+00  0.0000E+00  0.8433E+00  0.8433E+00
     -5.738  0.0000E+00  0.0000E+00  0.8433E+00  0.8433E+00
     -5.503  0.0000E+00  0.0000E+00  0.8433E+00  0.8433E+00
     -5.269  0.0000E+00  0.0000E+00  0.8433E+00  0.8433E+00
     -5.034  0.0000E+00  0.0000E+00  0.8433E+00  0.8433E+00
     -4.800  0.0000E+00  0.0000E+00  0.8433E+00  0.8433E+00
     -4.565  0.0000E+00  0.0000E+00  0.8433E+00  0.8433E+00
     -4.330  0.0000E+00  0.0000E+00  0.8433E+00  0.8433E+00
     -4.096 -0.6644E-37 -0.6644E-37  0.8433E+00  0.8433E+00
     -3.861 -0.2938E-21 -0.2938E-21  0.8433E+00  0.8433E+00
     -3.627 -0.1778E-10 -0.1778E-10  0.8433E+00  0.8433E+00
     -3.392 -0.1039E-04 -0.1039E-04  0.8433E+00  0.8433E+00
     -3.157  0.6944E-03  0.6944E-03  0.8435E+00  0.8435E+00
     -2.923  0.1269E-01  0.1269E-01  0.8465E+00  0.8465E+00
     -2.688  0.2436E-01  0.2436E-01  0.8522E+00  0.8522E+00
     -2.454  0.1840E-01  0.1840E-01  0.8565E+00  0.8565E+00
     -2.219  0.5358E-02  0.5358E-02  0.8578E+00  0.8578E+00
     -1.984  0.1236E-01  0.1236E-01  0.8607E+00  0.8607E+00
     -1.750  0.1225E-01  0.1225E-01  0.8635E+00  0.8635E+00
     -1.515  0.1599E-01  0.1599E-01  0.8673E+00  0.8673E+00
     -1.281  0.4779E-01  0.4779E-01  0.8785E+00  0.8785E+00
     -1.046  0.7530E-01  0.7530E-01  0.8962E+00  0.8962E+00
     -0.812  0.1085E+00  0.1085E+00  0.9216E+00  0.9216E+00
     -0.577  0.1193E+00  0.1193E+00  0.9496E+00  0.9496E+00
     -0.342  0.9313E-01  0.9313E-01  0.9715E+00  0.9715E+00
     -0.108  0.1325E+00  0.1325E+00  0.1003E+01  0.1003E+01
      0.127  0.1250E+00  0.1250E+00  0.1032E+01  0.1032E+01
      0.361  0.1134E+00  0.1134E+00  0.1058E+01  0.1058E+01
      0.596  0.1936E+00  0.1936E+00  0.1104E+01  0.1104E+01
      0.831  0.1807E+00  0.1807E+00  0.1146E+01  0.1146E+01
      1.065  0.1414E+00  0.1414E+00  0.1179E+01  0.1179E+01
      1.300  0.1330E+00  0.1330E+00  0.1211E+01  0.1211E+01
      1.534  0.1227E+00  0.1227E+00  0.1239E+01  0.1239E+01
      1.769  0.1493E+00  0.1493E+00  0.1274E+01  0.1274E+01
      2.004  0.1350E+00  0.1350E+00  0.1306E+01  0.1306E+01
      2.238  0.1490E+00  0.1490E+00  0.1341E+01  0.1341E+01
      2.473  0.1110E+00  0.1110E+00  0.1367E+01  0.1367E+01
      2.707  0.8478E-01  0.8478E-01  0.1387E+01  0.1387E+01
      2.942  0.1039E+00  0.1039E+00  0.1411E+01  0.1411E+01
      3.177  0.1174E+00  0.1174E+00  0.1439E+01  0.1439E+01
      3.411  0.1077E+00  0.1077E+00  0.1464E+01  0.1464E+01
      3.646  0.9381E-01  0.9381E-01  0.1486E+01  0.1486E+01
      3.880  0.8837E-01  0.8837E-01  0.1507E+01  0.1507E+01
      4.115  0.1169E+00  0.1169E+00  0.1534E+01  0.1534E+01
      4.349  0.1041E+00  0.1041E+00  0.1559E+01  0.1559E+01
      4.584  0.1291E+00  0.1291E+00  0.1589E+01  0.1589E+01
      4.819  0.1628E+00  0.1628E+00  0.1627E+01  0.1627E+01
      5.053  0.1804E+00  0.1804E+00  0.1670E+01  0.1670E+01
      5.288  0.1893E+00  0.1893E+00  0.1714E+01  0.1714E+01
      5.522  0.1772E+00  0.1772E+00  0.1756E+01  0.1756E+01
      5.757  0.1698E+00  0.1698E+00  0.1795E+01  0.1795E+01
      5.992  0.2013E+00  0.2013E+00  0.1843E+01  0.1843E+01
      6.226  0.1352E+00  0.1355E+00  0.1874E+01  0.1874E+01
      6.461  0.1028E-01  0.1001E-01  0.1877E+01  0.1877E+01
      6.695 -0.1595E-03 -0.1583E-03  0.1877E+01  0.1877E+01
      6.930 -0.1507E-08 -0.1506E-08  0.1877E+01  0.1877E+01
      7.165  0.0000E+00  0.0000E+00  0.1877E+01  0.1877E+01
      7.399  0.0000E+00  0.0000E+00  0.1877E+01  0.1877E+01
      7.634  0.0000E+00  0.0000E+00  0.1877E+01  0.1877E+01
      7.868  0.0000E+00  0.0000E+00  0.1877E+01  0.1877E+01
      8.103  0.0000E+00  0.0000E+00  0.1877E+01  0.1877E+01
      8.338  0.0000E+00  0.0000E+00  0.1877E+01  0.1877E+01
      8.572  0.0000E+00  0.0000E+00  0.1877E+01  0.1877E+01
      8.807  0.0000E+00  0.0000E+00  0.1877E+01  0.1877E+01
      9.041  0.0000E+00  0.0000E+00  0.1877E+01  0.1877E+01
      9.276  0.0000E+00  0.0000E+00  0.1877E+01  0.1877E+01
      9.511  0.0000E+00  0.0000E+00  0.1877E+01  0.1877E+01
