Generated by VASPKIT code
 1.000000
    9.4983997344999995    0.0000000000000000    0.0000000000000000
    0.0000000000000000    9.4983997344999995    0.0000000000000000
    0.0000000000000000    0.0000000000000000   24.5028991699000009
   Mo   Nb   O 
    61     2     1
Selective Dynamics
Direct
    0.0000000000000000    0.0000000000000000    0.0000000000000000    F  F  F            Mo1
    0.0214700000000000    0.9782800000000000    0.3838000000000000    T  T  T            Mo2
    0.1666700000000000    0.1666700000000000    0.0646400000000000    F  F  F            Mo3
    0.3333300000000000    0.0000000000000000    0.0000000000000000    F  F  F            Mo4
    0.3123800000000000    0.0189100000000000    0.3830900000000000    T  T  T            Mo5
    0.5000000000000000    0.1666700000000000    0.0646400000000000    F  F  F            Mo6
    0.6666700000000000    0.0000000000000000    0.0000000000000000    F  F  F            Mo7
    0.6674099999999999    0.0010000000000000    0.3806700000000000    T  T  T            Mo8
    0.8333300000000000    0.1666700000000000    0.0646400000000000    F  F  F            Mo9
    0.0000000000000000    0.3333300000000000    0.0000000000000000    F  F  F           Mo10
    0.1666700000000000    0.5000000000000000    0.0646400000000000    F  F  F           Mo11
    0.3333300000000000    0.3333300000000000    0.0000000000000000    F  F  F           Mo12
    0.3475900000000000    0.3114800000000000    0.3824200000000000    T  T  T           Mo13
    0.5000000000000000    0.5000000000000000    0.0646400000000000    F  F  F           Mo14
    0.6666700000000000    0.3333300000000000    0.0000000000000000    F  F  F           Mo15
    0.8333300000000000    0.5000000000000000    0.0646400000000000    F  F  F           Mo16
    0.0000000000000000    0.6666700000000000    0.0000000000000000    F  F  F           Mo17
    0.9810000000000000    0.6875599999999999    0.3831000000000000    T  T  T           Mo18
    0.1666700000000000    0.8333300000000000    0.0646400000000000    F  F  F           Mo19
    0.3333300000000000    0.6666700000000000    0.0000000000000000    F  F  F           Mo20
    0.5000000000000000    0.8333300000000000    0.0646400000000000    F  F  F           Mo21
    0.6666700000000000    0.6666700000000000    0.0000000000000000    F  F  F           Mo22
    0.6883800000000000    0.6523200000000000    0.3824100000000000    T  T  T           Mo23
    0.8333300000000000    0.8333300000000000    0.0646400000000000    F  F  F           Mo24
    0.0000000000000000    0.0000000000000000    0.1292800000000000    F  F  F           Mo25
    0.1666700000000000    0.1666700000000000    0.1939100000000000    F  F  F           Mo26
    0.3333300000000000    0.0000000000000000    0.1292800000000000    F  F  F           Mo27
    0.5000000000000000    0.1666700000000000    0.1939100000000000    F  F  F           Mo28
    0.6666700000000000    0.0000000000000000    0.1292800000000000    F  F  F           Mo29
    0.8333300000000000    0.1666700000000000    0.1939100000000000    F  F  F           Mo30
    0.0000000000000000    0.3333300000000000    0.1292800000000000    F  F  F           Mo31
    0.1666700000000000    0.5000000000000000    0.1939100000000000    F  F  F           Mo32
    0.3333300000000000    0.3333300000000000    0.1292800000000000    F  F  F           Mo33
    0.5000000000000000    0.5000000000000000    0.1939100000000000    F  F  F           Mo34
    0.6666700000000000    0.3333300000000000    0.1292800000000000    F  F  F           Mo35
    0.8333300000000000    0.5000000000000000    0.1939100000000000    F  F  F           Mo36
    0.0000000000000000    0.6666700000000000    0.1292800000000000    F  F  F           Mo37
    0.1666700000000000    0.8333300000000000    0.1939100000000000    F  F  F           Mo38
    0.3333300000000000    0.6666700000000000    0.1292800000000000    F  F  F           Mo39
    0.5000000000000000    0.8333300000000000    0.1939100000000000    F  F  F           Mo40
    0.6666700000000000    0.6666700000000000    0.1292800000000000    F  F  F           Mo41
    0.8333300000000000    0.8333300000000000    0.1939100000000000    F  F  F           Mo42
    0.0000000000000000    0.0000000000000000    0.2585500000000000    F  F  F           Mo43
    0.1626800000000000    0.1691900000000000    0.3234500000000000    T  T  T           Mo44
    0.3333300000000000    0.0000000000000000    0.2585500000000000    F  F  F           Mo45
    0.5021500000000000    0.1643800000000000    0.3235600000000000    T  T  T           Mo46
    0.6666700000000000    0.0000000000000000    0.2585500000000000    F  F  F           Mo47
    0.8328400000000000    0.1671800000000000    0.3250500000000000    T  T  T           Mo48
    0.0000000000000000    0.3333300000000000    0.2585500000000000    F  F  F           Mo49
    0.1653500000000000    0.4997100000000000    0.3244600000000000    T  T  T           Mo50
    0.3333300000000000    0.3333300000000000    0.2585500000000000    F  F  F           Mo51
    0.4977300000000000    0.5022400000000000    0.3229300000000000    T  T  T           Mo52
    0.6666700000000000    0.3333300000000000    0.2585500000000000    F  F  F           Mo53
    0.8355900000000001    0.4978300000000000    0.3235700000000000    T  T  T           Mo54
    0.0000000000000000    0.6666700000000000    0.2585500000000000    F  F  F           Mo55
    0.1689300000000000    0.8310500000000000    0.3225700000000000    T  T  T           Mo56
    0.3333300000000000    0.6666700000000000    0.2585500000000000    F  F  F           Mo57
    0.5003000000000000    0.8346600000000000    0.3244700000000000    T  T  T           Mo58
    0.6666700000000000    0.6666700000000000    0.2585500000000000    F  F  F           Mo59
    0.8307700000000000    0.8372900000000000    0.3234400000000000    T  T  T           Mo60
    0.9992700000000000    0.3329000000000000    0.3806600000000000    T  T  T           Mo61
    0.6492300000000000    0.3506000000000000    0.3881500000000000    T  T  T            Nb1
    0.3330800000000000    0.6670600000000000    0.3849400000000000    T  T  T            Nb2
    0.5047900000000000    0.4951500000000000    0.4428600000000000    T  T  T             O1
