ni3al                                   
           1
     9.498400    0.000000    0.000000
     0.000000    9.498400    0.000000
     0.000000    0.000000   24.502899
   Mo   Nb   O 
    61     2     1
Direct configuration=     1
   0.00000000  0.00000000  0.00000000
   0.02147000  0.97828000  0.38380000
   0.16667000  0.16667000  0.06464000
   0.33333000  0.00000000  0.00000000
   0.31238000  0.01891000  0.38309000
   0.50000000  0.16667000  0.06464000
   0.66667000  0.00000000  0.00000000
   0.66741000  0.00100000  0.38067000
   0.83333000  0.16667000  0.06464000
   0.00000000  0.33333000  0.00000000
   0.16667000  0.50000000  0.06464000
   0.33333000  0.33333000  0.00000000
   0.34759000  0.31148000  0.38242000
   0.50000000  0.50000000  0.06464000
   0.66667000  0.33333000  0.00000000
   0.83333000  0.50000000  0.06464000
   0.00000000  0.66667000  0.00000000
   0.98100000  0.68756000  0.38310000
   0.16667000  0.83333000  0.06464000
   0.33333000  0.66667000  0.00000000
   0.50000000  0.83333000  0.06464000
   0.66667000  0.66667000  0.00000000
   0.68838000  0.65232000  0.38241000
   0.83333000  0.83333000  0.06464000
   0.00000000  0.00000000  0.12928000
   0.16667000  0.16667000  0.19391000
   0.33333000  0.00000000  0.12928000
   0.50000000  0.16667000  0.19391000
   0.66667000  0.00000000  0.12928000
   0.83333000  0.16667000  0.19391000
   0.00000000  0.33333000  0.12928000
   0.16667000  0.50000000  0.19391000
   0.33333000  0.33333000  0.12928000
   0.50000000  0.50000000  0.19391000
   0.66667000  0.33333000  0.12928000
   0.83333000  0.50000000  0.19391000
   0.00000000  0.66667000  0.12928000
   0.16667000  0.83333000  0.19391000
   0.33333000  0.66667000  0.12928000
   0.50000000  0.83333000  0.19391000
   0.66667000  0.66667000  0.12928000
   0.83333000  0.83333000  0.19391000
   0.00000000  0.00000000  0.25855000
   0.16268000  0.16919000  0.32345000
   0.33333000  0.00000000  0.25855000
   0.50215000  0.16438000  0.32356000
   0.66667000  0.00000000  0.25855000
   0.83284000  0.16718000  0.32505000
   0.00000000  0.33333000  0.25855000
   0.16535000  0.49971000  0.32446000
   0.33333000  0.33333000  0.25855000
   0.49773000  0.50224000  0.32293000
   0.66667000  0.33333000  0.25855000
   0.83559000  0.49783000  0.32357000
   0.00000000  0.66667000  0.25855000
   0.16893000  0.83105000  0.32257000
   0.33333000  0.66667000  0.25855000
   0.50030000  0.83466000  0.32447000
   0.66667000  0.66667000  0.25855000
   0.83077000  0.83729000  0.32344000
   0.99927000  0.33290000  0.38066000
   0.64923000  0.35060000  0.38815000
   0.33308000  0.66706000  0.38494000
   0.50479000  0.49515000  0.44286000
Direct configuration=     2
   0.00000000  0.00000000  0.00000000
   0.02120607  0.97855866  0.38390914
   0.16667000  0.16667000  0.06464000
   0.33333000  0.00000000  0.00000000
   0.31201670  0.01915407  0.38291621
   0.50000000  0.16667000  0.06464000
   0.66667000  0.00000000  0.00000000
   0.66788389  0.00117700  0.38057170
   0.83333000  0.16667000  0.06464000
   0.00000000  0.33333000  0.00000000
   0.16667000  0.50000000  0.06464000
   0.33333000  0.33333000  0.00000000
   0.34907931  0.31446640  0.38372406
   0.50000000  0.50000000  0.06464000
   0.66667000  0.33333000  0.00000000
   0.83333000  0.50000000  0.06464000
   0.00000000  0.66667000  0.00000000
   0.98074946  0.68792277  0.38292354
   0.16667000  0.83333000  0.06464000
   0.33333000  0.66667000  0.00000000
   0.50000000  0.83333000  0.06464000
   0.66667000  0.66667000  0.00000000
   0.68539809  0.65083110  0.38371931
   0.83333000  0.83333000  0.06464000
   0.00000000  0.00000000  0.12928000
   0.16667000  0.16667000  0.19391000
   0.33333000  0.00000000  0.12928000
   0.50000000  0.16667000  0.19391000
   0.66667000  0.00000000  0.12928000
   0.83333000  0.16667000  0.19391000
   0.00000000  0.33333000  0.12928000
   0.16667000  0.50000000  0.19391000
   0.33333000  0.33333000  0.12928000
   0.50000000  0.50000000  0.19391000
   0.66667000  0.33333000  0.12928000
   0.83333000  0.50000000  0.19391000
   0.00000000  0.66667000  0.12928000
   0.16667000  0.83333000  0.19391000
   0.33333000  0.66667000  0.12928000
   0.50000000  0.83333000  0.19391000
   0.66667000  0.66667000  0.12928000
   0.83333000  0.83333000  0.19391000
   0.00000000  0.00000000  0.25855000
   0.16230853  0.16915122  0.32338908
   0.33333000  0.00000000  0.25855000
   0.50199385  0.16369796  0.32346310
   0.66667000  0.00000000  0.25855000
   0.83315540  0.16686479  0.32500561
   0.00000000  0.33333000  0.25855000
   0.16520481  0.49957896  0.32431401
   0.33333000  0.33333000  0.25855000
   0.49740864  0.50256522  0.32201230
   0.66667000  0.33333000  0.25855000
   0.83627420  0.49798338  0.32346972
   0.00000000  0.66667000  0.25855000
   0.16848783  0.83149333  0.32227700
   0.33333000  0.66667000  0.25855000
   0.50043260  0.83480337  0.32432325
   0.66667000  0.66667000  0.25855000
   0.83081888  0.83765573  0.32338028
   0.99908519  0.33240885  0.38056559
   0.64550150  0.35434863  0.39100883
   0.33737220  0.66275131  0.38686748
   0.50682885  0.49312595  0.43726064
Direct configuration=     3
   0.00000000  0.00000000  0.00000000
   0.02090454  0.97887703  0.38403383
   0.16667000  0.16667000  0.06464000
   0.33333000  0.00000000  0.00000000
   0.31160163  0.01943291  0.38271765
   0.50000000  0.16667000  0.06464000
   0.66667000  0.00000000  0.00000000
   0.66842530  0.00137921  0.38045940
   0.83333000  0.16667000  0.06464000
   0.00000000  0.33333000  0.00000000
   0.16667000  0.50000000  0.06464000
   0.33333000  0.33333000  0.00000000
   0.35078080  0.31787829  0.38521391
   0.50000000  0.50000000  0.06464000
   0.66667000  0.33333000  0.00000000
   0.83333000  0.50000000  0.06464000
   0.00000000  0.66667000  0.00000000
   0.98046322  0.68833722  0.38272194
   0.16667000  0.83333000  0.06464000
   0.33333000  0.66667000  0.00000000
   0.50000000  0.83333000  0.06464000
   0.66667000  0.66667000  0.00000000
   0.68199134  0.64913007  0.38521516
   0.83333000  0.83333000  0.06464000
   0.00000000  0.00000000  0.12928000
   0.16667000  0.16667000  0.19391000
   0.33333000  0.00000000  0.12928000
   0.50000000  0.16667000  0.19391000
   0.66667000  0.00000000  0.12928000
   0.83333000  0.16667000  0.19391000
   0.00000000  0.33333000  0.12928000
   0.16667000  0.50000000  0.19391000
   0.33333000  0.33333000  0.12928000
   0.50000000  0.50000000  0.19391000
   0.66667000  0.33333000  0.12928000
   0.83333000  0.50000000  0.19391000
   0.00000000  0.66667000  0.12928000
   0.16667000  0.83333000  0.19391000
   0.33333000  0.66667000  0.12928000
   0.50000000  0.83333000  0.19391000
   0.66667000  0.66667000  0.12928000
   0.83333000  0.83333000  0.19391000
   0.00000000  0.00000000  0.25855000
   0.16188413  0.16910692  0.32331947
   0.33333000  0.00000000  0.25855000
   0.50181545  0.16291875  0.32335239
   0.66667000  0.00000000  0.25855000
   0.83351573  0.16650468  0.32495490
   0.00000000  0.33333000  0.25855000
   0.16503894  0.49942926  0.32414722
   0.33333000  0.33333000  0.25855000
   0.49704148  0.50293678  0.32096386
   0.66667000  0.33333000  0.25855000
   0.83705589  0.49815862  0.32335516
   0.00000000  0.66667000  0.25855000
   0.16798266  0.83199983  0.32194225
   0.33333000  0.66667000  0.25855000
   0.50058410  0.83496716  0.32415559
   0.66667000  0.66667000  0.25855000
   0.83087471  0.83807357  0.32331204
   0.99887404  0.33184772  0.38045773
   0.64124179  0.35863134  0.39427496
   0.34227592  0.65782875  0.38906957
   0.50915819  0.49081352  0.43086353
Direct configuration=     4
   0.00000000  0.00000000  0.00000000
   0.02093261  0.97884739  0.38402222
   0.16667000  0.16667000  0.06464000
   0.33333000  0.00000000  0.00000000
   0.31164027  0.01940695  0.38273613
   0.50000000  0.16667000  0.06464000
   0.66667000  0.00000000  0.00000000
   0.66837490  0.00136039  0.38046985
   0.83333000  0.16667000  0.06464000
   0.00000000  0.33333000  0.00000000
   0.16667000  0.50000000  0.06464000
   0.33333000  0.33333000  0.00000000
   0.35062241  0.31756068  0.38507522
   0.50000000  0.50000000  0.06464000
   0.66667000  0.33333000  0.00000000
   0.83333000  0.50000000  0.06464000
   0.00000000  0.66667000  0.00000000
   0.98048987  0.68829864  0.38274071
   0.16667000  0.83333000  0.06464000
   0.33333000  0.66667000  0.00000000
   0.50000000  0.83333000  0.06464000
   0.66667000  0.66667000  0.00000000
   0.68230847  0.64928842  0.38507592
   0.83333000  0.83333000  0.06464000
   0.00000000  0.00000000  0.12928000
   0.16667000  0.16667000  0.19391000
   0.33333000  0.00000000  0.12928000
   0.50000000  0.16667000  0.19391000
   0.66667000  0.00000000  0.12928000
   0.83333000  0.16667000  0.19391000
   0.00000000  0.33333000  0.12928000
   0.16667000  0.50000000  0.19391000
   0.33333000  0.33333000  0.12928000
   0.50000000  0.50000000  0.19391000
   0.66667000  0.33333000  0.12928000
   0.83333000  0.50000000  0.19391000
   0.00000000  0.66667000  0.12928000
   0.16667000  0.83333000  0.19391000
   0.33333000  0.66667000  0.12928000
   0.50000000  0.83333000  0.19391000
   0.66667000  0.66667000  0.12928000
   0.83333000  0.83333000  0.19391000
   0.00000000  0.00000000  0.25855000
   0.16192364  0.16911104  0.32332595
   0.33333000  0.00000000  0.25855000
   0.50183206  0.16299129  0.32336269
   0.66667000  0.00000000  0.25855000
   0.83348219  0.16653820  0.32495962
   0.00000000  0.33333000  0.25855000
   0.16505438  0.49944319  0.32416275
   0.33333000  0.33333000  0.25855000
   0.49707566  0.50290220  0.32106146
   0.66667000  0.33333000  0.25855000
   0.83698312  0.49814231  0.32336582
   0.00000000  0.66667000  0.25855000
   0.16802969  0.83195268  0.32197341
   0.33333000  0.66667000  0.25855000
   0.50056999  0.83495191  0.32417120
   0.66667000  0.66667000  0.25855000
   0.83086952  0.83803468  0.32331839
   0.99889370  0.33189996  0.38046777
   0.64163832  0.35823266  0.39397092
   0.34181943  0.65828699  0.38886458
   0.50894135  0.49102879  0.43145903
Direct configuration=     5
   0.00000000  0.00000000  0.00000000
   0.02093249  0.97886820  0.38381022
   0.16667000  0.16667000  0.06464000
   0.33333000  0.00000000  0.00000000
   0.31151389  0.01982459  0.38267744
   0.50000000  0.16667000  0.06464000
   0.66667000  0.00000000  0.00000000
   0.66794337  0.00212452  0.38042360
   0.83333000  0.16667000  0.06464000
   0.00000000  0.33333000  0.00000000
   0.16667000  0.50000000  0.06464000
   0.33333000  0.33333000  0.00000000
   0.35141775  0.31938788  0.38477454
   0.50000000  0.50000000  0.06464000
   0.66667000  0.33333000  0.00000000
   0.83333000  0.50000000  0.06464000
   0.00000000  0.66667000  0.00000000
   0.98007169  0.68841985  0.38268380
   0.16667000  0.83333000  0.06464000
   0.33333000  0.66667000  0.00000000
   0.50000000  0.83333000  0.06464000
   0.66667000  0.66667000  0.00000000
   0.68048053  0.64849268  0.38477468
   0.83333000  0.83333000  0.06464000
   0.00000000  0.00000000  0.12928000
   0.16667000  0.16667000  0.19391000
   0.33333000  0.00000000  0.12928000
   0.50000000  0.16667000  0.19391000
   0.66667000  0.00000000  0.12928000
   0.83333000  0.16667000  0.19391000
   0.00000000  0.33333000  0.12928000
   0.16667000  0.50000000  0.19391000
   0.33333000  0.33333000  0.12928000
   0.50000000  0.50000000  0.19391000
   0.66667000  0.33333000  0.12928000
   0.83333000  0.50000000  0.19391000
   0.00000000  0.66667000  0.12928000
   0.16667000  0.83333000  0.19391000
   0.33333000  0.66667000  0.12928000
   0.50000000  0.83333000  0.19391000
   0.66667000  0.66667000  0.12928000
   0.83333000  0.83333000  0.19391000
   0.00000000  0.00000000  0.25855000
   0.16275009  0.16976861  0.32352220
   0.33333000  0.00000000  0.25855000
   0.50135442  0.16415323  0.32417409
   0.66667000  0.00000000  0.25855000
   0.83267823  0.16733907  0.32522243
   0.00000000  0.33333000  0.25855000
   0.16606664  0.49961703  0.32478071
   0.33333000  0.33333000  0.25855000
   0.49735266  0.50262638  0.32075917
   0.66667000  0.33333000  0.25855000
   0.83582667  0.49862163  0.32417642
   0.00000000  0.66667000  0.25855000
   0.16870464  0.83128126  0.32273686
   0.33333000  0.66667000  0.25855000
   0.50039515  0.83393547  0.32479132
   0.66667000  0.66667000  0.25855000
   0.83021256  0.83722029  0.32351175
   0.99810165  0.33230135  0.38042022
   0.64392045  0.35597752  0.39355352
   0.34625851  0.65384308  0.38858107
   0.50619816  0.49378766  0.42843243
Direct configuration=     6
   0.00000000  0.00000000  0.00000000
   0.02093229  0.97890191  0.38346682
   0.16667000  0.16667000  0.06464000
   0.33333000  0.00000000  0.00000000
   0.31130917  0.02050108  0.38258237
   0.50000000  0.16667000  0.06464000
   0.66667000  0.00000000  0.00000000
   0.66724439  0.00336226  0.38034867
   0.83333000  0.16667000  0.06464000
   0.00000000  0.33333000  0.00000000
   0.16667000  0.50000000  0.06464000
   0.33333000  0.33333000  0.00000000
   0.35270603  0.32234758  0.38428750
   0.50000000  0.50000000  0.06464000
   0.66667000  0.33333000  0.00000000
   0.83333000  0.50000000  0.06464000
   0.00000000  0.66667000  0.00000000
   0.97939432  0.68861619  0.38259163
   0.16667000  0.83333000  0.06464000
   0.33333000  0.66667000  0.00000000
   0.50000000  0.83333000  0.06464000
   0.66667000  0.66667000  0.00000000
   0.67751961  0.64720375  0.38428674
   0.83333000  0.83333000  0.06464000
   0.00000000  0.00000000  0.12928000
   0.16667000  0.16667000  0.19391000
   0.33333000  0.00000000  0.12928000
   0.50000000  0.16667000  0.19391000
   0.66667000  0.00000000  0.12928000
   0.83333000  0.16667000  0.19391000
   0.00000000  0.33333000  0.12928000
   0.16667000  0.50000000  0.19391000
   0.33333000  0.33333000  0.12928000
   0.50000000  0.50000000  0.19391000
   0.66667000  0.33333000  0.12928000
   0.83333000  0.50000000  0.19391000
   0.00000000  0.66667000  0.12928000
   0.16667000  0.83333000  0.19391000
   0.33333000  0.66667000  0.12928000
   0.50000000  0.83333000  0.19391000
   0.66667000  0.66667000  0.12928000
   0.83333000  0.83333000  0.19391000
   0.00000000  0.00000000  0.25855000
   0.16408879  0.17083373  0.32384009
   0.33333000  0.00000000  0.25855000
   0.50058075  0.16603534  0.32548839
   0.66667000  0.00000000  0.25855000
   0.83137597  0.16863632  0.32564813
   0.00000000  0.33333000  0.25855000
   0.16770631  0.49989861  0.32578168
   0.33333000  0.33333000  0.25855000
   0.49780135  0.50217960  0.32026952
   0.66667000  0.33333000  0.25855000
   0.83395343  0.49939803  0.32548942
   0.00000000  0.66667000  0.25855000
   0.16979793  0.83019369  0.32397350
   0.33333000  0.66667000  0.25855000
   0.50011195  0.83228903  0.32579580
   0.66667000  0.66667000  0.25855000
   0.82914843  0.83590114  0.32382496
   0.99681869  0.33295153  0.38034319
   0.64761704  0.35232464  0.39287741
   0.35344895  0.64664481  0.38812185
   0.50175473  0.49825649  0.42352993
Direct configuration=     7
   0.00000000  0.00000000  0.00000000
   0.02025389  0.97961340  0.38319224
   0.16667000  0.16667000  0.06464000
   0.33333000  0.00000000  0.00000000
   0.31170661  0.02016940  0.38302274
   0.50000000  0.16667000  0.06464000
   0.66667000  0.00000000  0.00000000
   0.66689497  0.00405721  0.38081579
   0.83333000  0.16667000  0.06464000
   0.00000000  0.33333000  0.00000000
   0.16667000  0.50000000  0.06464000
   0.33333000  0.33333000  0.00000000
   0.35252394  0.32418513  0.38413227
   0.50000000  0.50000000  0.06464000
   0.66667000  0.33333000  0.00000000
   0.83333000  0.50000000  0.06464000
   0.00000000  0.66667000  0.00000000
   0.97971744  0.68822566  0.38302657
   0.16667000  0.83333000  0.06464000
   0.33333000  0.66667000  0.00000000
   0.50000000  0.83333000  0.06464000
   0.66667000  0.66667000  0.00000000
   0.67569964  0.64739688  0.38413059
   0.83333000  0.83333000  0.06464000
   0.00000000  0.00000000  0.12928000
   0.16667000  0.16667000  0.19391000
   0.33333000  0.00000000  0.12928000
   0.50000000  0.16667000  0.19391000
   0.66667000  0.00000000  0.12928000
   0.83333000  0.16667000  0.19391000
   0.00000000  0.33333000  0.12928000
   0.16667000  0.50000000  0.19391000
   0.33333000  0.33333000  0.12928000
   0.50000000  0.50000000  0.19391000
   0.66667000  0.33333000  0.12928000
   0.83333000  0.50000000  0.19391000
   0.00000000  0.66667000  0.12928000
   0.16667000  0.83333000  0.19391000
   0.33333000  0.66667000  0.12928000
   0.50000000  0.83333000  0.19391000
   0.66667000  0.66667000  0.12928000
   0.83333000  0.83333000  0.19391000
   0.00000000  0.00000000  0.25855000
   0.16364965  0.17128029  0.32373117
   0.33333000  0.00000000  0.25855000
   0.50093267  0.16540134  0.32513391
   0.66667000  0.00000000  0.25855000
   0.83146695  0.16854848  0.32548343
   0.00000000  0.33333000  0.25855000
   0.16683108  0.49958827  0.32566656
   0.33333000  0.33333000  0.25855000
   0.50012689  0.49984720  0.31988495
   0.66667000  0.33333000  0.25855000
   0.83459319  0.49905233  0.32513325
   0.00000000  0.66667000  0.25855000
   0.17005653  0.82993241  0.32396486
   0.33333000  0.66667000  0.25855000
   0.50042219  0.83316694  0.32567791
   0.66667000  0.66667000  0.25855000
   0.82870774  0.83633960  0.32372117
   0.99608318  0.33326072  0.38081067
   0.65208363  0.34788658  0.39160020
   0.35530434  0.64476702  0.38845305
   0.49781489  0.50221251  0.42003429
Direct configuration=     8
   0.00000000  0.00000000  0.00000000
   0.02023377  0.97963451  0.38318409
   0.16667000  0.16667000  0.06464000
   0.33333000  0.00000000  0.00000000
   0.31171839  0.02015957  0.38303580
   0.50000000  0.16667000  0.06464000
   0.66667000  0.00000000  0.00000000
   0.66688460  0.00407782  0.38082964
   0.83333000  0.16667000  0.06464000
   0.00000000  0.33333000  0.00000000
   0.16667000  0.50000000  0.06464000
   0.33333000  0.33333000  0.00000000
   0.35251854  0.32423963  0.38412766
   0.50000000  0.50000000  0.06464000
   0.66667000  0.33333000  0.00000000
   0.83333000  0.50000000  0.06464000
   0.00000000  0.66667000  0.00000000
   0.97972703  0.68821408  0.38303947
   0.16667000  0.83333000  0.06464000
   0.33333000  0.66667000  0.00000000
   0.50000000  0.83333000  0.06464000
   0.66667000  0.66667000  0.00000000
   0.67564567  0.64740260  0.38412596
   0.83333000  0.83333000  0.06464000
   0.00000000  0.00000000  0.12928000
   0.16667000  0.16667000  0.19391000
   0.33333000  0.00000000  0.12928000
   0.50000000  0.16667000  0.19391000
   0.66667000  0.00000000  0.12928000
   0.83333000  0.16667000  0.19391000
   0.00000000  0.33333000  0.12928000
   0.16667000  0.50000000  0.19391000
   0.33333000  0.33333000  0.12928000
   0.50000000  0.50000000  0.19391000
   0.66667000  0.33333000  0.12928000
   0.83333000  0.50000000  0.19391000
   0.00000000  0.66667000  0.12928000
   0.16667000  0.83333000  0.19391000
   0.33333000  0.66667000  0.12928000
   0.50000000  0.83333000  0.19391000
   0.66667000  0.66667000  0.12928000
   0.83333000  0.83333000  0.19391000
   0.00000000  0.00000000  0.25855000
   0.16363663  0.17129354  0.32372794
   0.33333000  0.00000000  0.25855000
   0.50094310  0.16538254  0.32512339
   0.66667000  0.00000000  0.25855000
   0.83146965  0.16854587  0.32547854
   0.00000000  0.33333000  0.25855000
   0.16680512  0.49957907  0.32566315
   0.33333000  0.33333000  0.25855000
   0.50019586  0.49977802  0.31987354
   0.66667000  0.33333000  0.25855000
   0.83461217  0.49904208  0.32512269
   0.00000000  0.66667000  0.25855000
   0.17006420  0.82992466  0.32396461
   0.33333000  0.66667000  0.25855000
   0.50043139  0.83319297  0.32567442
   0.66667000  0.66667000  0.25855000
   0.82869467  0.83635260  0.32371809
   0.99606137  0.33326989  0.38082453
   0.65221610  0.34775495  0.39156231
   0.35535937  0.64471133  0.38846287
   0.49769804  0.50232984  0.41993061
Direct configuration=     9
   0.00000000  0.00000000  0.00000000
   0.01971762  0.98017357  0.38304937
   0.16667000  0.16667000  0.06464000
   0.33333000  0.00000000  0.00000000
   0.31184685  0.01971888  0.38321133
   0.50000000  0.16667000  0.06464000
   0.66667000  0.00000000  0.00000000
   0.66699716  0.00401097  0.38111278
   0.83333000  0.16667000  0.06464000
   0.00000000  0.33333000  0.00000000
   0.16667000  0.50000000  0.06464000
   0.33333000  0.33333000  0.00000000
   0.35185299  0.32381152  0.38382928
   0.50000000  0.50000000  0.06464000
   0.66667000  0.33333000  0.00000000
   0.83333000  0.50000000  0.06464000
   0.00000000  0.66667000  0.00000000
   0.98016656  0.68809314  0.38321234
   0.16667000  0.83333000  0.06464000
   0.33333000  0.66667000  0.00000000
   0.50000000  0.83333000  0.06464000
   0.66667000  0.66667000  0.00000000
   0.67609693  0.64808376  0.38382666
   0.83333000  0.83333000  0.06464000
   0.00000000  0.00000000  0.12928000
   0.16667000  0.16667000  0.19391000
   0.33333000  0.00000000  0.12928000
   0.50000000  0.16667000  0.19391000
   0.66667000  0.00000000  0.12928000
   0.83333000  0.16667000  0.19391000
   0.00000000  0.33333000  0.12928000
   0.16667000  0.50000000  0.19391000
   0.33333000  0.33333000  0.12928000
   0.50000000  0.50000000  0.19391000
   0.66667000  0.33333000  0.12928000
   0.83333000  0.50000000  0.19391000
   0.00000000  0.66667000  0.12928000
   0.16667000  0.83333000  0.19391000
   0.33333000  0.66667000  0.12928000
   0.50000000  0.83333000  0.19391000
   0.66667000  0.66667000  0.12928000
   0.83333000  0.83333000  0.19391000
   0.00000000  0.00000000  0.25855000
   0.16317561  0.17079270  0.32376308
   0.33333000  0.00000000  0.25855000
   0.50102214  0.16396978  0.32429258
   0.66667000  0.00000000  0.25855000
   0.83240365  0.16761302  0.32513510
   0.00000000  0.33333000  0.25855000
   0.16562787  0.49917803  0.32522016
   0.33333000  0.33333000  0.25855000
   0.50176153  0.49820762  0.32020267
   0.66667000  0.33333000  0.25855000
   0.83602478  0.49896684  0.32428975
   0.00000000  0.66667000  0.25855000
   0.16949394  0.83049211  0.32348082
   0.33333000  0.66667000  0.25855000
   0.50082925  0.83437585  0.32522669
   0.66667000  0.66667000  0.25855000
   0.82919582  0.83681243  0.32375723
   0.99610675  0.33313735  0.38110958
   0.65409516  0.34588205  0.39062548
   0.35104447  0.64900703  0.38843941
   0.49818859  0.50184201  0.41844487
Direct configuration=    10
   0.00000000  0.00000000  0.00000000
   0.01930078  0.98060891  0.38294057
   0.16667000  0.16667000  0.06464000
   0.33333000  0.00000000  0.00000000
   0.31195060  0.01936298  0.38335308
   0.50000000  0.16667000  0.06464000
   0.66667000  0.00000000  0.00000000
   0.66708806  0.00395698  0.38134144
   0.83333000  0.16667000  0.06464000
   0.00000000  0.33333000  0.00000000
   0.16667000  0.50000000  0.06464000
   0.33333000  0.33333000  0.00000000
   0.35131550  0.32346578  0.38358832
   0.50000000  0.50000000  0.06464000
   0.66667000  0.33333000  0.00000000
   0.83333000  0.50000000  0.06464000
   0.00000000  0.66667000  0.00000000
   0.98052152  0.68799547  0.38335195
   0.16667000  0.83333000  0.06464000
   0.33333000  0.66667000  0.00000000
   0.50000000  0.83333000  0.06464000
   0.66667000  0.66667000  0.00000000
   0.67646136  0.64863385  0.38358495
   0.83333000  0.83333000  0.06464000
   0.00000000  0.00000000  0.12928000
   0.16667000  0.16667000  0.19391000
   0.33333000  0.00000000  0.12928000
   0.50000000  0.16667000  0.19391000
   0.66667000  0.00000000  0.12928000
   0.83333000  0.16667000  0.19391000
   0.00000000  0.33333000  0.12928000
   0.16667000  0.50000000  0.19391000
   0.33333000  0.33333000  0.12928000
   0.50000000  0.50000000  0.19391000
   0.66667000  0.33333000  0.12928000
   0.83333000  0.50000000  0.19391000
   0.00000000  0.66667000  0.12928000
   0.16667000  0.83333000  0.19391000
   0.33333000  0.66667000  0.12928000
   0.50000000  0.83333000  0.19391000
   0.66667000  0.66667000  0.12928000
   0.83333000  0.83333000  0.19391000
   0.00000000  0.00000000  0.25855000
   0.16280330  0.17038824  0.32379146
   0.33333000  0.00000000  0.25855000
   0.50108598  0.16282886  0.32362162
   0.66667000  0.00000000  0.25855000
   0.83315793  0.16685966  0.32485773
   0.00000000  0.33333000  0.25855000
   0.16467713  0.49885417  0.32486240
   0.33333000  0.33333000  0.25855000
   0.50302594  0.49693938  0.32046847
   0.66667000  0.33333000  0.25855000
   0.83716558  0.49890608  0.32361709
   0.00000000  0.66667000  0.25855000
   0.16903340  0.83095038  0.32309012
   0.33333000  0.66667000  0.25855000
   0.50115055  0.83533112  0.32486511
   0.66667000  0.66667000  0.25855000
   0.82960054  0.83718378  0.32378884
   0.99614339  0.33303031  0.38133978
   0.65561267  0.34436952  0.38986890
   0.34755982  0.65247618  0.38842046
   0.49858476  0.50144805  0.41724500
Direct configuration=    11
   0.00000000  0.00000000  0.00000000
   0.01910927  0.98082778  0.38306230
   0.16667000  0.16667000  0.06464000
   0.33333000  0.00000000  0.00000000
   0.31175033  0.01921102  0.38313416
   0.50000000  0.16667000  0.06464000
   0.66667000  0.00000000  0.00000000
   0.66743939  0.00357626  0.38106631
   0.83333000  0.16667000  0.06464000
   0.00000000  0.33333000  0.00000000
   0.16667000  0.50000000  0.06464000
   0.33333000  0.33333000  0.00000000
   0.35058534  0.32183363  0.38281956
   0.50000000  0.50000000  0.06464000
   0.66667000  0.33333000  0.00000000
   0.83333000  0.50000000  0.06464000
   0.00000000  0.66667000  0.00000000
   0.98068191  0.68819969  0.38313602
   0.16667000  0.83333000  0.06464000
   0.33333000  0.66667000  0.00000000
   0.50000000  0.83333000  0.06464000
   0.66667000  0.66667000  0.00000000
   0.67811459  0.64938200  0.38281515
   0.83333000  0.83333000  0.06464000
   0.00000000  0.00000000  0.12928000
   0.16667000  0.16667000  0.19391000
   0.33333000  0.00000000  0.12928000
   0.50000000  0.16667000  0.19391000
   0.66667000  0.00000000  0.12928000
   0.83333000  0.16667000  0.19391000
   0.00000000  0.33333000  0.12928000
   0.16667000  0.50000000  0.19391000
   0.33333000  0.33333000  0.12928000
   0.50000000  0.50000000  0.19391000
   0.66667000  0.33333000  0.12928000
   0.83333000  0.50000000  0.19391000
   0.00000000  0.66667000  0.12928000
   0.16667000  0.83333000  0.19391000
   0.33333000  0.66667000  0.12928000
   0.50000000  0.83333000  0.19391000
   0.66667000  0.66667000  0.12928000
   0.83333000  0.83333000  0.19391000
   0.00000000  0.00000000  0.25855000
   0.16330202  0.16981852  0.32393876
   0.33333000  0.00000000  0.25855000
   0.50067779  0.16277179  0.32348002
   0.66667000  0.00000000  0.25855000
   0.83365909  0.16635294  0.32469305
   0.00000000  0.33333000  0.25855000
   0.16547476  0.49912617  0.32491958
   0.33333000  0.33333000  0.25855000
   0.50177764  0.49819624  0.32188567
   0.66667000  0.33333000  0.25855000
   0.83722049  0.49931591  0.32347418
   0.00000000  0.66667000  0.25855000
   0.16850812  0.83147503  0.32292456
   0.33333000  0.66667000  0.25855000
   0.50087027  0.83453160  0.32491924
   0.66667000  0.66667000  0.25855000
   0.83016704  0.83669450  0.32393396
   0.99650622  0.33265802  0.38106612
   0.65675310  0.34323058  0.38892034
   0.34389589  0.65612889  0.38764347
   0.49900665  0.50102124  0.41451457
Direct configuration=    12
   0.00000000  0.00000000  0.00000000
   0.01905131  0.98089402  0.38309914
   0.16667000  0.16667000  0.06464000
   0.33333000  0.00000000  0.00000000
   0.31168972  0.01916503  0.38306790
   0.50000000  0.16667000  0.06464000
   0.66667000  0.00000000  0.00000000
   0.66754572  0.00346103  0.38098305
   0.83333000  0.16667000  0.06464000
   0.00000000  0.33333000  0.00000000
   0.16667000  0.50000000  0.06464000
   0.33333000  0.33333000  0.00000000
   0.35036436  0.32133968  0.38258690
   0.50000000  0.50000000  0.06464000
   0.66667000  0.33333000  0.00000000
   0.83333000  0.50000000  0.06464000
   0.00000000  0.66667000  0.00000000
   0.98073044  0.68826149  0.38307067
   0.16667000  0.83333000  0.06464000
   0.33333000  0.66667000  0.00000000
   0.50000000  0.83333000  0.06464000
   0.66667000  0.66667000  0.00000000
   0.67861491  0.64960842  0.38258218
   0.83333000  0.83333000  0.06464000
   0.00000000  0.00000000  0.12928000
   0.16667000  0.16667000  0.19391000
   0.33333000  0.00000000  0.12928000
   0.50000000  0.16667000  0.19391000
   0.66667000  0.00000000  0.12928000
   0.83333000  0.16667000  0.19391000
   0.00000000  0.33333000  0.12928000
   0.16667000  0.50000000  0.19391000
   0.33333000  0.33333000  0.12928000
   0.50000000  0.50000000  0.19391000
   0.66667000  0.33333000  0.12928000
   0.83333000  0.50000000  0.19391000
   0.00000000  0.66667000  0.12928000
   0.16667000  0.83333000  0.19391000
   0.33333000  0.66667000  0.12928000
   0.50000000  0.83333000  0.19391000
   0.66667000  0.66667000  0.12928000
   0.83333000  0.83333000  0.19391000
   0.00000000  0.00000000  0.25855000
   0.16345295  0.16964610  0.32398334
   0.33333000  0.00000000  0.25855000
   0.50055426  0.16275452  0.32343717
   0.66667000  0.00000000  0.25855000
   0.83381076  0.16619959  0.32464321
   0.00000000  0.33333000  0.25855000
   0.16571615  0.49920848  0.32493688
   0.33333000  0.33333000  0.25855000
   0.50139985  0.49857661  0.32231456
   0.66667000  0.33333000  0.25855000
   0.83723711  0.49943994  0.32343092
   0.00000000  0.66667000  0.25855000
   0.16834915  0.83163380  0.32287446
   0.33333000  0.66667000  0.25855000
   0.50078545  0.83428963  0.32493562
   0.66667000  0.66667000  0.25855000
   0.83033848  0.83654642  0.32397788
   0.99661603  0.33254535  0.38098331
   0.65709824  0.34288590  0.38863327
   0.34278705  0.65723433  0.38740833
   0.49913433  0.50089207  0.41368825
Direct configuration=    13
   0.00000000  0.00000000  0.00000000
   0.01919592  0.98075920  0.38344195
   0.16667000  0.16667000  0.06464000
   0.33333000  0.00000000  0.00000000
   0.31174533  0.01882754  0.38296802
   0.50000000  0.16667000  0.06464000
   0.66667000  0.00000000  0.00000000
   0.66797698  0.00305526  0.38062752
   0.83333000  0.16667000  0.06464000
   0.00000000  0.33333000  0.00000000
   0.16667000  0.50000000  0.06464000
   0.33333000  0.33333000  0.00000000
   0.34931390  0.31971813  0.38254900
   0.50000000  0.50000000  0.06464000
   0.66667000  0.33333000  0.00000000
   0.83333000  0.50000000  0.06464000
   0.00000000  0.66667000  0.00000000
   0.98107799  0.68821161  0.38297212
   0.16667000  0.83333000  0.06464000
   0.33333000  0.66667000  0.00000000
   0.50000000  0.83333000  0.06464000
   0.66667000  0.66667000  0.00000000
   0.68024397  0.65066560  0.38254432
   0.83333000  0.83333000  0.06464000
   0.00000000  0.00000000  0.12928000
   0.16667000  0.16667000  0.19391000
   0.33333000  0.00000000  0.12928000
   0.50000000  0.16667000  0.19391000
   0.66667000  0.00000000  0.12928000
   0.83333000  0.16667000  0.19391000
   0.00000000  0.33333000  0.12928000
   0.16667000  0.50000000  0.19391000
   0.33333000  0.33333000  0.12928000
   0.50000000  0.50000000  0.19391000
   0.66667000  0.33333000  0.12928000
   0.83333000  0.50000000  0.19391000
   0.00000000  0.66667000  0.12928000
   0.16667000  0.83333000  0.19391000
   0.33333000  0.66667000  0.12928000
   0.50000000  0.83333000  0.19391000
   0.66667000  0.66667000  0.12928000
   0.83333000  0.83333000  0.19391000
   0.00000000  0.00000000  0.25855000
   0.16352138  0.17002247  0.32362085
   0.33333000  0.00000000  0.25855000
   0.50088561  0.16369383  0.32370287
   0.66667000  0.00000000  0.25855000
   0.83329860  0.16670933  0.32462997
   0.00000000  0.33333000  0.25855000
   0.16669605  0.49977255  0.32504812
   0.33333000  0.33333000  0.25855000
   0.49963200  0.50035381  0.32141369
   0.66667000  0.33333000  0.25855000
   0.83629954  0.49910802  0.32369834
   0.00000000  0.66667000  0.25855000
   0.16834781  0.83163357  0.32294776
   0.33333000  0.66667000  0.25855000
   0.50021833  0.83330230  0.32504769
   0.66667000  0.66667000  0.25855000
   0.82996771  0.83648059  0.32361416
   0.99701284  0.33210245  0.38062741
   0.65720463  0.34277937  0.38857722
   0.34249016  0.65753269  0.38725034
   0.49859885  0.50142127  0.41209632
Direct configuration=    14
   0.00000000  0.00000000  0.00000000
   0.01926329  0.98069640  0.38360165
   0.16667000  0.16667000  0.06464000
   0.33333000  0.00000000  0.00000000
   0.31177124  0.01867032  0.38292149
   0.50000000  0.16667000  0.06464000
   0.66667000  0.00000000  0.00000000
   0.66817788  0.00286622  0.38046190
   0.83333000  0.16667000  0.06464000
   0.00000000  0.33333000  0.00000000
   0.16667000  0.50000000  0.06464000
   0.33333000  0.33333000  0.00000000
   0.34882454  0.31896272  0.38253134
   0.50000000  0.50000000  0.06464000
   0.66667000  0.33333000  0.00000000
   0.83333000  0.50000000  0.06464000
   0.00000000  0.66667000  0.00000000
   0.98123990  0.68818838  0.38292621
   0.16667000  0.83333000  0.06464000
   0.33333000  0.66667000  0.00000000
   0.50000000  0.83333000  0.06464000
   0.66667000  0.66667000  0.00000000
   0.68100287  0.65115810  0.38252669
   0.83333000  0.83333000  0.06464000
   0.00000000  0.00000000  0.12928000
   0.16667000  0.16667000  0.19391000
   0.33333000  0.00000000  0.12928000
   0.50000000  0.16667000  0.19391000
   0.66667000  0.00000000  0.12928000
   0.83333000  0.16667000  0.19391000
   0.00000000  0.33333000  0.12928000
   0.16667000  0.50000000  0.19391000
   0.33333000  0.33333000  0.12928000
   0.50000000  0.50000000  0.19391000
   0.66667000  0.33333000  0.12928000
   0.83333000  0.50000000  0.19391000
   0.00000000  0.66667000  0.12928000
   0.16667000  0.83333000  0.19391000
   0.33333000  0.66667000  0.12928000
   0.50000000  0.83333000  0.19391000
   0.66667000  0.66667000  0.12928000
   0.83333000  0.83333000  0.19391000
   0.00000000  0.00000000  0.25855000
   0.16355326  0.17019781  0.32345198
   0.33333000  0.00000000  0.25855000
   0.50103997  0.16413141  0.32382665
   0.66667000  0.00000000  0.25855000
   0.83306001  0.16694679  0.32462380
   0.00000000  0.33333000  0.25855000
   0.16715254  0.50003532  0.32509995
   0.33333000  0.33333000  0.25855000
   0.49880843  0.50118173  0.32099401
   0.66667000  0.33333000  0.25855000
   0.83586276  0.49895339  0.32382292
   0.00000000  0.66667000  0.25855000
   0.16834719  0.83163346  0.32298191
   0.33333000  0.66667000  0.25855000
   0.49995413  0.83284235  0.32509990
   0.66667000  0.66667000  0.25855000
   0.82979499  0.83644992  0.32344472
   0.99719770  0.33189612  0.38046162
   0.65725419  0.34272974  0.38855111
   0.34235185  0.65767169  0.38717673
   0.49834940  0.50166781  0.41135471
Direct configuration=    15
   0.00000000  0.00000000  0.00000000
   0.01961100  0.98035140  0.38358605
   0.16667000  0.16667000  0.06464000
   0.33333000  0.00000000  0.00000000
   0.31143897  0.01864690  0.38290742
   0.50000000  0.16667000  0.06464000
   0.66667000  0.00000000  0.00000000
   0.66857180  0.00253569  0.38052406
   0.83333000  0.16667000  0.06464000
   0.00000000  0.33333000  0.00000000
   0.16667000  0.50000000  0.06464000
   0.33333000  0.33333000  0.00000000
   0.34771212  0.31787411  0.38268429
   0.50000000  0.50000000  0.06464000
   0.66667000  0.33333000  0.00000000
   0.83333000  0.50000000  0.06464000
   0.00000000  0.66667000  0.00000000
   0.98127317  0.68852776  0.38291128
   0.16667000  0.83333000  0.06464000
   0.33333000  0.66667000  0.00000000
   0.50000000  0.83333000  0.06464000
   0.66667000  0.66667000  0.00000000
   0.68209665  0.65227234  0.38268105
   0.83333000  0.83333000  0.06464000
   0.00000000  0.00000000  0.12928000
   0.16667000  0.16667000  0.19391000
   0.33333000  0.00000000  0.12928000
   0.50000000  0.16667000  0.19391000
   0.66667000  0.00000000  0.12928000
   0.83333000  0.16667000  0.19391000
   0.00000000  0.33333000  0.12928000
   0.16667000  0.50000000  0.19391000
   0.33333000  0.33333000  0.12928000
   0.50000000  0.50000000  0.19391000
   0.66667000  0.33333000  0.12928000
   0.83333000  0.50000000  0.19391000
   0.00000000  0.66667000  0.12928000
   0.16667000  0.83333000  0.19391000
   0.33333000  0.66667000  0.12928000
   0.50000000  0.83333000  0.19391000
   0.66667000  0.66667000  0.12928000
   0.83333000  0.83333000  0.19391000
   0.00000000  0.00000000  0.25855000
   0.16341873  0.17001938  0.32333871
   0.33333000  0.00000000  0.25855000
   0.50133972  0.16417493  0.32370537
   0.66667000  0.00000000  0.25855000
   0.83304327  0.16696297  0.32461627
   0.00000000  0.33333000  0.25855000
   0.16649207  0.50019761  0.32490566
   0.33333000  0.33333000  0.25855000
   0.49940252  0.50058700  0.32044577
   0.66667000  0.33333000  0.25855000
   0.83581985  0.49865503  0.32370275
   0.00000000  0.66667000  0.25855000
   0.16815583  0.83182610  0.32291120
   0.33333000  0.66667000  0.25855000
   0.49979460  0.83350392  0.32490611
   0.66667000  0.66667000  0.25855000
   0.82997615  0.83658123  0.32333367
   0.99752295  0.33149515  0.38052435
   0.65629291  0.34369089  0.38847492
   0.34282763  0.65719552  0.38747106
   0.49775204  0.50226108  0.41056091
Direct configuration=    16
   0.00000000  0.00000000  0.00000000
   0.01977206  0.98019159  0.38357883
   0.16667000  0.16667000  0.06464000
   0.33333000  0.00000000  0.00000000
   0.31128507  0.01863605  0.38290090
   0.50000000  0.16667000  0.06464000
   0.66667000  0.00000000  0.00000000
   0.66875426  0.00238258  0.38055285
   0.83333000  0.16667000  0.06464000
   0.00000000  0.33333000  0.00000000
   0.16667000  0.50000000  0.06464000
   0.33333000  0.33333000  0.00000000
   0.34719683  0.31736984  0.38275514
   0.50000000  0.50000000  0.06464000
   0.66667000  0.33333000  0.00000000
   0.83333000  0.50000000  0.06464000
   0.00000000  0.66667000  0.00000000
   0.98128859  0.68868497  0.38290437
   0.16667000  0.83333000  0.06464000
   0.33333000  0.66667000  0.00000000
   0.50000000  0.83333000  0.06464000
   0.66667000  0.66667000  0.00000000
   0.68260330  0.65278848  0.38275255
   0.83333000  0.83333000  0.06464000
   0.00000000  0.00000000  0.12928000
   0.16667000  0.16667000  0.19391000
   0.33333000  0.00000000  0.12928000
   0.50000000  0.16667000  0.19391000
   0.66667000  0.00000000  0.12928000
   0.83333000  0.16667000  0.19391000
   0.00000000  0.33333000  0.12928000
   0.16667000  0.50000000  0.19391000
   0.33333000  0.33333000  0.12928000
   0.50000000  0.50000000  0.19391000
   0.66667000  0.33333000  0.12928000
   0.83333000  0.50000000  0.19391000
   0.00000000  0.66667000  0.12928000
   0.16667000  0.83333000  0.19391000
   0.33333000  0.66667000  0.12928000
   0.50000000  0.83333000  0.19391000
   0.66667000  0.66667000  0.12928000
   0.83333000  0.83333000  0.19391000
   0.00000000  0.00000000  0.25855000
   0.16335642  0.16993673  0.32328625
   0.33333000  0.00000000  0.25855000
   0.50147857  0.16419509  0.32364919
   0.66667000  0.00000000  0.25855000
   0.83303551  0.16697047  0.32461279
   0.00000000  0.33333000  0.25855000
   0.16618613  0.50027278  0.32481567
   0.33333000  0.33333000  0.25855000
   0.49967770  0.50031152  0.32019182
   0.66667000  0.33333000  0.25855000
   0.83579997  0.49851683  0.32364708
   0.00000000  0.66667000  0.25855000
   0.16806719  0.83191533  0.32287844
   0.33333000  0.66667000  0.25855000
   0.49972071  0.83381036  0.32481635
   0.66667000  0.66667000  0.25855000
   0.83006006  0.83664206  0.32328223
   0.99767361  0.33130941  0.38055340
   0.65584764  0.34413610  0.38843963
   0.34304802  0.65697496  0.38760740
   0.49747533  0.50253589  0.41019321
Direct configuration=    17
   0.00000000  0.00000000  0.00000000
   0.02003368  0.97993436  0.38356964
   0.16667000  0.16667000  0.06464000
   0.33333000  0.00000000  0.00000000
   0.31105050  0.01881970  0.38299303
   0.50000000  0.16667000  0.06464000
   0.66667000  0.00000000  0.00000000
   0.66891625  0.00206556  0.38061359
   0.83333000  0.16667000  0.06464000
   0.00000000  0.33333000  0.00000000
   0.16667000  0.50000000  0.06464000
   0.33333000  0.33333000  0.00000000
   0.34611850  0.31608871  0.38259914
   0.50000000  0.50000000  0.06464000
   0.66667000  0.33333000  0.00000000
   0.83333000  0.50000000  0.06464000
   0.00000000  0.66667000  0.00000000
   0.98111745  0.68892194  0.38299706
   0.16667000  0.83333000  0.06464000
   0.33333000  0.66667000  0.00000000
   0.50000000  0.83333000  0.06464000
   0.66667000  0.66667000  0.00000000
   0.68388811  0.65386547  0.38259801
   0.83333000  0.83333000  0.06464000
   0.00000000  0.00000000  0.12928000
   0.16667000  0.16667000  0.19391000
   0.33333000  0.00000000  0.12928000
   0.50000000  0.16667000  0.19391000
   0.66667000  0.00000000  0.12928000
   0.83333000  0.16667000  0.19391000
   0.00000000  0.33333000  0.12928000
   0.16667000  0.50000000  0.19391000
   0.33333000  0.33333000  0.12928000
   0.50000000  0.50000000  0.19391000
   0.66667000  0.33333000  0.12928000
   0.83333000  0.50000000  0.19391000
   0.00000000  0.66667000  0.12928000
   0.16667000  0.83333000  0.19391000
   0.33333000  0.66667000  0.12928000
   0.50000000  0.83333000  0.19391000
   0.66667000  0.66667000  0.12928000
   0.83333000  0.83333000  0.19391000
   0.00000000  0.00000000  0.25855000
   0.16327332  0.16994910  0.32332206
   0.33333000  0.00000000  0.25855000
   0.50142227  0.16418279  0.32371136
   0.66667000  0.00000000  0.25855000
   0.83317827  0.16682740  0.32471666
   0.00000000  0.33333000  0.25855000
   0.16605927  0.50006150  0.32481693
   0.33333000  0.33333000  0.25855000
   0.49991854  0.50007156  0.32041149
   0.66667000  0.33333000  0.25855000
   0.83581209  0.49857364  0.32370958
   0.00000000  0.66667000  0.25855000
   0.16837022  0.83161779  0.32275159
   0.33333000  0.66667000  0.25855000
   0.49993496  0.83393958  0.32481760
   0.66667000  0.66667000  0.25855000
   0.83004466  0.83672593  0.32331835
   0.99798609  0.33114098  0.38061390
   0.65477584  0.34520814  0.38813964
   0.34336720  0.65665610  0.38740956
   0.49684337  0.50316490  0.40992017
Direct configuration=    18
   0.00000000  0.00000000  0.00000000
   0.02015283  0.97981721  0.38356546
   0.16667000  0.16667000  0.06464000
   0.33333000  0.00000000  0.00000000
   0.31094368  0.01890335  0.38303499
   0.50000000  0.16667000  0.06464000
   0.66667000  0.00000000  0.00000000
   0.66899003  0.00192118  0.38064125
   0.83333000  0.16667000  0.06464000
   0.00000000  0.33333000  0.00000000
   0.16667000  0.50000000  0.06464000
   0.33333000  0.33333000  0.00000000
   0.34562738  0.31550522  0.38252809
   0.50000000  0.50000000  0.06464000
   0.66667000  0.33333000  0.00000000
   0.83333000  0.50000000  0.06464000
   0.00000000  0.66667000  0.00000000
   0.98103950  0.68902987  0.38303927
   0.16667000  0.83333000  0.06464000
   0.33333000  0.66667000  0.00000000
   0.50000000  0.83333000  0.06464000
   0.66667000  0.66667000  0.00000000
   0.68447327  0.65435598  0.38252762
   0.83333000  0.83333000  0.06464000
   0.00000000  0.00000000  0.12928000
   0.16667000  0.16667000  0.19391000
   0.33333000  0.00000000  0.12928000
   0.50000000  0.16667000  0.19391000
   0.66667000  0.00000000  0.12928000
   0.83333000  0.16667000  0.19391000
   0.00000000  0.33333000  0.12928000
   0.16667000  0.50000000  0.19391000
   0.33333000  0.33333000  0.12928000
   0.50000000  0.50000000  0.19391000
   0.66667000  0.33333000  0.12928000
   0.83333000  0.50000000  0.19391000
   0.00000000  0.66667000  0.12928000
   0.16667000  0.83333000  0.19391000
   0.33333000  0.66667000  0.12928000
   0.50000000  0.83333000  0.19391000
   0.66667000  0.66667000  0.12928000
   0.83333000  0.83333000  0.19391000
   0.00000000  0.00000000  0.25855000
   0.16323547  0.16995473  0.32333838
   0.33333000  0.00000000  0.25855000
   0.50139662  0.16417719  0.32373968
   0.66667000  0.00000000  0.25855000
   0.83324329  0.16676224  0.32476397
   0.00000000  0.33333000  0.25855000
   0.16600150  0.49996528  0.32481750
   0.33333000  0.33333000  0.25855000
   0.50002823  0.49996228  0.32051153
   0.66667000  0.33333000  0.25855000
   0.83581761  0.49859951  0.32373804
   0.00000000  0.66667000  0.25855000
   0.16850824  0.83148227  0.32269381
   0.33333000  0.66667000  0.25855000
   0.50003254  0.83399843  0.32481817
   0.66667000  0.66667000  0.25855000
   0.83003764  0.83676413  0.32333480
   0.99812840  0.33106426  0.38064145
   0.65428769  0.34569639  0.38800301
   0.34351257  0.65651088  0.38731946
   0.49655555  0.50345138  0.40979581
Direct configuration=    19
   0.00000000  0.00000000  0.00000000
   0.02054498  0.97942929  0.38359413
   0.16667000  0.16667000  0.06464000
   0.33333000  0.00000000  0.00000000
   0.31082394  0.01900625  0.38317025
   0.50000000  0.16667000  0.06464000
   0.66667000  0.00000000  0.00000000
   0.66891454  0.00153293  0.38070225
   0.83333000  0.16667000  0.06464000
   0.00000000  0.33333000  0.00000000
   0.16667000  0.50000000  0.06464000
   0.33333000  0.33333000  0.00000000
   0.34434829  0.31399629  0.38250822
   0.50000000  0.50000000  0.06464000
   0.66667000  0.33333000  0.00000000
   0.83333000  0.50000000  0.06464000
   0.00000000  0.66667000  0.00000000
   0.98094935  0.68915385  0.38317340
   0.16667000  0.83333000  0.06464000
   0.33333000  0.66667000  0.00000000
   0.50000000  0.83333000  0.06464000
   0.66667000  0.66667000  0.00000000
   0.68598679  0.65563301  0.38250823
   0.83333000  0.83333000  0.06464000
   0.00000000  0.00000000  0.12928000
   0.16667000  0.16667000  0.19391000
   0.33333000  0.00000000  0.12928000
   0.50000000  0.16667000  0.19391000
   0.66667000  0.00000000  0.12928000
   0.83333000  0.16667000  0.19391000
   0.00000000  0.33333000  0.12928000
   0.16667000  0.50000000  0.19391000
   0.33333000  0.33333000  0.12928000
   0.50000000  0.50000000  0.19391000
   0.66667000  0.33333000  0.12928000
   0.83333000  0.50000000  0.19391000
   0.00000000  0.66667000  0.12928000
   0.16667000  0.83333000  0.19391000
   0.33333000  0.66667000  0.12928000
   0.50000000  0.83333000  0.19391000
   0.66667000  0.66667000  0.12928000
   0.83333000  0.83333000  0.19391000
   0.00000000  0.00000000  0.25855000
   0.16292789  0.16983501  0.32324379
   0.33333000  0.00000000  0.25855000
   0.50153752  0.16391008  0.32377614
   0.66667000  0.00000000  0.25855000
   0.83321598  0.16678905  0.32484159
   0.00000000  0.33333000  0.25855000
   0.16625213  0.49959801  0.32480974
   0.33333000  0.33333000  0.25855000
   0.49958088  0.50041353  0.32027413
   0.66667000  0.33333000  0.25855000
   0.83608623  0.49845929  0.32377500
   0.00000000  0.66667000  0.25855000
   0.16874823  0.83124490  0.32263219
   0.33333000  0.66667000  0.25855000
   0.50040185  0.83374844  0.32481035
   0.66667000  0.66667000  0.25855000
   0.83016011  0.83707010  0.32324173
   0.99851058  0.33113202  0.38070164
   0.65348871  0.34649625  0.38781048
   0.34320867  0.65681352  0.38706758
   0.49591735  0.50408833  0.41014504
Direct configuration=    20
   0.00000000  0.00000000  0.00000000
   0.02057818  0.97939645  0.38359656
   0.16667000  0.16667000  0.06464000
   0.33333000  0.00000000  0.00000000
   0.31081380  0.01901497  0.38318171
   0.50000000  0.16667000  0.06464000
   0.66667000  0.00000000  0.00000000
   0.66890814  0.00150006  0.38070742
   0.83333000  0.16667000  0.06464000
   0.00000000  0.33333000  0.00000000
   0.16667000  0.50000000  0.06464000
   0.33333000  0.33333000  0.00000000
   0.34423998  0.31386852  0.38250654
   0.50000000  0.50000000  0.06464000
   0.66667000  0.33333000  0.00000000
   0.83333000  0.50000000  0.06464000
   0.00000000  0.66667000  0.00000000
   0.98094171  0.68916435  0.38318475
   0.16667000  0.83333000  0.06464000
   0.33333000  0.66667000  0.00000000
   0.50000000  0.83333000  0.06464000
   0.66667000  0.66667000  0.00000000
   0.68611495  0.65574115  0.38250659
   0.83333000  0.83333000  0.06464000
   0.00000000  0.00000000  0.12928000
   0.16667000  0.16667000  0.19391000
   0.33333000  0.00000000  0.12928000
   0.50000000  0.16667000  0.19391000
   0.66667000  0.00000000  0.12928000
   0.83333000  0.16667000  0.19391000
   0.00000000  0.33333000  0.12928000
   0.16667000  0.50000000  0.19391000
   0.33333000  0.33333000  0.12928000
   0.50000000  0.50000000  0.19391000
   0.66667000  0.33333000  0.12928000
   0.83333000  0.50000000  0.19391000
   0.00000000  0.66667000  0.12928000
   0.16667000  0.83333000  0.19391000
   0.33333000  0.66667000  0.12928000
   0.50000000  0.83333000  0.19391000
   0.66667000  0.66667000  0.12928000
   0.83333000  0.83333000  0.19391000
   0.00000000  0.00000000  0.25855000
   0.16290184  0.16982487  0.32323578
   0.33333000  0.00000000  0.25855000
   0.50154945  0.16388746  0.32377923
   0.66667000  0.00000000  0.25855000
   0.83321367  0.16679132  0.32484816
   0.00000000  0.33333000  0.25855000
   0.16627335  0.49956692  0.32480909
   0.33333000  0.33333000  0.25855000
   0.49954300  0.50045174  0.32025402
   0.66667000  0.33333000  0.25855000
   0.83610897  0.49844742  0.32377813
   0.00000000  0.66667000  0.25855000
   0.16876855  0.83122480  0.32262697
   0.33333000  0.66667000  0.25855000
   0.50043312  0.83372727  0.32480969
   0.66667000  0.66667000  0.25855000
   0.83017048  0.83709601  0.32323385
   0.99854294  0.33113776  0.38070673
   0.65342106  0.34656398  0.38779418
   0.34318294  0.65683915  0.38704625
   0.49586331  0.50414227  0.41017461
Direct configuration=    21
   0.00000000  0.00000000  0.00000000
   0.02082786  0.97914969  0.38366127
   0.16667000  0.16667000  0.06464000
   0.33333000  0.00000000  0.00000000
   0.31083571  0.01912437  0.38318035
   0.50000000  0.16667000  0.06464000
   0.66667000  0.00000000  0.00000000
   0.66868241  0.00127487  0.38069976
   0.83333000  0.16667000  0.06464000
   0.00000000  0.33333000  0.00000000
   0.16667000  0.50000000  0.06464000
   0.33333000  0.33333000  0.00000000
   0.34394367  0.31327046  0.38269294
   0.50000000  0.50000000  0.06464000
   0.66667000  0.33333000  0.00000000
   0.83333000  0.50000000  0.06464000
   0.00000000  0.66667000  0.00000000
   0.98083994  0.68914504  0.38318242
   0.16667000  0.83333000  0.06464000
   0.33333000  0.66667000  0.00000000
   0.50000000  0.83333000  0.06464000
   0.66667000  0.66667000  0.00000000
   0.68671463  0.65603753  0.38269275
   0.83333000  0.83333000  0.06464000
   0.00000000  0.00000000  0.12928000
   0.16667000  0.16667000  0.19391000
   0.33333000  0.00000000  0.12928000
   0.50000000  0.16667000  0.19391000
   0.66667000  0.00000000  0.12928000
   0.83333000  0.16667000  0.19391000
   0.00000000  0.33333000  0.12928000
   0.16667000  0.50000000  0.19391000
   0.33333000  0.33333000  0.12928000
   0.50000000  0.50000000  0.19391000
   0.66667000  0.33333000  0.12928000
   0.83333000  0.50000000  0.19391000
   0.00000000  0.66667000  0.12928000
   0.16667000  0.83333000  0.19391000
   0.33333000  0.66667000  0.12928000
   0.50000000  0.83333000  0.19391000
   0.66667000  0.66667000  0.12928000
   0.83333000  0.83333000  0.19391000
   0.00000000  0.00000000  0.25855000
   0.16277629  0.16946488  0.32314683
   0.33333000  0.00000000  0.25855000
   0.50170620  0.16385769  0.32376646
   0.66667000  0.00000000  0.25855000
   0.83303370  0.16697002  0.32486985
   0.00000000  0.33333000  0.25855000
   0.16632331  0.49950967  0.32471147
   0.33333000  0.33333000  0.25855000
   0.49932548  0.50067056  0.32044529
   0.66667000  0.33333000  0.25855000
   0.83614032  0.49829040  0.32376517
   0.00000000  0.66667000  0.25855000
   0.16867243  0.83132039  0.32260602
   0.33333000  0.66667000  0.25855000
   0.50049054  0.83367724  0.32471243
   0.66667000  0.66667000  0.25855000
   0.83053298  0.83722139  0.32314550
   0.99876363  0.33135885  0.38069930
   0.65291403  0.34707160  0.38783962
   0.34296154  0.65705928  0.38717898
   0.49557684  0.50443033  0.41029296
Direct configuration=    22
   0.00000000  0.00000000  0.00000000
   0.02095182  0.97902718  0.38369340
   0.16667000  0.16667000  0.06464000
   0.33333000  0.00000000  0.00000000
   0.31084659  0.01917870  0.38317967
   0.50000000  0.16667000  0.06464000
   0.66667000  0.00000000  0.00000000
   0.66857034  0.00116306  0.38069596
   0.83333000  0.16667000  0.06464000
   0.00000000  0.33333000  0.00000000
   0.16667000  0.50000000  0.06464000
   0.33333000  0.33333000  0.00000000
   0.34379655  0.31297353  0.38278550
   0.50000000  0.50000000  0.06464000
   0.66667000  0.33333000  0.00000000
   0.83333000  0.50000000  0.06464000
   0.00000000  0.66667000  0.00000000
   0.98078942  0.68913546  0.38318127
   0.16667000  0.83333000  0.06464000
   0.33333000  0.66667000  0.00000000
   0.50000000  0.83333000  0.06464000
   0.66667000  0.66667000  0.00000000
   0.68701237  0.65618468  0.38278518
   0.83333000  0.83333000  0.06464000
   0.00000000  0.00000000  0.12928000
   0.16667000  0.16667000  0.19391000
   0.33333000  0.00000000  0.12928000
   0.50000000  0.16667000  0.19391000
   0.66667000  0.00000000  0.12928000
   0.83333000  0.16667000  0.19391000
   0.00000000  0.33333000  0.12928000
   0.16667000  0.50000000  0.19391000
   0.33333000  0.33333000  0.12928000
   0.50000000  0.50000000  0.19391000
   0.66667000  0.33333000  0.12928000
   0.83333000  0.50000000  0.19391000
   0.00000000  0.66667000  0.12928000
   0.16667000  0.83333000  0.19391000
   0.33333000  0.66667000  0.12928000
   0.50000000  0.83333000  0.19391000
   0.66667000  0.66667000  0.12928000
   0.83333000  0.83333000  0.19391000
   0.00000000  0.00000000  0.25855000
   0.16271395  0.16928614  0.32310267
   0.33333000  0.00000000  0.25855000
   0.50178403  0.16384290  0.32376011
   0.66667000  0.00000000  0.25855000
   0.83294434  0.16705875  0.32488061
   0.00000000  0.33333000  0.25855000
   0.16634811  0.49948124  0.32466301
   0.33333000  0.33333000  0.25855000
   0.49921748  0.50077920  0.32054025
   0.66667000  0.33333000  0.25855000
   0.83615588  0.49821244  0.32375874
   0.00000000  0.66667000  0.25855000
   0.16862471  0.83136784  0.32259562
   0.33333000  0.66667000  0.25855000
   0.50051905  0.83365239  0.32466413
   0.66667000  0.66667000  0.25855000
   0.83071297  0.83728365  0.32310163
   0.99887321  0.33146863  0.38069560
   0.65266229  0.34732364  0.38786219
   0.34285162  0.65716857  0.38724488
   0.49543461  0.50457335  0.41035172
Direct configuration=    23
   0.00000000  0.00000000  0.00000000
   0.02107806  0.97890588  0.38377501
   0.16667000  0.16667000  0.06464000
   0.33333000  0.00000000  0.00000000
   0.31107589  0.01938581  0.38317880
   0.50000000  0.16667000  0.06464000
   0.66667000  0.00000000  0.00000000
   0.66823632  0.00091720  0.38059876
   0.83333000  0.16667000  0.06464000
   0.00000000  0.33333000  0.00000000
   0.16667000  0.50000000  0.06464000
   0.33333000  0.33333000  0.00000000
   0.34373490  0.31230824  0.38288288
   0.50000000  0.50000000  0.06464000
   0.66667000  0.33333000  0.00000000
   0.83333000  0.50000000  0.06464000
   0.00000000  0.66667000  0.00000000
   0.98059061  0.68890799  0.38318043
   0.16667000  0.83333000  0.06464000
   0.33333000  0.66667000  0.00000000
   0.50000000  0.83333000  0.06464000
   0.66667000  0.66667000  0.00000000
   0.68767834  0.65624750  0.38288209
   0.83333000  0.83333000  0.06464000
   0.00000000  0.00000000  0.12928000
   0.16667000  0.16667000  0.19391000
   0.33333000  0.00000000  0.12928000
   0.50000000  0.16667000  0.19391000
   0.66667000  0.00000000  0.12928000
   0.83333000  0.16667000  0.19391000
   0.00000000  0.33333000  0.12928000
   0.16667000  0.50000000  0.19391000
   0.33333000  0.33333000  0.12928000
   0.50000000  0.50000000  0.19391000
   0.66667000  0.33333000  0.12928000
   0.83333000  0.50000000  0.19391000
   0.00000000  0.66667000  0.12928000
   0.16667000  0.83333000  0.19391000
   0.33333000  0.66667000  0.12928000
   0.50000000  0.83333000  0.19391000
   0.66667000  0.66667000  0.12928000
   0.83333000  0.83333000  0.19391000
   0.00000000  0.00000000  0.25855000
   0.16277062  0.16937154  0.32313153
   0.33333000  0.00000000  0.25855000
   0.50165724  0.16413009  0.32382977
   0.66667000  0.00000000  0.25855000
   0.83290567  0.16709644  0.32494003
   0.00000000  0.33333000  0.25855000
   0.16633715  0.49948708  0.32465996
   0.33333000  0.33333000  0.25855000
   0.49918658  0.50081001  0.32068583
   0.66667000  0.33333000  0.25855000
   0.83586874  0.49833896  0.32382845
   0.00000000  0.66667000  0.25855000
   0.16873943  0.83125535  0.32254212
   0.33333000  0.66667000  0.25855000
   0.50051332  0.83366416  0.32466091
   0.66667000  0.66667000  0.25855000
   0.83062658  0.83722751  0.32313014
   0.99911250  0.33179652  0.38059872
   0.65223384  0.34775373  0.38798079
   0.34268754  0.65733064  0.38742316
   0.49500418  0.50500672  0.41049808
Direct configuration=    24
   0.00000000  0.00000000  0.00000000
   0.02108948  0.97889491  0.38378240
   0.16667000  0.16667000  0.06464000
   0.33333000  0.00000000  0.00000000
   0.31109663  0.01940455  0.38317872
   0.50000000  0.16667000  0.06464000
   0.66667000  0.00000000  0.00000000
   0.66820610  0.00089496  0.38058997
   0.83333000  0.16667000  0.06464000
   0.00000000  0.33333000  0.00000000
   0.16667000  0.50000000  0.06464000
   0.33333000  0.33333000  0.00000000
   0.34372932  0.31224805  0.38289169
   0.50000000  0.50000000  0.06464000
   0.66667000  0.33333000  0.00000000
   0.83333000  0.50000000  0.06464000
   0.00000000  0.66667000  0.00000000
   0.98057262  0.68888741  0.38318035
   0.16667000  0.83333000  0.06464000
   0.33333000  0.66667000  0.00000000
   0.50000000  0.83333000  0.06464000
   0.66667000  0.66667000  0.00000000
   0.68773860  0.65625319  0.38289086
   0.83333000  0.83333000  0.06464000
   0.00000000  0.00000000  0.12928000
   0.16667000  0.16667000  0.19391000
   0.33333000  0.00000000  0.12928000
   0.50000000  0.16667000  0.19391000
   0.66667000  0.00000000  0.12928000
   0.83333000  0.16667000  0.19391000
   0.00000000  0.33333000  0.12928000
   0.16667000  0.50000000  0.19391000
   0.33333000  0.33333000  0.12928000
   0.50000000  0.50000000  0.19391000
   0.66667000  0.33333000  0.12928000
   0.83333000  0.50000000  0.19391000
   0.00000000  0.66667000  0.12928000
   0.16667000  0.83333000  0.19391000
   0.33333000  0.66667000  0.12928000
   0.50000000  0.83333000  0.19391000
   0.66667000  0.66667000  0.12928000
   0.83333000  0.83333000  0.19391000
   0.00000000  0.00000000  0.25855000
   0.16277575  0.16937926  0.32313414
   0.33333000  0.00000000  0.25855000
   0.50164576  0.16415607  0.32383607
   0.66667000  0.00000000  0.25855000
   0.83290217  0.16709985  0.32494541
   0.00000000  0.33333000  0.25855000
   0.16633616  0.49948761  0.32465968
   0.33333000  0.33333000  0.25855000
   0.49918379  0.50081280  0.32069900
   0.66667000  0.33333000  0.25855000
   0.83584276  0.49835041  0.32383475
   0.00000000  0.66667000  0.25855000
   0.16874981  0.83124517  0.32253728
   0.33333000  0.66667000  0.25855000
   0.50051280  0.83366522  0.32466062
   0.66667000  0.66667000  0.25855000
   0.83061877  0.83722243  0.32313271
   0.99913415  0.33182619  0.38058996
   0.65219507  0.34779264  0.38799152
   0.34267270  0.65734530  0.38743929
   0.49496524  0.50504593  0.41051133
Direct configuration=    25
   0.00000000  0.00000000  0.00000000
   0.02121051  0.97877669  0.38371993
   0.16667000  0.16667000  0.06464000
   0.33333000  0.00000000  0.00000000
   0.31132586  0.01946630  0.38322084
   0.50000000  0.16667000  0.06464000
   0.66667000  0.00000000  0.00000000
   0.66788556  0.00076072  0.38060225
   0.83333000  0.16667000  0.06464000
   0.00000000  0.33333000  0.00000000
   0.16667000  0.50000000  0.06464000
   0.33333000  0.33333000  0.00000000
   0.34369520  0.31197338  0.38295919
   0.50000000  0.50000000  0.06464000
   0.66667000  0.33333000  0.00000000
   0.83333000  0.50000000  0.06464000
   0.00000000  0.66667000  0.00000000
   0.98051438  0.68866115  0.38322148
   0.16667000  0.83333000  0.06464000
   0.33333000  0.66667000  0.00000000
   0.50000000  0.83333000  0.06464000
   0.66667000  0.66667000  0.00000000
   0.68801380  0.65628985  0.38295836
   0.83333000  0.83333000  0.06464000
   0.00000000  0.00000000  0.12928000
   0.16667000  0.16667000  0.19391000
   0.33333000  0.00000000  0.12928000
   0.50000000  0.16667000  0.19391000
   0.66667000  0.00000000  0.12928000
   0.83333000  0.16667000  0.19391000
   0.00000000  0.33333000  0.12928000
   0.16667000  0.50000000  0.19391000
   0.33333000  0.33333000  0.12928000
   0.50000000  0.50000000  0.19391000
   0.66667000  0.33333000  0.12928000
   0.83333000  0.50000000  0.19391000
   0.00000000  0.66667000  0.12928000
   0.16667000  0.83333000  0.19391000
   0.33333000  0.66667000  0.12928000
   0.50000000  0.83333000  0.19391000
   0.66667000  0.66667000  0.12928000
   0.83333000  0.83333000  0.19391000
   0.00000000  0.00000000  0.25855000
   0.16270742  0.16956574  0.32317444
   0.33333000  0.00000000  0.25855000
   0.50167392  0.16419948  0.32377897
   0.66667000  0.00000000  0.25855000
   0.83300497  0.16699706  0.32494518
   0.00000000  0.33333000  0.25855000
   0.16626728  0.49959050  0.32469904
   0.33333000  0.33333000  0.25855000
   0.49912885  0.50086789  0.32066537
   0.66667000  0.33333000  0.25855000
   0.83579917  0.49832319  0.32377809
   0.00000000  0.66667000  0.25855000
   0.16873731  0.83125894  0.32259106
   0.33333000  0.66667000  0.25855000
   0.50041010  0.83373416  0.32469950
   0.66667000  0.66667000  0.25855000
   0.83043321  0.83728939  0.32317384
   0.99926258  0.33214125  0.38060266
   0.65205051  0.34793872  0.38809949
   0.34263642  0.65737699  0.38745157
   0.49459309  0.50542097  0.41063466
Direct configuration=    26
   0.00000000  0.00000000  0.00000000
   0.02120661  0.97878049  0.38372194
   0.16667000  0.16667000  0.06464000
   0.33333000  0.00000000  0.00000000
   0.31131848  0.01946431  0.38321948
   0.50000000  0.16667000  0.06464000
   0.66667000  0.00000000  0.00000000
   0.66789588  0.00076504  0.38060185
   0.83333000  0.16667000  0.06464000
   0.00000000  0.33333000  0.00000000
   0.16667000  0.50000000  0.06464000
   0.33333000  0.33333000  0.00000000
   0.34369630  0.31198222  0.38295701
   0.50000000  0.50000000  0.06464000
   0.66667000  0.33333000  0.00000000
   0.83333000  0.50000000  0.06464000
   0.00000000  0.66667000  0.00000000
   0.98051626  0.68866844  0.38322016
   0.16667000  0.83333000  0.06464000
   0.33333000  0.66667000  0.00000000
   0.50000000  0.83333000  0.06464000
   0.66667000  0.66667000  0.00000000
   0.68800494  0.65628867  0.38295619
   0.83333000  0.83333000  0.06464000
   0.00000000  0.00000000  0.12928000
   0.16667000  0.16667000  0.19391000
   0.33333000  0.00000000  0.12928000
   0.50000000  0.16667000  0.19391000
   0.66667000  0.00000000  0.12928000
   0.83333000  0.16667000  0.19391000
   0.00000000  0.33333000  0.12928000
   0.16667000  0.50000000  0.19391000
   0.33333000  0.33333000  0.12928000
   0.50000000  0.50000000  0.19391000
   0.66667000  0.33333000  0.12928000
   0.83333000  0.50000000  0.19391000
   0.00000000  0.66667000  0.12928000
   0.16667000  0.83333000  0.19391000
   0.33333000  0.66667000  0.12928000
   0.50000000  0.83333000  0.19391000
   0.66667000  0.66667000  0.12928000
   0.83333000  0.83333000  0.19391000
   0.00000000  0.00000000  0.25855000
   0.16270962  0.16955974  0.32317314
   0.33333000  0.00000000  0.25855000
   0.50167302  0.16419809  0.32378081
   0.66667000  0.00000000  0.25855000
   0.83300166  0.16700037  0.32494519
   0.00000000  0.33333000  0.25855000
   0.16626950  0.49958718  0.32469778
   0.33333000  0.33333000  0.25855000
   0.49913062  0.50086611  0.32066645
   0.66667000  0.33333000  0.25855000
   0.83580058  0.49832406  0.32377991
   0.00000000  0.66667000  0.25855000
   0.16873771  0.83125850  0.32258933
   0.33333000  0.66667000  0.25855000
   0.50041341  0.83373194  0.32469825
   0.66667000  0.66667000  0.25855000
   0.83043918  0.83728723  0.32317252
   0.99925845  0.33213111  0.38060225
   0.65205516  0.34793401  0.38809602
   0.34263759  0.65737597  0.38745117
   0.49460507  0.50540889  0.41063069
Direct configuration=    27
   0.00000000  0.00000000  0.00000000
   0.02120536  0.97878391  0.38368624
   0.16667000  0.16667000  0.06464000
   0.33333000  0.00000000  0.00000000
   0.31148030  0.01959588  0.38322629
   0.50000000  0.16667000  0.06464000
   0.66667000  0.00000000  0.00000000
   0.66762104  0.00075840  0.38065856
   0.83333000  0.16667000  0.06464000
   0.00000000  0.33333000  0.00000000
   0.16667000  0.50000000  0.06464000
   0.33333000  0.33333000  0.00000000
   0.34374631  0.31189850  0.38297430
   0.50000000  0.50000000  0.06464000
   0.66667000  0.33333000  0.00000000
   0.83333000  0.50000000  0.06464000
   0.00000000  0.66667000  0.00000000
   0.98038781  0.68850848  0.38322682
   0.16667000  0.83333000  0.06464000
   0.33333000  0.66667000  0.00000000
   0.50000000  0.83333000  0.06464000
   0.66667000  0.66667000  0.00000000
   0.68808788  0.65624072  0.38297397
   0.83333000  0.83333000  0.06464000
   0.00000000  0.00000000  0.12928000
   0.16667000  0.16667000  0.19391000
   0.33333000  0.00000000  0.12928000
   0.50000000  0.16667000  0.19391000
   0.66667000  0.00000000  0.12928000
   0.83333000  0.16667000  0.19391000
   0.00000000  0.33333000  0.12928000
   0.16667000  0.50000000  0.19391000
   0.33333000  0.33333000  0.12928000
   0.50000000  0.50000000  0.19391000
   0.66667000  0.33333000  0.12928000
   0.83333000  0.50000000  0.19391000
   0.00000000  0.66667000  0.12928000
   0.16667000  0.83333000  0.19391000
   0.33333000  0.66667000  0.12928000
   0.50000000  0.83333000  0.19391000
   0.66667000  0.66667000  0.12928000
   0.83333000  0.83333000  0.19391000
   0.00000000  0.00000000  0.25855000
   0.16272432  0.16955915  0.32320763
   0.33333000  0.00000000  0.25855000
   0.50174799  0.16419255  0.32375259
   0.66667000  0.00000000  0.25855000
   0.83301007  0.16699149  0.32495052
   0.00000000  0.33333000  0.25855000
   0.16621769  0.49964364  0.32469827
   0.33333000  0.33333000  0.25855000
   0.49913238  0.50086476  0.32073315
   0.66667000  0.33333000  0.25855000
   0.83580584  0.49824983  0.32375205
   0.00000000  0.66667000  0.25855000
   0.16869069  0.83130594  0.32257956
   0.33333000  0.66667000  0.25855000
   0.50035678  0.83378324  0.32469849
   0.66667000  0.66667000  0.25855000
   0.83043996  0.83727362  0.32320681
   0.99926124  0.33240242  0.38065914
   0.65193879  0.34805271  0.38807981
   0.34264323  0.65736773  0.38742348
   0.49448584  0.50552980  0.41062684
Direct configuration=    28
   0.00000000  0.00000000  0.00000000
   0.02120529  0.97878410  0.38368424
   0.16667000  0.16667000  0.06464000
   0.33333000  0.00000000  0.00000000
   0.31148937  0.01960325  0.38322667
   0.50000000  0.16667000  0.06464000
   0.66667000  0.00000000  0.00000000
   0.66760564  0.00075803  0.38066174
   0.83333000  0.16667000  0.06464000
   0.00000000  0.33333000  0.00000000
   0.16667000  0.50000000  0.06464000
   0.33333000  0.33333000  0.00000000
   0.34374911  0.31189381  0.38297527
   0.50000000  0.50000000  0.06464000
   0.66667000  0.33333000  0.00000000
   0.83333000  0.50000000  0.06464000
   0.00000000  0.66667000  0.00000000
   0.98038061  0.68849951  0.38322719
   0.16667000  0.83333000  0.06464000
   0.33333000  0.66667000  0.00000000
   0.50000000  0.83333000  0.06464000
   0.66667000  0.66667000  0.00000000
   0.68809253  0.65623804  0.38297497
   0.83333000  0.83333000  0.06464000
   0.00000000  0.00000000  0.12928000
   0.16667000  0.16667000  0.19391000
   0.33333000  0.00000000  0.12928000
   0.50000000  0.16667000  0.19391000
   0.66667000  0.00000000  0.12928000
   0.83333000  0.16667000  0.19391000
   0.00000000  0.33333000  0.12928000
   0.16667000  0.50000000  0.19391000
   0.33333000  0.33333000  0.12928000
   0.50000000  0.50000000  0.19391000
   0.66667000  0.33333000  0.12928000
   0.83333000  0.50000000  0.19391000
   0.00000000  0.66667000  0.12928000
   0.16667000  0.83333000  0.19391000
   0.33333000  0.66667000  0.12928000
   0.50000000  0.83333000  0.19391000
   0.66667000  0.66667000  0.12928000
   0.83333000  0.83333000  0.19391000
   0.00000000  0.00000000  0.25855000
   0.16272514  0.16955912  0.32320956
   0.33333000  0.00000000  0.25855000
   0.50175219  0.16419224  0.32375101
   0.66667000  0.00000000  0.25855000
   0.83301054  0.16699099  0.32495082
   0.00000000  0.33333000  0.25855000
   0.16621479  0.49964680  0.32469830
   0.33333000  0.33333000  0.25855000
   0.49913248  0.50086468  0.32073688
   0.66667000  0.33333000  0.25855000
   0.83580614  0.49824567  0.32375049
   0.00000000  0.66667000  0.25855000
   0.16868806  0.83130860  0.32257902
   0.33333000  0.66667000  0.25855000
   0.50035361  0.83378612  0.32469850
   0.66667000  0.66667000  0.25855000
   0.83044000  0.83727286  0.32320873
   0.99926139  0.33241762  0.38066233
   0.65193227  0.34805936  0.38807891
   0.34264355  0.65736727  0.38742193
   0.49447916  0.50553657  0.41062663
Direct configuration=    29
   0.00000000  0.00000000  0.00000000
   0.02113719  0.97885396  0.38368447
   0.16667000  0.16667000  0.06464000
   0.33333000  0.00000000  0.00000000
   0.31164869  0.01976947  0.38321617
   0.50000000  0.16667000  0.06464000
   0.66667000  0.00000000  0.00000000
   0.66736662  0.00078098  0.38067584
   0.83333000  0.16667000  0.06464000
   0.00000000  0.33333000  0.00000000
   0.16667000  0.50000000  0.06464000
   0.33333000  0.33333000  0.00000000
   0.34381376  0.31181901  0.38297452
   0.50000000  0.50000000  0.06464000
   0.66667000  0.33333000  0.00000000
   0.83333000  0.50000000  0.06464000
   0.00000000  0.66667000  0.00000000
   0.98021718  0.68834215  0.38321678
   0.16667000  0.83333000  0.06464000
   0.33333000  0.66667000  0.00000000
   0.50000000  0.83333000  0.06464000
   0.66667000  0.66667000  0.00000000
   0.68816618  0.65617603  0.38297436
   0.83333000  0.83333000  0.06464000
   0.00000000  0.00000000  0.12928000
   0.16667000  0.16667000  0.19391000
   0.33333000  0.00000000  0.12928000
   0.50000000  0.16667000  0.19391000
   0.66667000  0.00000000  0.12928000
   0.83333000  0.16667000  0.19391000
   0.00000000  0.33333000  0.12928000
   0.16667000  0.50000000  0.19391000
   0.33333000  0.33333000  0.12928000
   0.50000000  0.50000000  0.19391000
   0.66667000  0.33333000  0.12928000
   0.83333000  0.50000000  0.19391000
   0.00000000  0.66667000  0.12928000
   0.16667000  0.83333000  0.19391000
   0.33333000  0.66667000  0.12928000
   0.50000000  0.83333000  0.19391000
   0.66667000  0.66667000  0.12928000
   0.83333000  0.83333000  0.19391000
   0.00000000  0.00000000  0.25855000
   0.16271794  0.16955764  0.32321990
   0.33333000  0.00000000  0.25855000
   0.50177364  0.16419083  0.32375780
   0.66667000  0.00000000  0.25855000
   0.83300001  0.16700139  0.32498485
   0.00000000  0.33333000  0.25855000
   0.16618748  0.49961360  0.32468012
   0.33333000  0.33333000  0.25855000
   0.49910543  0.50089209  0.32068926
   0.66667000  0.33333000  0.25855000
   0.83580774  0.49822492  0.32375744
   0.00000000  0.66667000  0.25855000
   0.16865150  0.83134524  0.32255888
   0.33333000  0.66667000  0.25855000
   0.50038666  0.83381279  0.32468027
   0.66667000  0.66667000  0.25855000
   0.83044154  0.83728062  0.32321913
   0.99923540  0.33265327  0.38067623
   0.65188905  0.34810391  0.38805396
   0.34257540  0.65743463  0.38741289
   0.49446253  0.50555465  0.41063354
Direct configuration=    30
   0.00000000  0.00000000  0.00000000
   0.02113355  0.97885769  0.38368448
   0.16667000  0.16667000  0.06464000
   0.33333000  0.00000000  0.00000000
   0.31165721  0.01977835  0.38321561
   0.50000000  0.16667000  0.06464000
   0.66667000  0.00000000  0.00000000
   0.66735385  0.00078221  0.38067659
   0.83333000  0.16667000  0.06464000
   0.00000000  0.33333000  0.00000000
   0.16667000  0.50000000  0.06464000
   0.33333000  0.33333000  0.00000000
   0.34381722  0.31181502  0.38297448
   0.50000000  0.50000000  0.06464000
   0.66667000  0.33333000  0.00000000
   0.83333000  0.50000000  0.06464000
   0.00000000  0.66667000  0.00000000
   0.98020845  0.68833374  0.38321622
   0.16667000  0.83333000  0.06464000
   0.33333000  0.66667000  0.00000000
   0.50000000  0.83333000  0.06464000
   0.66667000  0.66667000  0.00000000
   0.68817011  0.65617272  0.38297432
   0.83333000  0.83333000  0.06464000
   0.00000000  0.00000000  0.12928000
   0.16667000  0.16667000  0.19391000
   0.33333000  0.00000000  0.12928000
   0.50000000  0.16667000  0.19391000
   0.66667000  0.00000000  0.12928000
   0.83333000  0.16667000  0.19391000
   0.00000000  0.33333000  0.12928000
   0.16667000  0.50000000  0.19391000
   0.33333000  0.33333000  0.12928000
   0.50000000  0.50000000  0.19391000
   0.66667000  0.33333000  0.12928000
   0.83333000  0.50000000  0.19391000
   0.00000000  0.66667000  0.12928000
   0.16667000  0.83333000  0.19391000
   0.33333000  0.66667000  0.12928000
   0.50000000  0.83333000  0.19391000
   0.66667000  0.66667000  0.12928000
   0.83333000  0.83333000  0.19391000
   0.00000000  0.00000000  0.25855000
   0.16271755  0.16955756  0.32322045
   0.33333000  0.00000000  0.25855000
   0.50177478  0.16419075  0.32375816
   0.66667000  0.00000000  0.25855000
   0.83299945  0.16700195  0.32498667
   0.00000000  0.33333000  0.25855000
   0.16618602  0.49961183  0.32467915
   0.33333000  0.33333000  0.25855000
   0.49910399  0.50089355  0.32068671
   0.66667000  0.33333000  0.25855000
   0.83580782  0.49822381  0.32375781
   0.00000000  0.66667000  0.25855000
   0.16864954  0.83134719  0.32255780
   0.33333000  0.66667000  0.25855000
   0.50038842  0.83381421  0.32467929
   0.66667000  0.66667000  0.25855000
   0.83044162  0.83728104  0.32321969
   0.99923401  0.33266586  0.38067697
   0.65188674  0.34810629  0.38805262
   0.34257176  0.65743822  0.38741241
   0.49446164  0.50555562  0.41063391
Direct configuration=    31
   0.00000000  0.00000000  0.00000000
   0.02110403  0.97888828  0.38367706
   0.16667000  0.16667000  0.06464000
   0.33333000  0.00000000  0.00000000
   0.31174052  0.01988766  0.38320983
   0.50000000  0.16667000  0.06464000
   0.66667000  0.00000000  0.00000000
   0.66723403  0.00076157  0.38066267
   0.83333000  0.16667000  0.06464000
   0.00000000  0.33333000  0.00000000
   0.16667000  0.50000000  0.06464000
   0.33333000  0.33333000  0.00000000
   0.34384477  0.31180199  0.38297893
   0.50000000  0.50000000  0.06464000
   0.66667000  0.33333000  0.00000000
   0.83333000  0.50000000  0.06464000
   0.00000000  0.66667000  0.00000000
   0.98010031  0.68825201  0.38321031
   0.16667000  0.83333000  0.06464000
   0.33333000  0.66667000  0.00000000
   0.50000000  0.83333000  0.06464000
   0.66667000  0.66667000  0.00000000
   0.68818265  0.65614676  0.38297857
   0.83333000  0.83333000  0.06464000
   0.00000000  0.00000000  0.12928000
   0.16667000  0.16667000  0.19391000
   0.33333000  0.00000000  0.12928000
   0.50000000  0.16667000  0.19391000
   0.66667000  0.00000000  0.12928000
   0.83333000  0.16667000  0.19391000
   0.00000000  0.33333000  0.12928000
   0.16667000  0.50000000  0.19391000
   0.33333000  0.33333000  0.12928000
   0.50000000  0.50000000  0.19391000
   0.66667000  0.33333000  0.12928000
   0.83333000  0.50000000  0.19391000
   0.00000000  0.66667000  0.12928000
   0.16667000  0.83333000  0.19391000
   0.33333000  0.66667000  0.12928000
   0.50000000  0.83333000  0.19391000
   0.66667000  0.66667000  0.12928000
   0.83333000  0.83333000  0.19391000
   0.00000000  0.00000000  0.25855000
   0.16266153  0.16956834  0.32321204
   0.33333000  0.00000000  0.25855000
   0.50176007  0.16419529  0.32373380
   0.66667000  0.00000000  0.25855000
   0.83300381  0.16699753  0.32500219
   0.00000000  0.33333000  0.25855000
   0.16619126  0.49960653  0.32466813
   0.33333000  0.33333000  0.25855000
   0.49905050  0.50094714  0.32067968
   0.66667000  0.33333000  0.25855000
   0.83580311  0.49823948  0.32373369
   0.00000000  0.66667000  0.25855000
   0.16861911  0.83137781  0.32259405
   0.33333000  0.66667000  0.25855000
   0.50039379  0.83380909  0.32466826
   0.66667000  0.66667000  0.25855000
   0.83043100  0.83733674  0.32321177
   0.99925278  0.33278319  0.38066287
   0.65187910  0.34811471  0.38805810
   0.34255817  0.65745176  0.38739091
   0.49445739  0.50556100  0.41060090
