  63  63   0   0
  0.3508955E+02  0.9498400E-09  0.9498400E-09  0.2450290E-08  0.5000000E-15
  1.000000000000000E-004
  CAR 
 ni3al                                   
      8.81424439    -60.90552022  301      3.47336435      1.00000000
    -60.906  0.0000E+00  0.0000E+00
    -60.673  0.0000E+00  0.0000E+00
    -60.441  0.0000E+00  0.0000E+00
    -60.208  0.0000E+00  0.0000E+00
    -59.976  0.0000E+00  0.0000E+00
    -59.744  0.0000E+00  0.0000E+00
    -59.511  0.0000E+00  0.0000E+00
    -59.279  0.0000E+00  0.0000E+00
    -59.046  0.0000E+00  0.0000E+00
    -58.814  0.0000E+00  0.0000E+00
    -58.582  0.0000E+00  0.0000E+00
    -58.349  0.0000E+00  0.0000E+00
    -58.117  0.1146E-06  0.2664E-07
    -57.884  0.1291E+00  0.3000E-01
    -57.652  0.4737E+02  0.1104E+02
    -57.420  0.2492E+03  0.6895E+02
    -57.187  0.1895E+03  0.1130E+03
    -56.955  0.3012E+02  0.1200E+03
    -56.722  0.8219E-02  0.1200E+03
    -56.490  0.2229E-09  0.1200E+03
    -56.258  0.0000E+00  0.1200E+03
    -56.025  0.0000E+00  0.1200E+03
    -55.793  0.0000E+00  0.1200E+03
    -55.560  0.0000E+00  0.1200E+03
    -55.328  0.0000E+00  0.1200E+03
    -55.096  0.0000E+00  0.1200E+03
    -54.863  0.0000E+00  0.1200E+03
    -54.631  0.0000E+00  0.1200E+03
    -54.398  0.0000E+00  0.1200E+03
    -54.166  0.0000E+00  0.1200E+03
    -53.934  0.0000E+00  0.1200E+03
    -53.701  0.0000E+00  0.1200E+03
    -53.469  0.0000E+00  0.1200E+03
    -53.236  0.0000E+00  0.1200E+03
    -53.004  0.0000E+00  0.1200E+03
    -52.772  0.0000E+00  0.1200E+03
    -52.539  0.0000E+00  0.1200E+03
    -52.307  0.2564E-11  0.1200E+03
    -52.074  0.5159E-03  0.1200E+03
    -51.842  0.4000E+01  0.1209E+03
    -51.610  0.1312E+02  0.1240E+03
    -51.377  0.9238E-01  0.1240E+03
    -51.145  0.4673E-07  0.1240E+03
    -50.912  0.0000E+00  0.1240E+03
    -50.680  0.0000E+00  0.1240E+03
    -50.448  0.0000E+00  0.1240E+03
    -50.215  0.0000E+00  0.1240E+03
    -49.983  0.0000E+00  0.1240E+03
    -49.750  0.0000E+00  0.1240E+03
    -49.518  0.0000E+00  0.1240E+03
    -49.286  0.0000E+00  0.1240E+03
    -49.053  0.0000E+00  0.1240E+03
    -48.821  0.0000E+00  0.1240E+03
    -48.588  0.0000E+00  0.1240E+03
    -48.356  0.0000E+00  0.1240E+03
    -48.124  0.0000E+00  0.1240E+03
    -47.891  0.0000E+00  0.1240E+03
    -47.659  0.0000E+00  0.1240E+03
    -47.426  0.0000E+00  0.1240E+03
    -47.194  0.0000E+00  0.1240E+03
    -46.962  0.0000E+00  0.1240E+03
    -46.729  0.0000E+00  0.1240E+03
    -46.497  0.0000E+00  0.1240E+03
    -46.264  0.0000E+00  0.1240E+03
    -46.032  0.0000E+00  0.1240E+03
    -45.800  0.0000E+00  0.1240E+03
    -45.567  0.0000E+00  0.1240E+03
    -45.335  0.0000E+00  0.1240E+03
    -45.102  0.0000E+00  0.1240E+03
    -44.870  0.0000E+00  0.1240E+03
    -44.638  0.0000E+00  0.1240E+03
    -44.405  0.0000E+00  0.1240E+03
    -44.173  0.0000E+00  0.1240E+03
    -43.940  0.0000E+00  0.1240E+03
    -43.708  0.0000E+00  0.1240E+03
    -43.476  0.0000E+00  0.1240E+03
    -43.243  0.0000E+00  0.1240E+03
    -43.011  0.0000E+00  0.1240E+03
    -42.778  0.0000E+00  0.1240E+03
    -42.546  0.0000E+00  0.1240E+03
    -42.314  0.0000E+00  0.1240E+03
    -42.081  0.0000E+00  0.1240E+03
    -41.849  0.0000E+00  0.1240E+03
    -41.616  0.0000E+00  0.1240E+03
    -41.384  0.0000E+00  0.1240E+03
    -41.152  0.0000E+00  0.1240E+03
    -40.919  0.0000E+00  0.1240E+03
    -40.687  0.0000E+00  0.1240E+03
    -40.454  0.0000E+00  0.1240E+03
    -40.222  0.0000E+00  0.1240E+03
    -39.990  0.0000E+00  0.1240E+03
    -39.757  0.0000E+00  0.1240E+03
    -39.525  0.0000E+00  0.1240E+03
    -39.292  0.0000E+00  0.1240E+03
    -39.060  0.0000E+00  0.1240E+03
    -38.828  0.0000E+00  0.1240E+03
    -38.595  0.0000E+00  0.1240E+03
    -38.363  0.0000E+00  0.1240E+03
    -38.130  0.0000E+00  0.1240E+03
    -37.898  0.0000E+00  0.1240E+03
    -37.666  0.0000E+00  0.1240E+03
    -37.433  0.0000E+00  0.1240E+03
    -37.201  0.0000E+00  0.1240E+03
    -36.968  0.0000E+00  0.1240E+03
    -36.736  0.0000E+00  0.1240E+03
    -36.504  0.0000E+00  0.1240E+03
    -36.271  0.0000E+00  0.1240E+03
    -36.039  0.0000E+00  0.1240E+03
    -35.806  0.0000E+00  0.1240E+03
    -35.574  0.0000E+00  0.1240E+03
    -35.342  0.0000E+00  0.1240E+03
    -35.109  0.0000E+00  0.1240E+03
    -34.877  0.0000E+00  0.1240E+03
    -34.644  0.0000E+00  0.1240E+03
    -34.412  0.0000E+00  0.1240E+03
    -34.180  0.0000E+00  0.1240E+03
    -33.947  0.0000E+00  0.1240E+03
    -33.715  0.0000E+00  0.1240E+03
    -33.482  0.0000E+00  0.1240E+03
    -33.250  0.0000E+00  0.1240E+03
    -33.018  0.0000E+00  0.1240E+03
    -32.785  0.1608E-08  0.1240E+03
    -32.553  0.1622E-01  0.1240E+03
    -32.320  0.2055E+02  0.1288E+03
    -32.088  0.1777E+03  0.1701E+03
    -31.856  0.2048E+03  0.2177E+03
    -31.623  0.2244E+03  0.2698E+03
    -31.391  0.2798E+03  0.3348E+03
    -31.158  0.3293E+03  0.4114E+03
    -30.926  0.2836E+03  0.4773E+03
    -30.694  0.2891E+02  0.4840E+03
    -30.461  0.1581E-01  0.4840E+03
    -30.229  0.8107E-09  0.4840E+03
    -29.996  0.0000E+00  0.4840E+03
    -29.764  0.0000E+00  0.4840E+03
    -29.532  0.0000E+00  0.4840E+03
    -29.299  0.0000E+00  0.4840E+03
    -29.067  0.0000E+00  0.4840E+03
    -28.834  0.0000E+00  0.4840E+03
    -28.602  0.0000E+00  0.4840E+03
    -28.370  0.1921E-06  0.4840E+03
    -28.137  0.1512E+00  0.4840E+03
    -27.905  0.1794E+02  0.4882E+03
    -27.672  0.3012E+02  0.4952E+03
    -27.440  0.3429E+01  0.4960E+03
    -27.208  0.2907E-03  0.4960E+03
    -26.975  0.9324E-12  0.4960E+03
    -26.743  0.0000E+00  0.4960E+03
    -26.510  0.0000E+00  0.4960E+03
    -26.278  0.0000E+00  0.4960E+03
    -26.046  0.0000E+00  0.4960E+03
    -25.813  0.0000E+00  0.4960E+03
    -25.581  0.0000E+00  0.4960E+03
    -25.348  0.0000E+00  0.4960E+03
    -25.116  0.0000E+00  0.4960E+03
    -24.884  0.0000E+00  0.4960E+03
    -24.651  0.0000E+00  0.4960E+03
    -24.419  0.0000E+00  0.4960E+03
    -24.186  0.0000E+00  0.4960E+03
    -23.954  0.0000E+00  0.4960E+03
    -23.722  0.0000E+00  0.4960E+03
    -23.489  0.0000E+00  0.4960E+03
    -23.257  0.0000E+00  0.4960E+03
    -23.024  0.0000E+00  0.4960E+03
    -22.792  0.0000E+00  0.4960E+03
    -22.560  0.0000E+00  0.4960E+03
    -22.327  0.0000E+00  0.4960E+03
    -22.095  0.0000E+00  0.4960E+03
    -21.862  0.0000E+00  0.4960E+03
    -21.630  0.0000E+00  0.4960E+03
    -21.398  0.0000E+00  0.4960E+03
    -21.165  0.0000E+00  0.4960E+03
    -20.933  0.0000E+00  0.4960E+03
    -20.700  0.0000E+00  0.4960E+03
    -20.468  0.0000E+00  0.4960E+03
    -20.236  0.0000E+00  0.4960E+03
    -20.003  0.0000E+00  0.4960E+03
    -19.771  0.0000E+00  0.4960E+03
    -19.538  0.0000E+00  0.4960E+03
    -19.306  0.0000E+00  0.4960E+03
    -19.074  0.0000E+00  0.4960E+03
    -18.841  0.0000E+00  0.4960E+03
    -18.609  0.0000E+00  0.4960E+03
    -18.376  0.0000E+00  0.4960E+03
    -18.144  0.0000E+00  0.4960E+03
    -17.912  0.0000E+00  0.4960E+03
    -17.679  0.0000E+00  0.4960E+03
    -17.447  0.0000E+00  0.4960E+03
    -17.214  0.0000E+00  0.4960E+03
    -16.982  0.0000E+00  0.4960E+03
    -16.750  0.7166E-14  0.4960E+03
    -16.517  0.1253E-04  0.4960E+03
    -16.285  0.7075E+00  0.4962E+03
    -16.052  0.7649E+01  0.4979E+03
    -15.820  0.2492E+00  0.4980E+03
    -15.588  0.9401E-06  0.4980E+03
    -15.355  0.0000E+00  0.4980E+03
    -15.123  0.0000E+00  0.4980E+03
    -14.890  0.0000E+00  0.4980E+03
    -14.658  0.0000E+00  0.4980E+03
    -14.426  0.0000E+00  0.4980E+03
    -14.193  0.0000E+00  0.4980E+03
    -13.961  0.0000E+00  0.4980E+03
    -13.728  0.0000E+00  0.4980E+03
    -13.496  0.0000E+00  0.4980E+03
    -13.264  0.0000E+00  0.4980E+03
    -13.031  0.0000E+00  0.4980E+03
    -12.799  0.0000E+00  0.4980E+03
    -12.566  0.0000E+00  0.4980E+03
    -12.334  0.0000E+00  0.4980E+03
    -12.102  0.0000E+00  0.4980E+03
    -11.869  0.0000E+00  0.4980E+03
    -11.637  0.0000E+00  0.4980E+03
    -11.404  0.0000E+00  0.4980E+03
    -11.172  0.0000E+00  0.4980E+03
    -10.940  0.0000E+00  0.4980E+03
    -10.707  0.0000E+00  0.4980E+03
    -10.475  0.0000E+00  0.4980E+03
    -10.242  0.0000E+00  0.4980E+03
    -10.010  0.0000E+00  0.4980E+03
     -9.778  0.0000E+00  0.4980E+03
     -9.545  0.0000E+00  0.4980E+03
     -9.313  0.0000E+00  0.4980E+03
     -9.080  0.0000E+00  0.4980E+03
     -8.848  0.0000E+00  0.4980E+03
     -8.616  0.0000E+00  0.4980E+03
     -8.383  0.0000E+00  0.4980E+03
     -8.151  0.0000E+00  0.4980E+03
     -7.918  0.0000E+00  0.4980E+03
     -7.686  0.0000E+00  0.4980E+03
     -7.454  0.0000E+00  0.4980E+03
     -7.221  0.0000E+00  0.4980E+03
     -6.989  0.0000E+00  0.4980E+03
     -6.757  0.0000E+00  0.4980E+03
     -6.524  0.0000E+00  0.4980E+03
     -6.292  0.0000E+00  0.4980E+03
     -6.059  0.0000E+00  0.4980E+03
     -5.827  0.0000E+00  0.4980E+03
     -5.595  0.0000E+00  0.4980E+03
     -5.362  0.0000E+00  0.4980E+03
     -5.130  0.0000E+00  0.4980E+03
     -4.897  0.0000E+00  0.4980E+03
     -4.665  0.0000E+00  0.4980E+03
     -4.433  0.0000E+00  0.4980E+03
     -4.200  0.0000E+00  0.4980E+03
     -3.968  0.0000E+00  0.4980E+03
     -3.735  0.3962E-11  0.4980E+03
     -3.503  0.1433E-03  0.4980E+03
     -3.271  0.2685E+00  0.4981E+03
     -3.038  0.3972E+01  0.4990E+03
     -2.806  0.9360E+01  0.5012E+03
     -2.573  0.9257E+01  0.5033E+03
     -2.341  0.1400E+02  0.5066E+03
     -2.109  0.4812E+01  0.5077E+03
     -1.876  0.8903E+01  0.5098E+03
     -1.644  0.8478E+01  0.5117E+03
     -1.411  0.1763E+02  0.5158E+03
     -1.179  0.4673E+02  0.5267E+03
     -0.947  0.5030E+02  0.5384E+03
     -0.714  0.7630E+02  0.5561E+03
     -0.482  0.5449E+02  0.5688E+03
     -0.249  0.7192E+02  0.5855E+03
     -0.017  0.7324E+02  0.6025E+03
      0.215  0.7060E+02  0.6189E+03
      0.448  0.9386E+02  0.6407E+03
      0.680  0.1118E+03  0.6667E+03
      0.913  0.9655E+02  0.6891E+03
      1.145  0.7957E+02  0.7076E+03
      1.377  0.7361E+02  0.7247E+03
      1.610  0.8665E+02  0.7449E+03
      1.842  0.7775E+02  0.7629E+03
      2.075  0.9093E+02  0.7841E+03
      2.307  0.7421E+02  0.8013E+03
      2.539  0.5874E+02  0.8150E+03
      2.772  0.5123E+02  0.8269E+03
      3.004  0.6928E+02  0.8430E+03
      3.237  0.6720E+02  0.8586E+03
      3.469  0.5675E+02  0.8718E+03
      3.701  0.5465E+02  0.8845E+03
      3.934  0.6098E+02  0.8987E+03
      4.166  0.6900E+02  0.9147E+03
      4.399  0.6631E+02  0.9301E+03
      4.631  0.8568E+02  0.9500E+03
      4.863  0.1063E+03  0.9747E+03
      5.096  0.1074E+03  0.9997E+03
      5.328  0.1103E+03  0.1025E+04
      5.561  0.7796E+02  0.1043E+04
      5.793  0.1105E+02  0.1046E+04
      6.025  0.1588E-01  0.1046E+04
      6.258  0.2082E-07  0.1046E+04
      6.490  0.0000E+00  0.1046E+04
      6.723  0.0000E+00  0.1046E+04
      6.955  0.0000E+00  0.1046E+04
      7.187  0.0000E+00  0.1046E+04
      7.420  0.0000E+00  0.1046E+04
      7.652  0.0000E+00  0.1046E+04
      7.885  0.0000E+00  0.1046E+04
      8.117  0.0000E+00  0.1046E+04
      8.349  0.0000E+00  0.1046E+04
      8.582  0.0000E+00  0.1046E+04
      8.814  0.0000E+00  0.1046E+04
