       N       E                     dE             d eps       ncg     rms          rms(c)
DAV:   1     0.107307813214E+05    0.10731E+05   -0.55449E+05 12692   0.160E+03
DAV:   2    -0.141987437003E+03   -0.10873E+05   -0.10541E+05 11632   0.507E+02
DAV:   3    -0.672169429975E+03   -0.53018E+03   -0.49877E+03 15072   0.110E+02
DAV:   4    -0.706186475002E+03   -0.34017E+02   -0.32583E+02 14560   0.217E+01
DAV:   5    -0.709714104683E+03   -0.35276E+01   -0.34535E+01 20088   0.590E+00    0.102E+02
DAV:   6    -0.709577504378E+03    0.13660E+00   -0.41487E+02 14184   0.287E+01    0.626E+01
DAV:   7    -0.744893904758E+03   -0.35316E+02   -0.87269E+02 13082   0.407E+01    0.538E+01
DAV:   8    -0.662436419253E+03    0.82457E+02   -0.19589E+02 13753   0.230E+01    0.253E+01
DAV:   9    -0.652045038210E+03    0.10391E+02   -0.35781E+01 13896   0.102E+01    0.139E+01
DAV:  10    -0.651553058469E+03    0.49198E+00   -0.67035E+00 15104   0.362E+00    0.113E+01
DAV:  11    -0.651233434959E+03    0.31962E+00   -0.16010E+00 13672   0.260E+00    0.975E+00
DAV:  12    -0.650785387762E+03    0.44805E+00   -0.11971E+00 13968   0.216E+00    0.760E+00
DAV:  13    -0.650379822828E+03    0.40556E+00   -0.42925E+00 13288   0.406E+00    0.518E+00
DAV:  14    -0.649994695329E+03    0.38513E+00   -0.13385E+00 14696   0.238E+00    0.296E+00
DAV:  15    -0.649979341846E+03    0.15353E-01   -0.49138E-01 13480   0.158E+00    0.302E+00
DAV:  16    -0.649837159776E+03    0.14218E+00   -0.30957E-01 13832   0.130E+00    0.166E+00
DAV:  17    -0.649789064338E+03    0.48095E-01   -0.90534E-02 13864   0.648E-01    0.103E+00
DAV:  18    -0.649750667489E+03    0.38397E-01   -0.55682E-02 13632   0.557E-01    0.797E-01
DAV:  19    -0.649712987248E+03    0.37680E-01   -0.31452E-02 13688   0.431E-01    0.628E-01
DAV:  20    -0.649600398565E+03    0.11259E+00   -0.57909E-02 12864   0.415E-01    0.682E-01
DAV:  21    -0.649533901383E+03    0.66497E-01   -0.39456E-02 14328   0.429E-01    0.682E-01
DAV:  22    -0.649499069243E+03    0.34832E-01   -0.27179E-02 13480   0.339E-01    0.686E-01
DAV:  23    -0.649451598616E+03    0.47471E-01   -0.24759E-02 12832   0.303E-01    0.428E-01
DAV:  24    -0.649422815782E+03    0.28783E-01   -0.21727E-02 13560   0.292E-01    0.380E-01
DAV:  25    -0.649412292002E+03    0.10524E-01   -0.17939E-02 13216   0.256E-01    0.308E-01
DAV:  26    -0.649422373020E+03   -0.10081E-01   -0.88873E-03 13920   0.205E-01    0.279E-01
DAV:  27    -0.649443646353E+03   -0.21273E-01   -0.92571E-03 12896   0.171E-01    0.253E-01
DAV:  28    -0.649455539041E+03   -0.11893E-01   -0.46671E-03 13704   0.138E-01    0.126E-01
DAV:  29    -0.649475209959E+03   -0.19671E-01   -0.66765E-03 12896   0.114E-01    0.119E-01
DAV:  30    -0.649482927771E+03   -0.77178E-02   -0.23761E-03 14048   0.945E-02    0.111E-01
DAV:  31    -0.649487429348E+03   -0.45016E-02   -0.10558E-03 13248   0.633E-02    0.722E-02
DAV:  32    -0.649492634502E+03   -0.52052E-02   -0.11189E-03 12840   0.475E-02    0.315E-02
DAV:  33    -0.649494330461E+03   -0.16960E-02   -0.35607E-04 13968   0.258E-02    0.243E-02
DAV:  34    -0.649495638871E+03   -0.13084E-02   -0.20659E-04 12392   0.188E-02    0.199E-02
DAV:  35    -0.649496399519E+03   -0.76065E-03   -0.11308E-04 11176   0.126E-02    0.133E-02
DAV:  36    -0.649496754651E+03   -0.35513E-03   -0.50707E-05 10824   0.815E-03    0.706E-03
DAV:  37    -0.649496958943E+03   -0.20429E-03   -0.22917E-05 10520   0.548E-03    0.392E-03
DAV:  38    -0.649497168678E+03   -0.20974E-03   -0.34914E-05  9712   0.375E-03    0.185E-03
DAV:  39    -0.649497194736E+03   -0.26057E-04   -0.28780E-06  8784   0.210E-03    0.148E-03
DAV:  40    -0.649497208397E+03   -0.13662E-04   -0.70637E-07  7744   0.141E-03    0.119E-03
DAV:  41    -0.649497220983E+03   -0.12586E-04   -0.97685E-07  8160   0.118E-03    0.706E-04
DAV:  42    -0.649497225300E+03   -0.43167E-05   -0.28751E-07  7720   0.874E-04    0.634E-04
DAV:  43    -0.649497228579E+03   -0.32790E-05   -0.30563E-07  7592   0.667E-04    0.388E-04
DAV:  44    -0.649497230707E+03   -0.21282E-05   -0.20528E-07  7352   0.584E-04    0.271E-04
DAV:  45    -0.649497231869E+03   -0.11620E-05   -0.17186E-07  7096   0.481E-04    0.200E-04
DAV:  46    -0.649497232538E+03   -0.66945E-06   -0.11058E-07  6520   0.419E-04
   1 F= -.64949723E+03 E0= -.64937387E+03  d E =-.246724E+00
