<?xml version="1.0" encoding="ISO-8859-1"?>
<modeling>
 <generator>
  <i name="program" type="string">vasp </i>
  <i name="version" type="string">6.3.2  </i>
  <i name="subversion" type="string">27Jun22 (build Mar 15 2023 15:45:48) complex                          parallel </i>
  <i name="platform" type="string">LinuxIFC </i>
  <i name="date" type="string">2025 09 05 </i>
  <i name="time" type="string">17:07:56 </i>
 </generator>
 <incar>
  <i type="string" name="SYSTEM">ni3al</i>
  <i type="int" name="ISTART">     0</i>
  <i type="string" name="PREC">Accurate</i>
  <i type="string" name="ALGO">Normal</i>
  <i name="AMIN">      0.01000000</i>
  <i type="int" name="ICHARG">     2</i>
  <i type="int" name="NELM">   150</i>
  <i type="int" name="IBRION">    -1</i>
  <i name="EDIFF">      0.00000100</i>
  <i type="int" name="NSW">     0</i>
  <i type="int" name="ISIF">     2</i>
  <i name="ENCUT">    530.00000000</i>
  <i type="string" name="LREAL">Auto</i>
  <i type="int" name="ISMEAR">     0</i>
  <i name="SIGMA">      0.10000000</i>
  <i type="int" name="LMAXMIX">     4</i>
  <i type="logical" name="LWAVE"> T  </i>
  <i type="logical" name="LCHARG"> T  </i>
 </incar>
 <primitive_cell>
  <structure name="primitive_cell" >
   <crystal>
    <varray name="basis" >
     <v>       9.49839973       0.00000000       0.00000000 </v>
     <v>       0.00000000       9.49839973       0.00000000 </v>
     <v>       0.00000000       0.00000000      24.50289917 </v>
    </varray>
    <i name="volume">   2210.64170109 </i>
    <varray name="rec_basis" >
     <v>       0.10528089       0.00000000       0.00000000 </v>
     <v>       0.00000000       0.10528089       0.00000000 </v>
     <v>       0.00000000       0.00000000       0.04081150 </v>
    </varray>
   </crystal>
   <varray name="positions" >
    <v>       0.00000000       0.00000000       0.00000000 </v>
    <v>       0.98776334       0.98426798       0.38282674 </v>
    <v>       0.16667000       0.16667000       0.06464000 </v>
    <v>       0.33333000       0.00000000       0.00000000 </v>
    <v>       0.33267472       0.00303599       0.37958259 </v>
    <v>       0.50000000       0.16667000       0.06464000 </v>
    <v>       0.66667000       0.00000000       0.00000000 </v>
    <v>       0.68363848       0.00530160       0.38150678 </v>
    <v>       0.83333000       0.16667000       0.06464000 </v>
    <v>       0.00000000       0.33333000       0.00000000 </v>
    <v>       0.16667000       0.50000000       0.06464000 </v>
    <v>       0.33333000       0.33333000       0.00000000 </v>
    <v>       0.50000000       0.50000000       0.06464000 </v>
    <v>       0.66667000       0.33333000       0.00000000 </v>
    <v>       0.83333000       0.50000000       0.06464000 </v>
    <v>       0.00000000       0.66667000       0.00000000 </v>
    <v>       0.00076358       0.68721792       0.38187749 </v>
    <v>       0.16667000       0.83333000       0.06464000 </v>
    <v>       0.33333000       0.66667000       0.00000000 </v>
    <v>       0.50000000       0.83333000       0.06464000 </v>
    <v>       0.66667000       0.66667000       0.00000000 </v>
    <v>       0.67372575       0.66895550       0.38315481 </v>
    <v>       0.83333000       0.83333000       0.06464000 </v>
    <v>       0.00000000       0.00000000       0.12928000 </v>
    <v>       0.16667000       0.16667000       0.19391000 </v>
    <v>       0.33333000       0.00000000       0.12928000 </v>
    <v>       0.50000000       0.16667000       0.19391000 </v>
    <v>       0.66667000       0.00000000       0.12928000 </v>
    <v>       0.83333000       0.16667000       0.19391000 </v>
    <v>       0.00000000       0.33333000       0.12928000 </v>
    <v>       0.16667000       0.50000000       0.19391000 </v>
    <v>       0.33333000       0.33333000       0.12928000 </v>
    <v>       0.50000000       0.50000000       0.19391000 </v>
    <v>       0.66667000       0.33333000       0.12928000 </v>
    <v>       0.83333000       0.50000000       0.19391000 </v>
    <v>       0.00000000       0.66667000       0.12928000 </v>
    <v>       0.16667000       0.83333000       0.19391000 </v>
    <v>       0.33333000       0.66667000       0.12928000 </v>
    <v>       0.50000000       0.83333000       0.19391000 </v>
    <v>       0.66667000       0.66667000       0.12928000 </v>
    <v>       0.83333000       0.83333000       0.19391000 </v>
    <v>       0.00000000       0.00000000       0.25855000 </v>
    <v>       0.16643962       0.16672480       0.32473393 </v>
    <v>       0.33333000       0.00000000       0.25855000 </v>
    <v>       0.49928972       0.16568780       0.32371993 </v>
    <v>       0.66667000       0.00000000       0.25855000 </v>
    <v>       0.83403838       0.16903971       0.32414627 </v>
    <v>       0.00000000       0.33333000       0.25855000 </v>
    <v>       0.16590622       0.49934286       0.32364385 </v>
    <v>       0.33333000       0.33333000       0.25855000 </v>
    <v>       0.49914595       0.49928910       0.32017626 </v>
    <v>       0.66667000       0.33333000       0.25855000 </v>
    <v>       0.83284062       0.50002296       0.32474974 </v>
    <v>       0.00000000       0.66667000       0.25855000 </v>
    <v>       0.16905108       0.83410788       0.32383535 </v>
    <v>       0.33333000       0.66667000       0.25855000 </v>
    <v>       0.50019483       0.83275230       0.32475979 </v>
    <v>       0.66667000       0.66667000       0.25855000 </v>
    <v>       0.83293452       0.83405423       0.32201160 </v>
    <v>       0.00452595       0.33364015       0.37954653 </v>
    <v>       0.64894031       0.34119214       0.38624941 </v>
    <v>       0.34193167       0.65046606       0.38629642 </v>
    <v>       0.51759285       0.51815069       0.40848110 </v>
   </varray>
  </structure>
  <varray name="primitive_index" >
   <v type="int" >        1 </v>
   <v type="int" >        2 </v>
   <v type="int" >        3 </v>
   <v type="int" >        4 </v>
   <v type="int" >        5 </v>
   <v type="int" >        6 </v>
   <v type="int" >        7 </v>
   <v type="int" >        8 </v>
   <v type="int" >        9 </v>
   <v type="int" >       10 </v>
   <v type="int" >       11 </v>
   <v type="int" >       12 </v>
   <v type="int" >       13 </v>
   <v type="int" >       14 </v>
   <v type="int" >       15 </v>
   <v type="int" >       16 </v>
   <v type="int" >       17 </v>
   <v type="int" >       18 </v>
   <v type="int" >       19 </v>
   <v type="int" >       20 </v>
   <v type="int" >       21 </v>
   <v type="int" >       22 </v>
   <v type="int" >       23 </v>
   <v type="int" >       24 </v>
   <v type="int" >       25 </v>
   <v type="int" >       26 </v>
   <v type="int" >       27 </v>
   <v type="int" >       28 </v>
   <v type="int" >       29 </v>
   <v type="int" >       30 </v>
   <v type="int" >       31 </v>
   <v type="int" >       32 </v>
   <v type="int" >       33 </v>
   <v type="int" >       34 </v>
   <v type="int" >       35 </v>
   <v type="int" >       36 </v>
   <v type="int" >       37 </v>
   <v type="int" >       38 </v>
   <v type="int" >       39 </v>
   <v type="int" >       40 </v>
   <v type="int" >       41 </v>
   <v type="int" >       42 </v>
   <v type="int" >       43 </v>
   <v type="int" >       44 </v>
   <v type="int" >       45 </v>
   <v type="int" >       46 </v>
   <v type="int" >       47 </v>
   <v type="int" >       48 </v>
   <v type="int" >       49 </v>
   <v type="int" >       50 </v>
   <v type="int" >       51 </v>
   <v type="int" >       52 </v>
   <v type="int" >       53 </v>
   <v type="int" >       54 </v>
   <v type="int" >       55 </v>
   <v type="int" >       56 </v>
   <v type="int" >       57 </v>
   <v type="int" >       58 </v>
   <v type="int" >       59 </v>
   <v type="int" >       60 </v>
   <v type="int" >       61 </v>
   <v type="int" >       62 </v>
   <v type="int" >       63 </v>
  </varray>
 </primitive_cell>
 <kpoints>
  <generation param="Gamma">
   <v type="int" name="divisions">       4        4        1 </v>
   <v name="usershift">      0.00000000       0.00000000       0.00000000 </v>
   <v name="genvec1">      0.25000000       0.00000000       0.00000000 </v>
   <v name="genvec2">      0.00000000       0.25000000       0.00000000 </v>
   <v name="genvec3">      0.00000000       0.00000000       1.00000000 </v>
   <v name="shift">      0.00000000       0.00000000       0.00000000 </v>
  </generation>
  <varray name="kpointlist" >
   <v>       0.00000000       0.00000000       0.00000000 </v>
   <v>       0.25000000       0.00000000       0.00000000 </v>
   <v>       0.00000000       0.25000000       0.00000000 </v>
   <v>       0.50000000       0.00000000       0.00000000 </v>
   <v>       0.00000000       0.50000000       0.00000000 </v>
   <v>       0.25000000       0.25000000       0.00000000 </v>
   <v>      -0.25000000       0.25000000       0.00000000 </v>
   <v>       0.50000000       0.25000000       0.00000000 </v>
   <v>      -0.25000000       0.50000000       0.00000000 </v>
   <v>       0.50000000       0.50000000       0.00000000 </v>
  </varray>
  <varray name="weights" >
   <v>       0.06250000 </v>
   <v>       0.12500000 </v>
   <v>       0.12500000 </v>
   <v>       0.06250000 </v>
   <v>       0.06250000 </v>
   <v>       0.12500000 </v>
   <v>       0.12500000 </v>
   <v>       0.12500000 </v>
   <v>       0.12500000 </v>
   <v>       0.06250000 </v>
  </varray>
 </kpoints>
 <parameters>
  <separator name="general" >
   <i type="string" name="SYSTEM">ni3al</i>
   <i type="logical" name="LCOMPAT"> F  </i>
  </separator>
  <separator name="electronic" >
   <i type="string" name="PREC">accura</i>
   <i name="ENMAX">    530.00000000</i>
   <i name="ENAUG">    605.39200000</i>
   <i name="EDIFF">      0.00000100</i>
   <i type="int" name="IALGO">    38</i>
   <i type="int" name="IWAVPR">    10</i>
   <i type="int" name="NBANDS">   523</i>
   <i type="int" name="NBANDSLOW">    -1</i>
   <i type="int" name="NBANDSHIGH">    -1</i>
   <i name="NELECT">    872.00000000</i>
   <i type="int" name="TURBO">     0</i>
   <i type="int" name="IRESTART">     0</i>
   <i type="int" name="NREBOOT">     0</i>
   <i type="int" name="NMIN">     0</i>
   <i name="EREF">      0.00000000</i>
   <separator name="electronic smearing" >
    <i type="int" name="ISMEAR">     0</i>
    <i name="SIGMA">      0.10000000</i>
    <i name="KSPACING">      0.50000000</i>
    <i type="logical" name="KGAMMA"> T  </i>
    <i type="logical" name="KBLOWUP"> T  </i>
   </separator>
   <separator name="electronic projectors" >
    <i type="logical" name="LREAL"> T  </i>
    <v name="ROPT">     -0.00025000     -0.00025000     -0.00025000</v>
    <i type="int" name="LMAXPAW">  -100</i>
    <i type="int" name="LMAXMIX">     4</i>
    <i type="logical" name="NLSPLINE"> F  </i>
   </separator>
   <separator name="electronic startup" >
    <i type="int" name="ISTART">     0</i>
    <i type="int" name="ICHARG">     2</i>
    <i type="int" name="INIWAV">     1</i>
   </separator>
   <separator name="electronic spin" >
    <i type="int" name="ISPIN">     1</i>
    <i type="logical" name="LNONCOLLINEAR"> F  </i>
    <v name="MAGMOM">      1.00000000      1.00000000      1.00000000      1.00000000      1.00000000      1.00000000      1.00000000      1.00000000      1.00000000      1.00000000      1.00000000      1.00000000      1.00000000      1.00000000      1.00000000      1.00000000      1.00000000      1.00000000      1.00000000      1.00000000
      1.00000000      1.00000000      1.00000000      1.00000000      1.00000000      1.00000000      1.00000000      1.00000000      1.00000000      1.00000000      1.00000000      1.00000000      1.00000000      1.00000000      1.00000000      1.00000000      1.00000000      1.00000000      1.00000000      1.00000000
      1.00000000      1.00000000      1.00000000      1.00000000      1.00000000      1.00000000      1.00000000      1.00000000      1.00000000      1.00000000      1.00000000      1.00000000      1.00000000      1.00000000      1.00000000      1.00000000      1.00000000      1.00000000      1.00000000      1.00000000
      1.00000000      1.00000000      1.00000000</v>
    <i name="NUPDOWN">     -1.00000000</i>
    <i type="logical" name="LSORBIT"> F  </i>
    <v name="SAXIS">      0.00000000      0.00000000      1.00000000</v>
    <i type="logical" name="LSPIRAL"> F  </i>
    <v name="QSPIRAL">      0.00000000      0.00000000      0.00000000</v>
    <i type="logical" name="LZEROZ"> F  </i>
   </separator>
   <separator name="electronic exchange-correlation" >
    <i type="logical" name="LASPH"> F  </i>
    <i type="logical" name="LMETAGGA"> F  </i>
   </separator>
   <separator name="electronic convergence" >
    <i type="int" name="NELM">   150</i>
    <i type="int" name="NELMDL">    -5</i>
    <i type="int" name="NELMIN">     2</i>
    <i name="ENINI">    530.00000000</i>
    <separator name="electronic convergence detail" >
     <i type="logical" name="LDIAG"> T  </i>
     <i type="logical" name="LSUBROT"> F  </i>
     <i name="WEIMIN">      0.00000000</i>
     <i name="EBREAK">      0.00000000</i>
     <i name="DEPER">      0.30000000</i>
     <i type="int" name="NRMM">     4</i>
     <i name="TIME">      0.40000000</i>
    </separator>
   </separator>
   <separator name="electronic mixer" >
    <i name="AMIX">      0.40000000</i>
    <i name="BMIX">      1.00000000</i>
    <i name="AMIN">      0.01000000</i>
    <i name="AMIX_MAG">      1.60000000</i>
    <i name="BMIX_MAG">      1.00000000</i>
    <separator name="electronic mixer details" >
     <i type="int" name="IMIX">     4</i>
     <i type="logical" name="MIXFIRST"> F  </i>
     <i type="int" name="MAXMIX">   -45</i>
     <i name="WC">    100.00000000</i>
     <i type="int" name="INIMIX">     1</i>
     <i type="int" name="MIXPRE">     1</i>
     <i type="int" name="MREMOVE">     5</i>
    </separator>
   </separator>
   <separator name="electronic dipolcorrection" >
    <i type="logical" name="LDIPOL"> F  </i>
    <i type="logical" name="LMONO"> F  </i>
    <i type="int" name="IDIPOL">     0</i>
    <i name="EPSILON">      1.00000000</i>
    <v name="DIPOL">   -100.00000000   -100.00000000   -100.00000000</v>
    <i name="EFIELD">      0.00000000</i>
   </separator>
  </separator>
  <separator name="grids" >
   <i type="int" name="NGX">    72</i>
   <i type="int" name="NGY">    72</i>
   <i type="int" name="NGZ">   192</i>
   <i type="int" name="NGXF">   144</i>
   <i type="int" name="NGYF">   144</i>
   <i type="int" name="NGZF">   384</i>
   <i type="logical" name="ADDGRID"> F  </i>
  </separator>
  <separator name="ionic" >
   <i type="int" name="NSW">     0</i>
   <i type="int" name="IBRION">    -1</i>
   <i type="int" name="MDALGO">     0</i>
   <i type="int" name="ISIF">     2</i>
   <i name="PSTRESS">      0.00000000</i>
   <i name="EDIFFG">      0.00001000</i>
   <i type="int" name="NFREE">     0</i>
   <i name="POTIM">      0.50000000</i>
   <i name="SMASS">     -3.00000000</i>
   <i name="SCALEE">      1.00000000</i>
  </separator>
  <separator name="ionic md" >
   <i name="TEBEG">      0.00010000</i>
   <i name="TEEND">      0.00010000</i>
   <i type="int" name="NBLOCK">     1</i>
   <i type="int" name="KBLOCK">     1</i>
   <i type="int" name="NPACO">   256</i>
   <i name="APACO">     10.00000000</i>
  </separator>
  <separator name="symmetry" >
   <i type="int" name="ISYM">     2</i>
   <i name="SYMPREC">      0.00001000</i>
  </separator>
  <separator name="dos" >
   <i type="int" name="LORBIT">     0</i>
   <v name="RWIGS">     -1.00000000     -1.00000000     -1.00000000</v>
   <i type="int" name="NEDOS">   301</i>
   <i name="EMIN">     10.00000000</i>
   <i name="EMAX">    -10.00000000</i>
   <i name="EFERMI">      0.00000000</i>
  </separator>
  <separator name="writing" >
   <i type="int" name="NWRITE">     2</i>
   <i type="logical" name="LWAVE"> T  </i>
   <i type="logical" name="LDOWNSAMPLE"> F  </i>
   <i type="logical" name="LCHARG"> T  </i>
   <i type="logical" name="LPARD"> F  </i>
   <i type="logical" name="LVTOT"> F  </i>
   <i type="logical" name="LVHAR"> F  </i>
   <i type="logical" name="LELF"> F  </i>
   <i type="logical" name="LOPTICS"> F  </i>
   <v name="STM">      0.00000000      0.00000000      0.00000000      0.00000000      0.00000000      0.00000000      0.00000000</v>
  </separator>
  <separator name="performance" >
   <i type="int" name="NPAR">     1</i>
   <i type="int" name="NSIM">     4</i>
   <i type="int" name="NBLK">    -1</i>
   <i type="logical" name="LPLANE"> T  </i>
   <i type="logical" name="LSCALAPACK"> T  </i>
   <i type="logical" name="LSCAAWARE"> F  </i>
   <i type="logical" name="LSCALU"> F  </i>
   <i type="logical" name="LASYNC"> F  </i>
   <i type="logical" name="LORBITALREAL"> F  </i>
  </separator>
  <separator name="miscellaneous" >
   <i type="int" name="IDIOT">     3</i>
   <i type="int" name="PHON_NSTRUCT">    -1</i>
   <i type="logical" name="LMUSIC"> F  </i>
   <v name="POMASS">     95.94000000     92.91000000     16.00000000</v>
   <v name="DARWINR">      0.00000000      0.00000000      0.00000000</v>
   <v name="DARWINV">      1.00000000      1.00000000      1.00000000</v>
   <i type="logical" name="LCORR"> T  </i>
  </separator>
  <i type="logical" name="GGA_COMPAT"> T  </i>
  <i type="logical" name="LBERRY"> F  </i>
  <i type="int" name="ICORELEVEL">     0</i>
  <i type="logical" name="LDAU"> F  </i>
  <i type="int" name="I_CONSTRAINED_M">     0</i>
  <separator name="electronic exchange-correlation" >
   <i type="string" name="GGA">--</i>
   <i type="int" name="VOSKOWN">     0</i>
   <i type="logical" name="LHFCALC"> F  </i>
   <i type="string" name="PRECFOCK"></i>
   <i type="logical" name="LSYMGRAD"> F  </i>
   <i type="logical" name="LHFONE"> F  </i>
   <i type="logical" name="LRHFCALC"> F  </i>
   <i type="logical" name="LTHOMAS"> F  </i>
   <i type="logical" name="LMODELHF"> F  </i>
   <i type="logical" name="LFOCKACE"> F  </i>
   <i name="ENCUT4O">     -1.00000000</i>
   <i type="int" name="EXXOEP">     0</i>
   <i type="int" name="FOURORBIT">     0</i>
   <i name="AEXX">      0.00000000</i>
   <i name="HFALPHA">      0.00000000</i>
   <i name="MCALPHA">      0.00000000</i>
   <i name="ALDAX">      1.00000000</i>
   <i name="AGGAX">      1.00000000</i>
   <i name="ALDAC">      1.00000000</i>
   <i name="AGGAC">      1.00000000</i>
   <i type="int" name="NKREDX">     1</i>
   <i type="int" name="NKREDY">     1</i>
   <i type="int" name="NKREDZ">     1</i>
   <i type="logical" name="SHIFTRED"> F  </i>
   <i type="logical" name="ODDONLY"> F  </i>
   <i type="logical" name="EVENONLY"> F  </i>
   <i type="int" name="LMAXFOCK">     0</i>
   <i type="int" name="NMAXFOCKAE">     0</i>
   <i type="logical" name="LFOCKAEDFT"> F  </i>
   <i name="HFSCREEN">      0.00000000</i>
   <i name="HFSCREENC">      0.00000000</i>
   <i type="int" name="NBANDSGWLOW">     0</i>
  </separator>
  <separator name="vdW DFT" >
   <i type="logical" name="LUSE_VDW"> F  </i>
   <i name="Zab_VDW">     -0.84910000</i>
   <i name="PARAM1">      0.12340000</i>
   <i name="PARAM2">      1.00000000</i>
   <i name="PARAM3">      0.00000000</i>
  </separator>
  <separator name="model GW" >
   <i type="int" name="MODEL_GW">     0</i>
   <i name="MODEL_EPS0">     21.05373049</i>
   <i name="MODEL_ALPHA">      1.00000000</i>
  </separator>
  <separator name="linear response parameters" >
   <i type="logical" name="LEPSILON"> F  </i>
   <i type="logical" name="LRPA"> F  </i>
   <i type="logical" name="LNABLA"> F  </i>
   <i type="logical" name="LVEL"> F  </i>
   <i name="CSHIFT">      0.10000000</i>
   <i name="OMEGAMAX">     -1.00000000</i>
   <i name="DEG_THRESHOLD">      0.00200000</i>
   <i name="RTIME">     -0.10000000</i>
   <i name="WPLASMAI">      0.00000000</i>
   <v name="DFIELD">      0.00000000      0.00000000      0.00000000</v>
   <v name="WPLASMA">      0.00000000      0.00000000      0.00000000      0.00000000      0.00000000      0.00000000      0.00000000      0.00000000      0.00000000</v>
  </separator>
  <separator name="orbital magnetization" >
   <i type="logical" name="NUCIND"> F  </i>
   <v name="MAGPOS">      0.00000000      0.00000000      0.00000000</v>
   <i type="logical" name="LNICSALL"> T  </i>
   <i type="logical" name="ORBITALMAG"> F  </i>
   <i type="logical" name="LMAGBLOCH"> F  </i>
   <i type="logical" name="LCHIMAG"> F  </i>
   <i type="logical" name="LGAUGE"> T  </i>
   <i type="int" name="MAGATOM">     0</i>
   <v name="MAGDIPOL">      0.00000000      0.00000000      0.00000000</v>
   <v name="AVECCONST">      0.00000000      0.00000000      0.00000000</v>
  </separator>
  <separator name="response functions" >
   <i type="logical" name="LFINITE_TEMPERATURE"> F  </i>
   <i type="logical" name="LADDER"> F  </i>
   <i type="logical" name="LRPAFORCE"> F  </i>
   <i type="logical" name="LFXC"> F  </i>
   <i type="logical" name="LHARTREE"> T  </i>
   <i type="int" name="IBSE">     0</i>
   <v type="int" name="KPOINT">    -1     0     0     0</v>
   <i type="logical" name="LTCTC"> F  </i>
   <i type="logical" name="LTCTE"> F  </i>
   <i type="logical" name="LTETE"> F  </i>
   <i type="logical" name="LTRIPLET"> F  </i>
   <i type="logical" name="LFXCEPS"> F  </i>
   <i type="logical" name="LFXHEG"> F  </i>
   <i type="int" name="NATURALO">     2</i>
   <i type="logical" name="LHOLEGF"> F  </i>
   <i type="logical" name="L2ORDER"> F  </i>
   <i type="logical" name="LDMP1"> F  </i>
   <i type="logical" name="LMP2LT"> F  </i>
   <i type="logical" name="LSMP2LT"> F  </i>
   <i type="logical" name="LGWLF"> F  </i>
   <i name="ENCUTGW">     -2.00000000</i>
   <i name="ENCUTGWSOFT">     -2.00000000</i>
   <i name="ENCUTLF">     -1.00000000</i>
   <i type="logical" name="LESF_SPLINES"> F  </i>
   <i type="int" name="LMAXMP2">    -1</i>
   <i name="SCISSOR">      0.00000000</i>
   <i type="int" name="NOMEGA">     0</i>
   <i type="int" name="NOMEGAR">     0</i>
   <i type="int" name="NBANDSGW">    -1</i>
   <i type="int" name="NBANDSO">    -1</i>
   <i type="int" name="NBANDSV">    -1</i>
   <i type="int" name="NELMGW">     1</i>
   <i type="int" name="NELMHF">     1</i>
   <i type="int" name="DIM">     3</i>
   <i type="int" name="IESPILON">     4</i>
   <i type="int" name="ANTIRES">     0</i>
   <i name="OMEGAMAX">    -30.00000000</i>
   <i name="OMEGAMIN">    -30.00000000</i>
   <i name="OMEGATL">   -200.00000000</i>
   <i type="int" name="OMEGAGRID">     0</i>
   <i name="CSHIFT">     -0.10000000</i>
   <i type="logical" name="LSELFENERGY"> F  </i>
   <i type="logical" name="LSPECTRAL"> F  </i>
   <i type="logical" name="LSPECTRALGW"> F  </i>
   <i type="logical" name="LSINGLES"> F  </i>
   <i type="logical" name="LFERMIGW"> F  </i>
   <i type="logical" name="ODDONLYGW"> F  </i>
   <i type="logical" name="EVENONLYGW"> F  </i>
   <i type="int" name="NKREDLFX">     1</i>
   <i type="int" name="NKREDLFY">     1</i>
   <i type="int" name="NKREDLFZ">     1</i>
   <i type="int" name="MAXMEM">  2800</i>
   <i type="int" name="TELESCOPE">     0</i>
   <i type="int" name="NTAUPAR">    -1</i>
   <i type="int" name="NOMEGAPAR">    -1</i>
   <i name="DAMP_NEWTON">      0.80000001</i>
   <i name="LAMBDA">      1.00000000</i>
  </separator>
  <separator name="External order field" >
   <i name="OFIELD_KAPPA">      0.00000000</i>
   <v name="OFIELD_K">      0.00000000      0.00000000      0.00000000</v>
   <i name="OFIELD_Q6_NEAR">      0.00000000</i>
   <i name="OFIELD_Q6_FAR">      0.00000000</i>
   <i name="OFIELD_A">      0.00000000</i>
  </separator>
  <separator name="optional k-points parameters" >
   <i type="int" name="KPOINTS_OPT_MODE">     1</i>
   <i type="logical" name="LKPOINTS_OPT"> F  </i>
  </separator>
  <separator name="solvation model" >
   <i type="logical" name="LSOL"> F  </i>
  </separator>
 </parameters>
 <atominfo>
  <atoms>      63 </atoms>
  <types>       3 </types>
  <array name="atoms" >
   <dimension dim="1">ion</dimension>
   <field type="string">element</field>
   <field type="int">atomtype</field>
   <set>
    <rc><c>Mo</c><c>   1</c></rc>
    <rc><c>Mo</c><c>   1</c></rc>
    <rc><c>Mo</c><c>   1</c></rc>
    <rc><c>Mo</c><c>   1</c></rc>
    <rc><c>Mo</c><c>   1</c></rc>
    <rc><c>Mo</c><c>   1</c></rc>
    <rc><c>Mo</c><c>   1</c></rc>
    <rc><c>Mo</c><c>   1</c></rc>
    <rc><c>Mo</c><c>   1</c></rc>
    <rc><c>Mo</c><c>   1</c></rc>
    <rc><c>Mo</c><c>   1</c></rc>
    <rc><c>Mo</c><c>   1</c></rc>
    <rc><c>Mo</c><c>   1</c></rc>
    <rc><c>Mo</c><c>   1</c></rc>
    <rc><c>Mo</c><c>   1</c></rc>
    <rc><c>Mo</c><c>   1</c></rc>
    <rc><c>Mo</c><c>   1</c></rc>
    <rc><c>Mo</c><c>   1</c></rc>
    <rc><c>Mo</c><c>   1</c></rc>
    <rc><c>Mo</c><c>   1</c></rc>
    <rc><c>Mo</c><c>   1</c></rc>
    <rc><c>Mo</c><c>   1</c></rc>
    <rc><c>Mo</c><c>   1</c></rc>
    <rc><c>Mo</c><c>   1</c></rc>
    <rc><c>Mo</c><c>   1</c></rc>
    <rc><c>Mo</c><c>   1</c></rc>
    <rc><c>Mo</c><c>   1</c></rc>
    <rc><c>Mo</c><c>   1</c></rc>
    <rc><c>Mo</c><c>   1</c></rc>
    <rc><c>Mo</c><c>   1</c></rc>
    <rc><c>Mo</c><c>   1</c></rc>
    <rc><c>Mo</c><c>   1</c></rc>
    <rc><c>Mo</c><c>   1</c></rc>
    <rc><c>Mo</c><c>   1</c></rc>
    <rc><c>Mo</c><c>   1</c></rc>
    <rc><c>Mo</c><c>   1</c></rc>
    <rc><c>Mo</c><c>   1</c></rc>
    <rc><c>Mo</c><c>   1</c></rc>
    <rc><c>Mo</c><c>   1</c></rc>
    <rc><c>Mo</c><c>   1</c></rc>
    <rc><c>Mo</c><c>   1</c></rc>
    <rc><c>Mo</c><c>   1</c></rc>
    <rc><c>Mo</c><c>   1</c></rc>
    <rc><c>Mo</c><c>   1</c></rc>
    <rc><c>Mo</c><c>   1</c></rc>
    <rc><c>Mo</c><c>   1</c></rc>
    <rc><c>Mo</c><c>   1</c></rc>
    <rc><c>Mo</c><c>   1</c></rc>
    <rc><c>Mo</c><c>   1</c></rc>
    <rc><c>Mo</c><c>   1</c></rc>
    <rc><c>Mo</c><c>   1</c></rc>
    <rc><c>Mo</c><c>   1</c></rc>
    <rc><c>Mo</c><c>   1</c></rc>
    <rc><c>Mo</c><c>   1</c></rc>
    <rc><c>Mo</c><c>   1</c></rc>
    <rc><c>Mo</c><c>   1</c></rc>
    <rc><c>Mo</c><c>   1</c></rc>
    <rc><c>Mo</c><c>   1</c></rc>
    <rc><c>Mo</c><c>   1</c></rc>
    <rc><c>Mo</c><c>   1</c></rc>
    <rc><c>Nb</c><c>   2</c></rc>
    <rc><c>Nb</c><c>   2</c></rc>
    <rc><c>O </c><c>   3</c></rc>
   </set>
  </array>
  <array name="atomtypes" >
   <dimension dim="1">type</dimension>
   <field type="int">atomspertype</field>
   <field type="string">element</field>
   <field>mass</field>
   <field>valence</field>
   <field type="string">pseudopotential</field>
   <set>
    <rc><c>  60</c><c>Mo</c><c>     95.94000000</c><c>     14.00000000</c><c>  PAW_PBE Mo_sv 02Feb2006               </c></rc>
    <rc><c>   2</c><c>Nb</c><c>     92.91000000</c><c>     13.00000000</c><c>  PAW_PBE Nb_sv 25May2007               </c></rc>
    <rc><c>   1</c><c>O </c><c>     16.00000000</c><c>      6.00000000</c><c>  PAW_PBE O 08Apr2002                   </c></rc>
   </set>
  </array>
 </atominfo>
 <structure name="initialpos" >
  <crystal>
   <varray name="basis" >
    <v>       9.49839973       0.00000000       0.00000000 </v>
    <v>       0.00000000       9.49839973       0.00000000 </v>
    <v>       0.00000000       0.00000000      24.50289917 </v>
   </varray>
   <i name="volume">   2210.64170109 </i>
   <varray name="rec_basis" >
    <v>       0.10528089       0.00000000       0.00000000 </v>
    <v>       0.00000000       0.10528089       0.00000000 </v>
    <v>       0.00000000       0.00000000       0.04081150 </v>
   </varray>
  </crystal>
  <varray name="positions" >
   <v>       0.00000000       0.00000000       0.00000000 </v>
   <v>       0.98776334       0.98426798       0.38282674 </v>
   <v>       0.16667000       0.16667000       0.06464000 </v>
   <v>       0.33333000       0.00000000       0.00000000 </v>
   <v>       0.33267472       0.00303599       0.37958259 </v>
   <v>       0.50000000       0.16667000       0.06464000 </v>
   <v>       0.66667000       0.00000000       0.00000000 </v>
   <v>       0.68363848       0.00530160       0.38150678 </v>
   <v>       0.83333000       0.16667000       0.06464000 </v>
   <v>       0.00000000       0.33333000       0.00000000 </v>
   <v>       0.16667000       0.50000000       0.06464000 </v>
   <v>       0.33333000       0.33333000       0.00000000 </v>
   <v>       0.50000000       0.50000000       0.06464000 </v>
   <v>       0.66667000       0.33333000       0.00000000 </v>
   <v>       0.83333000       0.50000000       0.06464000 </v>
   <v>       0.00000000       0.66667000       0.00000000 </v>
   <v>       0.00076358       0.68721792       0.38187749 </v>
   <v>       0.16667000       0.83333000       0.06464000 </v>
   <v>       0.33333000       0.66667000       0.00000000 </v>
   <v>       0.50000000       0.83333000       0.06464000 </v>
   <v>       0.66667000       0.66667000       0.00000000 </v>
   <v>       0.67372575       0.66895550       0.38315481 </v>
   <v>       0.83333000       0.83333000       0.06464000 </v>
   <v>       0.00000000       0.00000000       0.12928000 </v>
   <v>       0.16667000       0.16667000       0.19391000 </v>
   <v>       0.33333000       0.00000000       0.12928000 </v>
   <v>       0.50000000       0.16667000       0.19391000 </v>
   <v>       0.66667000       0.00000000       0.12928000 </v>
   <v>       0.83333000       0.16667000       0.19391000 </v>
   <v>       0.00000000       0.33333000       0.12928000 </v>
   <v>       0.16667000       0.50000000       0.19391000 </v>
   <v>       0.33333000       0.33333000       0.12928000 </v>
   <v>       0.50000000       0.50000000       0.19391000 </v>
   <v>       0.66667000       0.33333000       0.12928000 </v>
   <v>       0.83333000       0.50000000       0.19391000 </v>
   <v>       0.00000000       0.66667000       0.12928000 </v>
   <v>       0.16667000       0.83333000       0.19391000 </v>
   <v>       0.33333000       0.66667000       0.12928000 </v>
   <v>       0.50000000       0.83333000       0.19391000 </v>
   <v>       0.66667000       0.66667000       0.12928000 </v>
   <v>       0.83333000       0.83333000       0.19391000 </v>
   <v>       0.00000000       0.00000000       0.25855000 </v>
   <v>       0.16643962       0.16672480       0.32473393 </v>
   <v>       0.33333000       0.00000000       0.25855000 </v>
   <v>       0.49928972       0.16568780       0.32371993 </v>
   <v>       0.66667000       0.00000000       0.25855000 </v>
   <v>       0.83403838       0.16903971       0.32414627 </v>
   <v>       0.00000000       0.33333000       0.25855000 </v>
   <v>       0.16590622       0.49934286       0.32364385 </v>
   <v>       0.33333000       0.33333000       0.25855000 </v>
   <v>       0.49914595       0.49928910       0.32017626 </v>
   <v>       0.66667000       0.33333000       0.25855000 </v>
   <v>       0.83284062       0.50002296       0.32474974 </v>
   <v>       0.00000000       0.66667000       0.25855000 </v>
   <v>       0.16905108       0.83410788       0.32383535 </v>
   <v>       0.33333000       0.66667000       0.25855000 </v>
   <v>       0.50019483       0.83275230       0.32475979 </v>
   <v>       0.66667000       0.66667000       0.25855000 </v>
   <v>       0.83293452       0.83405423       0.32201160 </v>
   <v>       0.00452595       0.33364015       0.37954653 </v>
   <v>       0.64894031       0.34119214       0.38624941 </v>
   <v>       0.34193167       0.65046606       0.38629642 </v>
   <v>       0.51759285       0.51815069       0.40848110 </v>
  </varray>
  <varray name="selective"  type="logical" >
   <v type="logical" >  F  F  F </v>
   <v type="logical" >  T  T  T </v>
   <v type="logical" >  F  F  F </v>
   <v type="logical" >  F  F  F </v>
   <v type="logical" >  T  T  T </v>
   <v type="logical" >  F  F  F </v>
   <v type="logical" >  F  F  F </v>
   <v type="logical" >  T  T  T </v>
   <v type="logical" >  F  F  F </v>
   <v type="logical" >  F  F  F </v>
   <v type="logical" >  F  F  F </v>
   <v type="logical" >  F  F  F </v>
   <v type="logical" >  F  F  F </v>
   <v type="logical" >  F  F  F </v>
   <v type="logical" >  F  F  F </v>
   <v type="logical" >  F  F  F </v>
   <v type="logical" >  T  T  T </v>
   <v type="logical" >  F  F  F </v>
   <v type="logical" >  F  F  F </v>
   <v type="logical" >  F  F  F </v>
   <v type="logical" >  F  F  F </v>
   <v type="logical" >  T  T  T </v>
   <v type="logical" >  F  F  F </v>
   <v type="logical" >  F  F  F </v>
   <v type="logical" >  F  F  F </v>
   <v type="logical" >  F  F  F </v>
   <v type="logical" >  F  F  F </v>
   <v type="logical" >  F  F  F </v>
   <v type="logical" >  F  F  F </v>
   <v type="logical" >  F  F  F </v>
   <v type="logical" >  F  F  F </v>
   <v type="logical" >  F  F  F </v>
   <v type="logical" >  F  F  F </v>
   <v type="logical" >  F  F  F </v>
   <v type="logical" >  F  F  F </v>
   <v type="logical" >  F  F  F </v>
   <v type="logical" >  F  F  F </v>
   <v type="logical" >  F  F  F </v>
   <v type="logical" >  F  F  F </v>
   <v type="logical" >  F  F  F </v>
   <v type="logical" >  F  F  F </v>
   <v type="logical" >  F  F  F </v>
   <v type="logical" >  T  T  T </v>
   <v type="logical" >  F  F  F </v>
   <v type="logical" >  T  T  T </v>
   <v type="logical" >  F  F  F </v>
   <v type="logical" >  T  T  T </v>
   <v type="logical" >  F  F  F </v>
   <v type="logical" >  T  T  T </v>
   <v type="logical" >  F  F  F </v>
   <v type="logical" >  T  T  T </v>
   <v type="logical" >  F  F  F </v>
   <v type="logical" >  T  T  T </v>
   <v type="logical" >  F  F  F </v>
   <v type="logical" >  T  T  T </v>
   <v type="logical" >  F  F  F </v>
   <v type="logical" >  T  T  T </v>
   <v type="logical" >  F  F  F </v>
   <v type="logical" >  T  T  T </v>
   <v type="logical" >  T  T  T </v>
   <v type="logical" >  T  T  T </v>
   <v type="logical" >  T  T  T </v>
   <v type="logical" >  T  T  T </v>
  </varray>
  <nose>
   <v>      -3.00000000       0.00000000       0.00010000       0.00010000 </v>
  </nose>
 </structure>
 <calculation>
  <scstep>
   <time name="dav">  148.64   21.36</time>
   <time name="total">  160.09   23.27</time>
   <energy>
    <i name="alphaZ">   3214.99793029 </i>
    <i name="ewald"> 385706.28691679 </i>
    <i name="hartreedc">-491153.88665689 </i>
    <i name="XCdc">   4120.82530378 </i>
    <i name="pawpsdc">  92683.38685012 </i>
    <i name="pawaedc"> -91537.99175274 </i>
    <i name="eentropy">     -0.13593310 </i>
    <i name="bandstr">  -7582.22268073 </i>
    <i name="atom"> 115279.52134392 </i>
    <i name="e_fr_energy">  10730.78132144 </i>
    <i name="e_wo_entrp">  10730.91725454 </i>
    <i name="e_0_energy">  10730.84928799 </i>
   </energy>
  </scstep>
  <scstep>
   <time name="dav">  139.80   20.07</time>
   <time name="total">  139.84   20.08</time>
   <energy>
    <i name="e_fr_energy">   -141.98743700 </i>
    <i name="e_wo_entrp">   -141.71152409 </i>
    <i name="e_0_energy">   -141.84948055 </i>
   </energy>
  </scstep>
  <scstep>
   <time name="dav">  170.41   24.47</time>
   <time name="total">  170.44   24.48</time>
   <energy>
    <i name="e_fr_energy">   -672.16942998 </i>
    <i name="e_wo_entrp">   -671.90967000 </i>
    <i name="e_0_energy">   -672.03954999 </i>
   </energy>
  </scstep>
  <scstep>
   <time name="dav">  165.83   23.81</time>
   <time name="total">  165.87   23.81</time>
   <energy>
    <i name="e_fr_energy">   -706.18647500 </i>
    <i name="e_wo_entrp">   -705.92294003 </i>
    <i name="e_0_energy">   -706.05470752 </i>
   </energy>
  </scstep>
  <scstep>
   <time name="dav">  215.10   30.80</time>
   <time name="total">  218.88   31.65</time>
   <energy>
    <i name="e_fr_energy">   -709.71410468 </i>
    <i name="e_wo_entrp">   -709.44189181 </i>
    <i name="e_0_energy">   -709.57799824 </i>
   </energy>
  </scstep>
  <scstep>
   <time name="dav">  163.55   23.53</time>
   <time name="total">  178.97   26.28</time>
   <energy>
    <i name="e_fr_energy">   -709.57750438 </i>
    <i name="e_wo_entrp">   -709.30098827 </i>
    <i name="e_0_energy">   -709.43924633 </i>
   </energy>
  </scstep>
  <scstep>
   <time name="dav">  152.12   21.89</time>
   <time name="total">  166.53   24.59</time>
   <energy>
    <i name="e_fr_energy">   -744.89390476 </i>
    <i name="e_wo_entrp">   -744.55300286 </i>
    <i name="e_0_energy">   -744.72345381 </i>
   </energy>
  </scstep>
  <scstep>
   <time name="dav">  159.75   22.88</time>
   <time name="total">  174.49   25.61</time>
   <energy>
    <i name="e_fr_energy">   -662.43641925 </i>
    <i name="e_wo_entrp">   -662.17409912 </i>
    <i name="e_0_energy">   -662.30525919 </i>
   </energy>
  </scstep>
  <scstep>
   <time name="dav">  160.38   23.13</time>
   <time name="total">  175.63   25.86</time>
   <energy>
    <i name="e_fr_energy">   -652.04503821 </i>
    <i name="e_wo_entrp">   -651.81838404 </i>
    <i name="e_0_energy">   -651.93171112 </i>
   </energy>
  </scstep>
  <scstep>
   <time name="dav">  170.06   24.37</time>
   <time name="total">  185.48   27.12</time>
   <energy>
    <i name="e_fr_energy">   -651.55305847 </i>
    <i name="e_wo_entrp">   -651.32251718 </i>
    <i name="e_0_energy">   -651.43778782 </i>
   </energy>
  </scstep>
  <scstep>
   <time name="dav">  158.27   22.73</time>
   <time name="total">  173.42   25.55</time>
   <energy>
    <i name="e_fr_energy">   -651.23343496 </i>
    <i name="e_wo_entrp">   -651.00950764 </i>
    <i name="e_0_energy">   -651.12147130 </i>
   </energy>
  </scstep>
  <scstep>
   <time name="dav">  161.07   23.10</time>
   <time name="total">  176.28   25.83</time>
   <energy>
    <i name="e_fr_energy">   -650.78538776 </i>
    <i name="e_wo_entrp">   -650.54868320 </i>
    <i name="e_0_energy">   -650.66703548 </i>
   </energy>
  </scstep>
  <scstep>
   <time name="dav">  155.86   22.31</time>
   <time name="total">  171.11   25.03</time>
   <energy>
    <i name="e_fr_energy">   -650.37982283 </i>
    <i name="e_wo_entrp">   -650.14129659 </i>
    <i name="e_0_energy">   -650.26055971 </i>
   </energy>
  </scstep>
  <scstep>
   <time name="dav">  166.48   23.94</time>
   <time name="total">  180.94   26.71</time>
   <energy>
    <i name="e_fr_energy">   -649.99469533 </i>
    <i name="e_wo_entrp">   -649.75431643 </i>
    <i name="e_0_energy">   -649.87450588 </i>
   </energy>
  </scstep>
  <scstep>
   <time name="dav">  156.65   22.45</time>
   <time name="total">  172.22   25.22</time>
   <energy>
    <i name="e_fr_energy">   -649.97934185 </i>
    <i name="e_wo_entrp">   -649.73853316 </i>
    <i name="e_0_energy">   -649.85893750 </i>
   </energy>
  </scstep>
  <scstep>
   <time name="dav">  159.91   22.97</time>
   <time name="total">  175.38   25.73</time>
   <energy>
    <i name="e_fr_energy">   -649.83715978 </i>
    <i name="e_wo_entrp">   -649.59782471 </i>
    <i name="e_0_energy">   -649.71749224 </i>
   </energy>
  </scstep>
  <scstep>
   <time name="dav">  161.43   23.12</time>
   <time name="total">  176.73   25.85</time>
   <energy>
    <i name="e_fr_energy">   -649.78906434 </i>
    <i name="e_wo_entrp">   -649.54884250 </i>
    <i name="e_0_energy">   -649.66895342 </i>
   </energy>
  </scstep>
  <scstep>
   <time name="dav">  158.42   22.69</time>
   <time name="total">  173.82   25.44</time>
   <energy>
    <i name="e_fr_energy">   -649.75066749 </i>
    <i name="e_wo_entrp">   -649.51081651 </i>
    <i name="e_0_energy">   -649.63074200 </i>
   </energy>
  </scstep>
  <scstep>
   <time name="dav">  158.08   22.76</time>
   <time name="total">  173.36   25.51</time>
   <energy>
    <i name="e_fr_energy">   -649.71298725 </i>
    <i name="e_wo_entrp">   -649.47171533 </i>
    <i name="e_0_energy">   -649.59235129 </i>
   </energy>
  </scstep>
  <scstep>
   <time name="dav">  151.46   21.75</time>
   <time name="total">  166.93   24.51</time>
   <energy>
    <i name="e_fr_energy">   -649.60039857 </i>
    <i name="e_wo_entrp">   -649.35734968 </i>
    <i name="e_0_energy">   -649.47887412 </i>
   </energy>
  </scstep>
  <scstep>
   <time name="dav">  164.82   23.62</time>
   <time name="total">  179.65   26.40</time>
   <energy>
    <i name="e_fr_energy">   -649.53390138 </i>
    <i name="e_wo_entrp">   -649.28875317 </i>
    <i name="e_0_energy">   -649.41132728 </i>
   </energy>
  </scstep>
  <scstep>
   <time name="dav">  156.90   22.46</time>
   <time name="total">  171.93   25.22</time>
   <energy>
    <i name="e_fr_energy">   -649.49906924 </i>
    <i name="e_wo_entrp">   -649.25330711 </i>
    <i name="e_0_energy">   -649.37618817 </i>
   </energy>
  </scstep>
  <scstep>
   <time name="dav">  150.93   21.63</time>
   <time name="total">  166.45   24.40</time>
   <energy>
    <i name="e_fr_energy">   -649.45159862 </i>
    <i name="e_wo_entrp">   -649.20626221 </i>
    <i name="e_0_energy">   -649.32893041 </i>
   </energy>
  </scstep>
  <scstep>
   <time name="dav">  158.39   22.79</time>
   <time name="total">  173.80   25.54</time>
   <energy>
    <i name="e_fr_energy">   -649.42281578 </i>
    <i name="e_wo_entrp">   -649.17624970 </i>
    <i name="e_0_energy">   -649.29953274 </i>
   </energy>
  </scstep>
  <scstep>
   <time name="dav">  154.40   22.17</time>
   <time name="total">  169.15   24.92</time>
   <energy>
    <i name="e_fr_energy">   -649.41229200 </i>
    <i name="e_wo_entrp">   -649.16565520 </i>
    <i name="e_0_energy">   -649.28897360 </i>
   </energy>
  </scstep>
  <scstep>
   <time name="dav">  159.87   22.96</time>
   <time name="total">  175.14   25.75</time>
   <energy>
    <i name="e_fr_energy">   -649.42237302 </i>
    <i name="e_wo_entrp">   -649.17548428 </i>
    <i name="e_0_energy">   -649.29892865 </i>
   </energy>
  </scstep>
  <scstep>
   <time name="dav">  151.84   21.75</time>
   <time name="total">  167.40   24.53</time>
   <energy>
    <i name="e_fr_energy">   -649.44364635 </i>
    <i name="e_wo_entrp">   -649.19689691 </i>
    <i name="e_0_energy">   -649.32027163 </i>
   </energy>
  </scstep>
  <scstep>
   <time name="dav">  158.96   22.77</time>
   <time name="total">  174.59   25.56</time>
   <energy>
    <i name="e_fr_energy">   -649.45553904 </i>
    <i name="e_wo_entrp">   -649.20883726 </i>
    <i name="e_0_energy">   -649.33218815 </i>
   </energy>
  </scstep>
  <scstep>
   <time name="dav">  151.20   21.82</time>
   <time name="total">  166.59   24.67</time>
   <energy>
    <i name="e_fr_energy">   -649.47520996 </i>
    <i name="e_wo_entrp">   -649.22853344 </i>
    <i name="e_0_energy">   -649.35187170 </i>
   </energy>
  </scstep>
  <scstep>
   <time name="dav">  162.20   23.26</time>
   <time name="total">  177.32   26.05</time>
   <energy>
    <i name="e_fr_energy">   -649.48292777 </i>
    <i name="e_wo_entrp">   -649.23627047 </i>
    <i name="e_0_energy">   -649.35959912 </i>
   </energy>
  </scstep>
  <scstep>
   <time name="dav">  154.04   22.08</time>
   <time name="total">  169.79   24.91</time>
   <energy>
    <i name="e_fr_energy">   -649.48742935 </i>
    <i name="e_wo_entrp">   -649.24076149 </i>
    <i name="e_0_energy">   -649.36409542 </i>
   </energy>
  </scstep>
  <scstep>
   <time name="dav">  149.93   21.53</time>
   <time name="total">  165.06   24.34</time>
   <energy>
    <i name="e_fr_energy">   -649.49263450 </i>
    <i name="e_wo_entrp">   -649.24597652 </i>
    <i name="e_0_energy">   -649.36930551 </i>
   </energy>
  </scstep>
  <scstep>
   <time name="dav">  159.31   23.11</time>
   <time name="total">  174.55   25.93</time>
   <energy>
    <i name="e_fr_energy">   -649.49433046 </i>
    <i name="e_wo_entrp">   -649.24761976 </i>
    <i name="e_0_energy">   -649.37097511 </i>
   </energy>
  </scstep>
  <scstep>
   <time name="dav">  140.69   21.14</time>
   <time name="total">  156.83   24.00</time>
   <energy>
    <i name="e_fr_energy">   -649.49563887 </i>
    <i name="e_wo_entrp">   -649.24889846 </i>
    <i name="e_0_energy">   -649.37226867 </i>
   </energy>
  </scstep>
  <scstep>
   <time name="dav">  116.07   19.58</time>
   <time name="total">  132.21   22.44</time>
   <energy>
    <i name="e_fr_energy">   -649.49639952 </i>
    <i name="e_wo_entrp">   -649.24965958 </i>
    <i name="e_0_energy">   -649.37302955 </i>
   </energy>
  </scstep>
  <scstep>
   <time name="dav">  107.67   19.20</time>
   <time name="total">  123.50   22.07</time>
   <energy>
    <i name="e_fr_energy">   -649.49675465 </i>
    <i name="e_wo_entrp">   -649.25002160 </i>
    <i name="e_0_energy">   -649.37338813 </i>
   </energy>
  </scstep>
  <scstep>
   <time name="dav">  104.49   18.89</time>
   <time name="total">  120.35   21.83</time>
   <energy>
    <i name="e_fr_energy">   -649.49695894 </i>
    <i name="e_wo_entrp">   -649.25023195 </i>
    <i name="e_0_energy">   -649.37359545 </i>
   </energy>
  </scstep>
  <scstep>
   <time name="dav">   96.35   17.71</time>
   <time name="total">  111.96   20.62</time>
   <energy>
    <i name="e_fr_energy">   -649.49716868 </i>
    <i name="e_wo_entrp">   -649.25044503 </i>
    <i name="e_0_energy">   -649.37380686 </i>
   </energy>
  </scstep>
  <scstep>
   <time name="dav">   72.40   16.60</time>
   <time name="total">   88.33   19.52</time>
   <energy>
    <i name="e_fr_energy">   -649.49719474 </i>
    <i name="e_wo_entrp">   -649.25046951 </i>
    <i name="e_0_energy">   -649.37383212 </i>
   </energy>
  </scstep>
  <scstep>
   <time name="dav">   63.17   15.30</time>
   <time name="total">   78.86   18.22</time>
   <energy>
    <i name="e_fr_energy">   -649.49720840 </i>
    <i name="e_wo_entrp">   -649.25048322 </i>
    <i name="e_0_energy">   -649.37384581 </i>
   </energy>
  </scstep>
  <scstep>
   <time name="dav">   68.41   15.78</time>
   <time name="total">   84.18   18.72</time>
   <energy>
    <i name="e_fr_energy">   -649.49722098 </i>
    <i name="e_wo_entrp">   -649.25049625 </i>
    <i name="e_0_energy">   -649.37385861 </i>
   </energy>
  </scstep>
  <scstep>
   <time name="dav">   60.99   15.30</time>
   <time name="total">   76.69   18.23</time>
   <energy>
    <i name="e_fr_energy">   -649.49722530 </i>
    <i name="e_wo_entrp">   -649.25050125 </i>
    <i name="e_0_energy">   -649.37386327 </i>
   </energy>
  </scstep>
  <scstep>
   <time name="dav">   59.91   15.08</time>
   <time name="total">   75.59   18.03</time>
   <energy>
    <i name="e_fr_energy">   -649.49722858 </i>
    <i name="e_wo_entrp">   -649.25050469 </i>
    <i name="e_0_energy">   -649.37386664 </i>
   </energy>
  </scstep>
  <scstep>
   <time name="dav">   56.64   14.79</time>
   <time name="total">   72.48   17.77</time>
   <energy>
    <i name="e_fr_energy">   -649.49723071 </i>
    <i name="e_wo_entrp">   -649.25050688 </i>
    <i name="e_0_energy">   -649.37386879 </i>
   </energy>
  </scstep>
  <scstep>
   <time name="dav">   53.99   14.54</time>
   <time name="total">   69.96   17.55</time>
   <energy>
    <i name="e_fr_energy">   -649.49723187 </i>
    <i name="e_wo_entrp">   -649.25050822 </i>
    <i name="e_0_energy">   -649.37387004 </i>
   </energy>
  </scstep>
  <scstep>
   <time name="dav">   46.09   13.65</time>
   <time name="total">   57.48   15.54</time>
   <energy>
    <i name="alphaZ">   3214.99793029 </i>
    <i name="ewald"> 385706.28691679 </i>
    <i name="hartreedc">-491334.60017744 </i>
    <i name="XCdc">   4049.94840829 </i>
    <i name="pawpsdc">  99909.62644752 </i>
    <i name="pawaedc"> -98982.52448087 </i>
    <i name="eentropy">     -0.24672387 </i>
    <i name="bandstr"> -18492.50689717 </i>
    <i name="atom"> 115279.52134392 </i>
    <i name="e_fr_energy">   -649.49723254 </i>
    <i name="e_wo_entrp">   -649.25050866 </i>
    <i name="e_0_energy">   -649.37387060 </i>
   </energy>
  </scstep>
  <structure>
   <crystal>
    <varray name="basis" >
     <v>       9.49839973       0.00000000       0.00000000 </v>
     <v>       0.00000000       9.49839973       0.00000000 </v>
     <v>       0.00000000       0.00000000      24.50289917 </v>
    </varray>
    <i name="volume">   2210.64170109 </i>
    <varray name="rec_basis" >
     <v>       0.10528089       0.00000000       0.00000000 </v>
     <v>       0.00000000       0.10528089       0.00000000 </v>
     <v>       0.00000000       0.00000000       0.04081150 </v>
    </varray>
   </crystal>
   <varray name="positions" >
    <v>       0.00000000       0.00000000       0.00000000 </v>
    <v>       0.98776334       0.98426798       0.38282674 </v>
    <v>       0.16667000       0.16667000       0.06464000 </v>
    <v>       0.33333000       0.00000000       0.00000000 </v>
    <v>       0.33267472       0.00303599       0.37958259 </v>
    <v>       0.50000000       0.16667000       0.06464000 </v>
    <v>       0.66667000       0.00000000       0.00000000 </v>
    <v>       0.68363848       0.00530160       0.38150678 </v>
    <v>       0.83333000       0.16667000       0.06464000 </v>
    <v>       0.00000000       0.33333000       0.00000000 </v>
    <v>       0.16667000       0.50000000       0.06464000 </v>
    <v>       0.33333000       0.33333000       0.00000000 </v>
    <v>       0.50000000       0.50000000       0.06464000 </v>
    <v>       0.66667000       0.33333000       0.00000000 </v>
    <v>       0.83333000       0.50000000       0.06464000 </v>
    <v>       0.00000000       0.66667000       0.00000000 </v>
    <v>       0.00076358       0.68721792       0.38187749 </v>
    <v>       0.16667000       0.83333000       0.06464000 </v>
    <v>       0.33333000       0.66667000       0.00000000 </v>
    <v>       0.50000000       0.83333000       0.06464000 </v>
    <v>       0.66667000       0.66667000       0.00000000 </v>
    <v>       0.67372575       0.66895550       0.38315481 </v>
    <v>       0.83333000       0.83333000       0.06464000 </v>
    <v>       0.00000000       0.00000000       0.12928000 </v>
    <v>       0.16667000       0.16667000       0.19391000 </v>
    <v>       0.33333000       0.00000000       0.12928000 </v>
    <v>       0.50000000       0.16667000       0.19391000 </v>
    <v>       0.66667000       0.00000000       0.12928000 </v>
    <v>       0.83333000       0.16667000       0.19391000 </v>
    <v>       0.00000000       0.33333000       0.12928000 </v>
    <v>       0.16667000       0.50000000       0.19391000 </v>
    <v>       0.33333000       0.33333000       0.12928000 </v>
    <v>       0.50000000       0.50000000       0.19391000 </v>
    <v>       0.66667000       0.33333000       0.12928000 </v>
    <v>       0.83333000       0.50000000       0.19391000 </v>
    <v>       0.00000000       0.66667000       0.12928000 </v>
    <v>       0.16667000       0.83333000       0.19391000 </v>
    <v>       0.33333000       0.66667000       0.12928000 </v>
    <v>       0.50000000       0.83333000       0.19391000 </v>
    <v>       0.66667000       0.66667000       0.12928000 </v>
    <v>       0.83333000       0.83333000       0.19391000 </v>
    <v>       0.00000000       0.00000000       0.25855000 </v>
    <v>       0.16643962       0.16672480       0.32473393 </v>
    <v>       0.33333000       0.00000000       0.25855000 </v>
    <v>       0.49928972       0.16568780       0.32371993 </v>
    <v>       0.66667000       0.00000000       0.25855000 </v>
    <v>       0.83403838       0.16903971       0.32414627 </v>
    <v>       0.00000000       0.33333000       0.25855000 </v>
    <v>       0.16590622       0.49934286       0.32364385 </v>
    <v>       0.33333000       0.33333000       0.25855000 </v>
    <v>       0.49914595       0.49928910       0.32017626 </v>
    <v>       0.66667000       0.33333000       0.25855000 </v>
    <v>       0.83284062       0.50002296       0.32474974 </v>
    <v>       0.00000000       0.66667000       0.25855000 </v>
    <v>       0.16905108       0.83410788       0.32383535 </v>
    <v>       0.33333000       0.66667000       0.25855000 </v>
    <v>       0.50019483       0.83275230       0.32475979 </v>
    <v>       0.66667000       0.66667000       0.25855000 </v>
    <v>       0.83293452       0.83405423       0.32201160 </v>
    <v>       0.00452595       0.33364015       0.37954653 </v>
    <v>       0.64894031       0.34119214       0.38624941 </v>
    <v>       0.34193167       0.65046606       0.38629642 </v>
    <v>       0.51759285       0.51815069       0.40848110 </v>
   </varray>
  </structure>
  <varray name="forces" >
   <v>      -0.01446531      -0.01160056       1.57199722 </v>
   <v>       0.01208770       0.01347330      -0.00485661 </v>
   <v>       0.01301112       0.01645577      -1.29462090 </v>
   <v>       0.01731566       0.00742846       1.53400635 </v>
   <v>      -0.00450396      -0.02182743      -0.00859142 </v>
   <v>       0.00450150      -0.03048377      -1.28045923 </v>
   <v>      -0.00643331       0.00384396       1.55171642 </v>
   <v>       0.00431903       0.00371517      -0.00092550 </v>
   <v>      -0.01197209       0.00940016      -1.31814322 </v>
   <v>       0.01097516       0.01307554       1.53348200 </v>
   <v>      -0.02909943       0.00095340      -1.26842880 </v>
   <v>      -0.02077680      -0.01460695       1.51795227 </v>
   <v>       0.00477557       0.01093305      -1.29711289 </v>
   <v>       0.02746086      -0.01869531       1.53529670 </v>
   <v>      -0.00341499       0.00246581      -1.21140088 </v>
   <v>       0.00504398      -0.01009758       1.54860391 </v>
   <v>       0.01159841      -0.00128931       0.00364898 </v>
   <v>       0.00858493      -0.00502898      -1.31739926 </v>
   <v>      -0.01286847       0.02377122       1.53277341 </v>
   <v>      -0.00137217      -0.00136947      -1.20600846 </v>
   <v>       0.00703823       0.00893053       1.52970621 </v>
   <v>      -0.00859831      -0.01113057      -0.01843562 </v>
   <v>       0.00117418       0.00197988      -1.44308237 </v>
   <v>      -0.02691682      -0.02484049       0.04712274 </v>
   <v>       0.04295566       0.05417895       0.02875203 </v>
   <v>       0.05907134      -0.02000124      -0.20848294 </v>
   <v>      -0.07681317      -0.03097337      -0.06654272 </v>
   <v>      -0.01522206      -0.05422689      -0.06551007 </v>
   <v>      -0.01335791       0.14519779      -0.05364978 </v>
   <v>      -0.00621465       0.06244123      -0.21621734 </v>
   <v>      -0.02381067      -0.08925931      -0.06403068 </v>
   <v>      -0.03805402      -0.02348673      -0.02760494 </v>
   <v>       0.04334305       0.06452094      -0.21919957 </v>
   <v>       0.05038374       0.01344436      -0.16924447 </v>
   <v>       0.01547680      -0.10472612       0.06576281 </v>
   <v>      -0.05155234      -0.02309306      -0.05973066 </v>
   <v>       0.14698874      -0.01038109      -0.08429336 </v>
   <v>       0.02453586       0.04212380      -0.18118648 </v>
   <v>      -0.09810281       0.01038397       0.08385324 </v>
   <v>       0.02263293       0.02322869      -0.07737569 </v>
   <v>      -0.01499875       0.01281915      -0.44366752 </v>
   <v>       0.03604965       0.03127028       0.14264852 </v>
   <v>       0.00035544      -0.00150287       0.00269549 </v>
   <v>       0.06443030       0.14733065      -0.27086365 </v>
   <v>       0.00760805       0.00027322      -0.00199766 </v>
   <v>      -0.14422336       0.07073115      -0.15332744 </v>
   <v>       0.00242974       0.00371792       0.00672089 </v>
   <v>       0.16176155       0.06347252      -0.27809021 </v>
   <v>      -0.00199840       0.00268068       0.00287681 </v>
   <v>      -0.17049051      -0.16971556       0.22966355 </v>
   <v>      -0.00307329      -0.00026770      -0.01574483 </v>
   <v>       0.10120815      -0.14379071       0.02915457 </v>
   <v>       0.00227815      -0.00311686       0.00158923 </v>
   <v>       0.04064104      -0.11698882      -0.05883660 </v>
   <v>       0.00505497       0.00182721       0.00605454 </v>
   <v>      -0.10701895       0.10549951       0.01029565 </v>
   <v>      -0.00292546       0.00024249       0.00660744 </v>
   <v>      -0.03327504      -0.02758750      -0.14600627 </v>
   <v>      -0.00045528      -0.00437300      -0.00891482 </v>
   <v>      -0.01619161      -0.00253255      -0.01310669 </v>
   <v>       0.01460417      -0.00636379       0.01078503 </v>
   <v>      -0.00779028       0.00640762       0.00554058 </v>
   <v>      -0.00370546       0.00513919       0.01378297 </v>
  </varray>
  <varray name="stress" >
   <v>     -40.76576044       0.43429936      -0.05355955 </v>
   <v>       0.43429909     -40.52257671      -0.09398849 </v>
   <v>      -0.05356007      -0.09398859     -21.03166383 </v>
  </varray>
  <energy>
   <i name="e_fr_energy">   -649.49723254 </i>
   <i name="e_wo_entrp">   -649.25050866 </i>
   <i name="e_0_energy">   -649.37387060 </i>
  </energy>
  <time name="totalsc"> 7093.24 1143.21</time>
  <eigenvalues>
   <array>
    <dimension dim="1">band</dimension>
    <dimension dim="2">kpoint</dimension>
    <dimension dim="3">spin</dimension>
    <field>eigene</field>
    <field>occ</field>
    <set>
     <set comment="spin 1">
      <set comment="kpoint 1">
       <r>  -57.7364    1.0000 </r>
       <r>  -57.6709    1.0000 </r>
       <r>  -57.6467    1.0000 </r>
       <r>  -57.6420    1.0000 </r>
       <r>  -57.6333    1.0000 </r>
       <r>  -57.6301    1.0000 </r>
       <r>  -57.6097    1.0000 </r>
       <r>  -57.6059    1.0000 </r>
       <r>  -57.6036    1.0000 </r>
       <r>  -57.5966    1.0000 </r>
       <r>  -57.5946    1.0000 </r>
       <r>  -57.5885    1.0000 </r>
       <r>  -57.5846    1.0000 </r>
       <r>  -57.5805    1.0000 </r>
       <r>  -57.5741    1.0000 </r>
       <r>  -57.5698    1.0000 </r>
       <r>  -57.5685    1.0000 </r>
       <r>  -57.5536    1.0000 </r>
       <r>  -57.5244    1.0000 </r>
       <r>  -57.5015    1.0000 </r>
       <r>  -57.4865    1.0000 </r>
       <r>  -57.4799    1.0000 </r>
       <r>  -57.4679    1.0000 </r>
       <r>  -57.4643    1.0000 </r>
       <r>  -57.4603    1.0000 </r>
       <r>  -57.4599    1.0000 </r>
       <r>  -57.4573    1.0000 </r>
       <r>  -57.4557    1.0000 </r>
       <r>  -57.4482    1.0000 </r>
       <r>  -57.4461    1.0000 </r>
       <r>  -57.4455    1.0000 </r>
       <r>  -57.4441    1.0000 </r>
       <r>  -57.4424    1.0000 </r>
       <r>  -57.4373    1.0000 </r>
       <r>  -57.4337    1.0000 </r>
       <r>  -57.4305    1.0000 </r>
       <r>  -57.4301    1.0000 </r>
       <r>  -57.4262    1.0000 </r>
       <r>  -57.4178    1.0000 </r>
       <r>  -57.4158    1.0000 </r>
       <r>  -57.4148    1.0000 </r>
       <r>  -57.4147    1.0000 </r>
       <r>  -57.3934    1.0000 </r>
       <r>  -57.3582    1.0000 </r>
       <r>  -57.3377    1.0000 </r>
       <r>  -57.3179    1.0000 </r>
       <r>  -57.2680    1.0000 </r>
       <r>  -57.2522    1.0000 </r>
       <r>  -57.2496    1.0000 </r>
       <r>  -57.2494    1.0000 </r>
       <r>  -57.2459    1.0000 </r>
       <r>  -57.2458    1.0000 </r>
       <r>  -57.2423    1.0000 </r>
       <r>  -57.2412    1.0000 </r>
       <r>  -57.2403    1.0000 </r>
       <r>  -57.2339    1.0000 </r>
       <r>  -57.2276    1.0000 </r>
       <r>  -57.2250    1.0000 </r>
       <r>  -57.2179    1.0000 </r>
       <r>  -57.1845    1.0000 </r>
       <r>  -51.7939    1.0000 </r>
       <r>  -51.7865    1.0000 </r>
       <r>  -32.3071    1.0000 </r>
       <r>  -32.2984    1.0000 </r>
       <r>  -32.2726    1.0000 </r>
       <r>  -32.2551    1.0000 </r>
       <r>  -32.2524    1.0000 </r>
       <r>  -32.2391    1.0000 </r>
       <r>  -32.2376    1.0000 </r>
       <r>  -32.2353    1.0000 </r>
       <r>  -32.2288    1.0000 </r>
       <r>  -32.2244    1.0000 </r>
       <r>  -32.2194    1.0000 </r>
       <r>  -32.2174    1.0000 </r>
       <r>  -32.1613    1.0000 </r>
       <r>  -32.1408    1.0000 </r>
       <r>  -32.1261    1.0000 </r>
       <r>  -32.1182    1.0000 </r>
       <r>  -32.1154    1.0000 </r>
       <r>  -32.1065    1.0000 </r>
       <r>  -32.0967    1.0000 </r>
       <r>  -32.0926    1.0000 </r>
       <r>  -32.0883    1.0000 </r>
       <r>  -32.0848    1.0000 </r>
       <r>  -32.0823    1.0000 </r>
       <r>  -32.0808    1.0000 </r>
       <r>  -32.0787    1.0000 </r>
       <r>  -32.0768    1.0000 </r>
       <r>  -32.0625    1.0000 </r>
       <r>  -32.0609    1.0000 </r>
       <r>  -32.0579    1.0000 </r>
       <r>  -32.0571    1.0000 </r>
       <r>  -32.0374    1.0000 </r>
       <r>  -32.0324    1.0000 </r>
       <r>  -32.0255    1.0000 </r>
       <r>  -32.0231    1.0000 </r>
       <r>  -32.0194    1.0000 </r>
       <r>  -31.9870    1.0000 </r>
       <r>  -31.9777    1.0000 </r>
       <r>  -31.9717    1.0000 </r>
       <r>  -31.9513    1.0000 </r>
       <r>  -31.9496    1.0000 </r>
       <r>  -31.9460    1.0000 </r>
       <r>  -31.9237    1.0000 </r>
       <r>  -31.9180    1.0000 </r>
       <r>  -31.9163    1.0000 </r>
       <r>  -31.8689    1.0000 </r>
       <r>  -31.8579    1.0000 </r>
       <r>  -31.8486    1.0000 </r>
       <r>  -31.8439    1.0000 </r>
       <r>  -31.8174    1.0000 </r>
       <r>  -31.8161    1.0000 </r>
       <r>  -31.8091    1.0000 </r>
       <r>  -31.8019    1.0000 </r>
       <r>  -31.7965    1.0000 </r>
       <r>  -31.7961    1.0000 </r>
       <r>  -31.7704    1.0000 </r>
       <r>  -31.7499    1.0000 </r>
       <r>  -31.7464    1.0000 </r>
       <r>  -31.7374    1.0000 </r>
       <r>  -31.7320    1.0000 </r>
       <r>  -31.7238    1.0000 </r>
       <r>  -31.7177    1.0000 </r>
       <r>  -31.7143    1.0000 </r>
       <r>  -31.7112    1.0000 </r>
       <r>  -31.7070    1.0000 </r>
       <r>  -31.7023    1.0000 </r>
       <r>  -31.7013    1.0000 </r>
       <r>  -31.6868    1.0000 </r>
       <r>  -31.6833    1.0000 </r>
       <r>  -31.6788    1.0000 </r>
       <r>  -31.6524    1.0000 </r>
       <r>  -31.6515    1.0000 </r>
       <r>  -31.6440    1.0000 </r>
       <r>  -31.6382    1.0000 </r>
       <r>  -31.6283    1.0000 </r>
       <r>  -31.6258    1.0000 </r>
       <r>  -31.6228    1.0000 </r>
       <r>  -31.6042    1.0000 </r>
       <r>  -31.6004    1.0000 </r>
       <r>  -31.5920    1.0000 </r>
       <r>  -31.5847    1.0000 </r>
       <r>  -31.5712    1.0000 </r>
       <r>  -31.5647    1.0000 </r>
       <r>  -31.5608    1.0000 </r>
       <r>  -31.5528    1.0000 </r>
       <r>  -31.5381    1.0000 </r>
       <r>  -31.5188    1.0000 </r>
       <r>  -31.5074    1.0000 </r>
       <r>  -31.4981    1.0000 </r>
       <r>  -31.4931    1.0000 </r>
       <r>  -31.4758    1.0000 </r>
       <r>  -31.4698    1.0000 </r>
       <r>  -31.4607    1.0000 </r>
       <r>  -31.4503    1.0000 </r>
       <r>  -31.4426    1.0000 </r>
       <r>  -31.4270    1.0000 </r>
       <r>  -31.4248    1.0000 </r>
       <r>  -31.4199    1.0000 </r>
       <r>  -31.4186    1.0000 </r>
       <r>  -31.4178    1.0000 </r>
       <r>  -31.4164    1.0000 </r>
       <r>  -31.4156    1.0000 </r>
       <r>  -31.4114    1.0000 </r>
       <r>  -31.3912    1.0000 </r>
       <r>  -31.3777    1.0000 </r>
       <r>  -31.3736    1.0000 </r>
       <r>  -31.3677    1.0000 </r>
       <r>  -31.3662    1.0000 </r>
       <r>  -31.3649    1.0000 </r>
       <r>  -31.3608    1.0000 </r>
       <r>  -31.3528    1.0000 </r>
       <r>  -31.3475    1.0000 </r>
       <r>  -31.3408    1.0000 </r>
       <r>  -31.3350    1.0000 </r>
       <r>  -31.3213    1.0000 </r>
       <r>  -31.3176    1.0000 </r>
       <r>  -31.3157    1.0000 </r>
       <r>  -31.3125    1.0000 </r>
       <r>  -31.3043    1.0000 </r>
       <r>  -31.2990    1.0000 </r>
       <r>  -31.2981    1.0000 </r>
       <r>  -31.2914    1.0000 </r>
       <r>  -31.2903    1.0000 </r>
       <r>  -31.2785    1.0000 </r>
       <r>  -31.2718    1.0000 </r>
       <r>  -31.2654    1.0000 </r>
       <r>  -31.2617    1.0000 </r>
       <r>  -31.2600    1.0000 </r>
       <r>  -31.2564    1.0000 </r>
       <r>  -31.2532    1.0000 </r>
       <r>  -31.2504    1.0000 </r>
       <r>  -31.2456    1.0000 </r>
       <r>  -31.2393    1.0000 </r>
       <r>  -31.2372    1.0000 </r>
       <r>  -31.2366    1.0000 </r>
       <r>  -31.2348    1.0000 </r>
       <r>  -31.2237    1.0000 </r>
       <r>  -31.2121    1.0000 </r>
       <r>  -31.2061    1.0000 </r>
       <r>  -31.1934    1.0000 </r>
       <r>  -31.1842    1.0000 </r>
       <r>  -31.1748    1.0000 </r>
       <r>  -31.1623    1.0000 </r>
       <r>  -31.1559    1.0000 </r>
       <r>  -31.1474    1.0000 </r>
       <r>  -31.1390    1.0000 </r>
       <r>  -31.1305    1.0000 </r>
       <r>  -31.1292    1.0000 </r>
       <r>  -31.1290    1.0000 </r>
       <r>  -31.1276    1.0000 </r>
       <r>  -31.1270    1.0000 </r>
       <r>  -31.1217    1.0000 </r>
       <r>  -31.1161    1.0000 </r>
       <r>  -31.1160    1.0000 </r>
       <r>  -31.1150    1.0000 </r>
       <r>  -31.1132    1.0000 </r>
       <r>  -31.1011    1.0000 </r>
       <r>  -31.1005    1.0000 </r>
       <r>  -31.0915    1.0000 </r>
       <r>  -31.0829    1.0000 </r>
       <r>  -31.0773    1.0000 </r>
       <r>  -31.0701    1.0000 </r>
       <r>  -31.0667    1.0000 </r>
       <r>  -31.0656    1.0000 </r>
       <r>  -31.0608    1.0000 </r>
       <r>  -31.0507    1.0000 </r>
       <r>  -31.0458    1.0000 </r>
       <r>  -31.0428    1.0000 </r>
       <r>  -31.0416    1.0000 </r>
       <r>  -31.0394    1.0000 </r>
       <r>  -31.0331    1.0000 </r>
       <r>  -31.0220    1.0000 </r>
       <r>  -31.0187    1.0000 </r>
       <r>  -31.0156    1.0000 </r>
       <r>  -30.9820    1.0000 </r>
       <r>  -30.9692    1.0000 </r>
       <r>  -30.9577    1.0000 </r>
       <r>  -30.9513    1.0000 </r>
       <r>  -30.9314    1.0000 </r>
       <r>  -30.9211    1.0000 </r>
       <r>  -30.9151    1.0000 </r>
       <r>  -27.9823    1.0000 </r>
       <r>  -27.9451    1.0000 </r>
       <r>  -27.8698    1.0000 </r>
       <r>  -27.8447    1.0000 </r>
       <r>  -27.7363    1.0000 </r>
       <r>  -27.7306    1.0000 </r>
       <r>  -16.1867    1.0000 </r>
       <r>   -3.2580    1.0000 </r>
       <r>   -2.9670    1.0000 </r>
       <r>   -2.5724    1.0000 </r>
       <r>   -2.4929    1.0000 </r>
       <r>   -2.2203    1.0000 </r>
       <r>   -1.5982    1.0000 </r>
       <r>   -1.4549    1.0000 </r>
       <r>   -1.4520    1.0000 </r>
       <r>   -1.4510    1.0000 </r>
       <r>   -1.4446    1.0000 </r>
       <r>   -1.4330    1.0000 </r>
       <r>   -1.3851    1.0000 </r>
       <r>   -1.3589    1.0000 </r>
       <r>   -1.3493    1.0000 </r>
       <r>   -1.3426    1.0000 </r>
       <r>   -1.2556    1.0000 </r>
       <r>   -1.2213    1.0000 </r>
       <r>   -1.1773    1.0000 </r>
       <r>   -1.1753    1.0000 </r>
       <r>   -1.0404    1.0000 </r>
       <r>   -1.0371    1.0000 </r>
       <r>   -1.0227    1.0000 </r>
       <r>   -1.0161    1.0000 </r>
       <r>   -1.0096    1.0000 </r>
       <r>   -0.9569    1.0000 </r>
       <r>   -0.9071    1.0000 </r>
       <r>   -0.8844    1.0000 </r>
       <r>   -0.8471    1.0000 </r>
       <r>   -0.8438    1.0000 </r>
       <r>   -0.6559    1.0000 </r>
       <r>   -0.6203    1.0000 </r>
       <r>   -0.6142    1.0000 </r>
       <r>   -0.6066    1.0000 </r>
       <r>   -0.5887    1.0000 </r>
       <r>   -0.5719    1.0000 </r>
       <r>   -0.5644    1.0000 </r>
       <r>   -0.5590    1.0000 </r>
       <r>   -0.5481    1.0000 </r>
       <r>   -0.2019    1.0000 </r>
       <r>   -0.1910    1.0000 </r>
       <r>   -0.1891    1.0000 </r>
       <r>   -0.1513    1.0000 </r>
       <r>   -0.1345    1.0000 </r>
       <r>   -0.1262    1.0000 </r>
       <r>   -0.0748    1.0000 </r>
       <r>   -0.0501    1.0000 </r>
       <r>   -0.0319    1.0000 </r>
       <r>   -0.0210    1.0000 </r>
       <r>   -0.0196    1.0000 </r>
       <r>   -0.0098    1.0000 </r>
       <r>    0.0009    1.0000 </r>
       <r>    0.0120    1.0000 </r>
       <r>    0.0246    1.0000 </r>
       <r>    0.0267    1.0000 </r>
       <r>    0.0463    1.0000 </r>
       <r>    0.0635    1.0000 </r>
       <r>    0.0729    1.0000 </r>
       <r>    0.0742    1.0000 </r>
       <r>    0.0753    1.0000 </r>
       <r>    0.0769    1.0000 </r>
       <r>    0.1077    1.0000 </r>
       <r>    0.1572    1.0000 </r>
       <r>    0.3128    1.0000 </r>
       <r>    0.4006    1.0000 </r>
       <r>    0.4066    1.0000 </r>
       <r>    0.4819    1.0000 </r>
       <r>    0.4927    1.0000 </r>
       <r>    0.5311    1.0000 </r>
       <r>    0.5393    1.0000 </r>
       <r>    0.5466    1.0000 </r>
       <r>    0.5557    1.0000 </r>
       <r>    0.5567    1.0000 </r>
       <r>    0.5727    1.0000 </r>
       <r>    0.5798    1.0000 </r>
       <r>    0.5844    1.0000 </r>
       <r>    0.5852    1.0000 </r>
       <r>    0.6406    1.0000 </r>
       <r>    0.6646    1.0000 </r>
       <r>    0.6760    1.0000 </r>
       <r>    0.6827    1.0000 </r>
       <r>    0.7110    1.0000 </r>
       <r>    0.7225    1.0000 </r>
       <r>    0.7422    1.0000 </r>
       <r>    0.7462    1.0000 </r>
       <r>    0.7664    1.0000 </r>
       <r>    0.7757    1.0000 </r>
       <r>    0.7883    1.0000 </r>
       <r>    0.7996    1.0000 </r>
       <r>    0.8161    1.0000 </r>
       <r>    0.8471    1.0000 </r>
       <r>    0.8593    1.0000 </r>
       <r>    0.8748    1.0000 </r>
       <r>    0.8778    1.0000 </r>
       <r>    0.8810    1.0000 </r>
       <r>    0.9141    1.0000 </r>
       <r>    0.9220    1.0000 </r>
       <r>    0.9677    1.0000 </r>
       <r>    1.0021    1.0000 </r>
       <r>    1.0179    1.0000 </r>
       <r>    1.0823    1.0000 </r>
       <r>    1.1078    1.0000 </r>
       <r>    1.1469    1.0000 </r>
       <r>    1.1852    1.0000 </r>
       <r>    1.2065    1.0000 </r>
       <r>    1.2221    1.0000 </r>
       <r>    1.2315    1.0000 </r>
       <r>    1.2331    1.0000 </r>
       <r>    1.2996    1.0000 </r>
       <r>    1.3142    1.0000 </r>
       <r>    1.3366    1.0000 </r>
       <r>    1.3497    1.0000 </r>
       <r>    1.3552    1.0000 </r>
       <r>    1.3682    1.0000 </r>
       <r>    1.3803    1.0000 </r>
       <r>    1.3846    1.0000 </r>
       <r>    1.3963    1.0000 </r>
       <r>    1.4386    1.0000 </r>
       <r>    1.4496    1.0000 </r>
       <r>    1.4620    1.0000 </r>
       <r>    1.4654    1.0000 </r>
       <r>    1.4790    1.0000 </r>
       <r>    1.4960    1.0000 </r>
       <r>    1.5612    1.0000 </r>
       <r>    1.6311    1.0000 </r>
       <r>    1.6407    1.0000 </r>
       <r>    1.6522    1.0000 </r>
       <r>    1.6798    1.0000 </r>
       <r>    1.6912    1.0000 </r>
       <r>    1.7307    1.0000 </r>
       <r>    1.7425    1.0000 </r>
       <r>    1.8011    1.0000 </r>
       <r>    1.8201    1.0000 </r>
       <r>    1.8277    1.0000 </r>
       <r>    1.8820    1.0000 </r>
       <r>    1.9567    1.0000 </r>
       <r>    1.9826    1.0000 </r>
       <r>    2.0391    1.0000 </r>
       <r>    2.0622    1.0000 </r>
       <r>    2.0716    1.0000 </r>
       <r>    2.1171    1.0000 </r>
       <r>    2.1397    1.0000 </r>
       <r>    2.1649    1.0000 </r>
       <r>    2.1727    1.0000 </r>
       <r>    2.1850    1.0000 </r>
       <r>    2.1928    1.0000 </r>
       <r>    2.2144    1.0000 </r>
       <r>    2.2275    1.0000 </r>
       <r>    2.2440    1.0000 </r>
       <r>    2.2917    1.0000 </r>
       <r>    2.2940    1.0000 </r>
       <r>    2.3100    1.0000 </r>
       <r>    2.3224    1.0000 </r>
       <r>    2.3333    1.0000 </r>
       <r>    2.3502    1.0000 </r>
       <r>    2.3585    1.0000 </r>
       <r>    2.3735    1.0000 </r>
       <r>    2.3977    1.0000 </r>
       <r>    2.4101    1.0000 </r>
       <r>    2.4462    1.0000 </r>
       <r>    2.4601    1.0000 </r>
       <r>    2.5373    1.0000 </r>
       <r>    2.5643    1.0000 </r>
       <r>    2.6189    1.0000 </r>
       <r>    2.6812    1.0000 </r>
       <r>    2.6904    1.0000 </r>
       <r>    2.7172    1.0000 </r>
       <r>    2.7499    1.0000 </r>
       <r>    2.7554    1.0000 </r>
       <r>    2.7721    1.0000 </r>
       <r>    2.7922    1.0000 </r>
       <r>    2.8101    1.0000 </r>
       <r>    2.8476    1.0000 </r>
       <r>    2.9248    1.0000 </r>
       <r>    2.9381    1.0000 </r>
       <r>    2.9599    1.0000 </r>
       <r>    2.9768    1.0000 </r>
       <r>    3.0008    1.0000 </r>
       <r>    3.1211    1.0000 </r>
       <r>    3.2230    0.9998 </r>
       <r>    3.2489    0.9993 </r>
       <r>    3.2545    0.9990 </r>
       <r>    3.2765    0.9973 </r>
       <r>    3.3621    0.9422 </r>
       <r>    3.3723    0.9236 </r>
       <r>    3.4051    0.8329 </r>
       <r>    3.5253    0.2313 </r>
       <r>    3.5680    0.0904 </r>
       <r>    3.6240    0.0166 </r>
       <r>    3.6536    0.0054 </r>
       <r>    3.6556    0.0050 </r>
       <r>    3.6918    0.0010 </r>
       <r>    3.7265    0.0002 </r>
       <r>    3.7281    0.0002 </r>
       <r>    3.7286    0.0002 </r>
       <r>    3.7289    0.0002 </r>
       <r>    3.7304    0.0001 </r>
       <r>    3.7931    0.0000 </r>
       <r>    3.7942    0.0000 </r>
       <r>    3.8007    0.0000 </r>
       <r>    3.8137    0.0000 </r>
       <r>    3.8248    0.0000 </r>
       <r>    3.8584    0.0000 </r>
       <r>    3.8675    0.0000 </r>
       <r>    3.8925    0.0000 </r>
       <r>    3.9189    0.0000 </r>
       <r>    3.9257    0.0000 </r>
       <r>    3.9504    0.0000 </r>
       <r>    3.9564    0.0000 </r>
       <r>    3.9975    0.0000 </r>
       <r>    4.0154    0.0000 </r>
       <r>    4.0397    0.0000 </r>
       <r>    4.0708    0.0000 </r>
       <r>    4.1008    0.0000 </r>
       <r>    4.1082    0.0000 </r>
       <r>    4.1204    0.0000 </r>
       <r>    4.1521    0.0000 </r>
       <r>    4.1577    0.0000 </r>
       <r>    4.1616    0.0000 </r>
       <r>    4.2134    0.0000 </r>
       <r>    4.2227    0.0000 </r>
       <r>    4.3146    0.0000 </r>
       <r>    4.3685    0.0000 </r>
       <r>    4.4601    0.0000 </r>
       <r>    4.4645    0.0000 </r>
       <r>    4.5313    0.0000 </r>
       <r>    4.5398    0.0000 </r>
       <r>    4.5550    0.0000 </r>
       <r>    4.5665    0.0000 </r>
       <r>    4.5871    0.0000 </r>
       <r>    4.6024    0.0000 </r>
       <r>    4.6478    0.0000 </r>
       <r>    4.6883    0.0000 </r>
       <r>    4.7064    0.0000 </r>
       <r>    4.7248    0.0000 </r>
       <r>    4.7679    0.0000 </r>
       <r>    4.7778    0.0000 </r>
       <r>    4.7971    0.0000 </r>
       <r>    4.8040    0.0000 </r>
       <r>    4.8149    0.0000 </r>
       <r>    4.8391    0.0000 </r>
       <r>    4.8414    0.0000 </r>
       <r>    4.8583    0.0000 </r>
       <r>    4.8795    0.0000 </r>
       <r>    4.8962    0.0000 </r>
       <r>    4.9229    0.0000 </r>
       <r>    4.9573    0.0000 </r>
       <r>    4.9690    0.0000 </r>
       <r>    4.9701    0.0000 </r>
       <r>    5.0371    0.0000 </r>
       <r>    5.0710    0.0000 </r>
       <r>    5.0789    0.0000 </r>
       <r>    5.1214    0.0000 </r>
       <r>    5.1471    0.0000 </r>
       <r>    5.1513    0.0000 </r>
       <r>    5.1958    0.0000 </r>
       <r>    5.2131    0.0000 </r>
       <r>    5.2351    0.0000 </r>
       <r>    5.2511    0.0000 </r>
       <r>    5.2636    0.0000 </r>
       <r>    5.2915    0.0000 </r>
       <r>    5.2981    0.0000 </r>
       <r>    5.3124    0.0000 </r>
       <r>    5.3543    0.0000 </r>
       <r>    5.3599    0.0000 </r>
       <r>    5.3803    0.0000 </r>
       <r>    5.4111    0.0000 </r>
       <r>    5.4282    0.0000 </r>
       <r>    5.4913    0.0000 </r>
       <r>    5.5073    0.0000 </r>
       <r>    5.5101    0.0000 </r>
       <r>    5.5232    0.0000 </r>
       <r>    5.5354    0.0000 </r>
       <r>    5.5427    0.0000 </r>
       <r>    5.5477    0.0000 </r>
      </set>
      <set comment="kpoint 2">
       <r>  -57.7293    1.0000 </r>
       <r>  -57.6784    1.0000 </r>
       <r>  -57.6637    1.0000 </r>
       <r>  -57.6384    1.0000 </r>
       <r>  -57.6329    1.0000 </r>
       <r>  -57.6251    1.0000 </r>
       <r>  -57.6105    1.0000 </r>
       <r>  -57.6074    1.0000 </r>
       <r>  -57.6032    1.0000 </r>
       <r>  -57.5987    1.0000 </r>
       <r>  -57.5940    1.0000 </r>
       <r>  -57.5860    1.0000 </r>
       <r>  -57.5827    1.0000 </r>
       <r>  -57.5775    1.0000 </r>
       <r>  -57.5727    1.0000 </r>
       <r>  -57.5669    1.0000 </r>
       <r>  -57.5635    1.0000 </r>
       <r>  -57.5521    1.0000 </r>
       <r>  -57.5220    1.0000 </r>
       <r>  -57.5016    1.0000 </r>
       <r>  -57.4878    1.0000 </r>
       <r>  -57.4795    1.0000 </r>
       <r>  -57.4699    1.0000 </r>
       <r>  -57.4640    1.0000 </r>
       <r>  -57.4598    1.0000 </r>
       <r>  -57.4583    1.0000 </r>
       <r>  -57.4565    1.0000 </r>
       <r>  -57.4556    1.0000 </r>
       <r>  -57.4509    1.0000 </r>
       <r>  -57.4486    1.0000 </r>
       <r>  -57.4467    1.0000 </r>
       <r>  -57.4458    1.0000 </r>
       <r>  -57.4427    1.0000 </r>
       <r>  -57.4424    1.0000 </r>
       <r>  -57.4369    1.0000 </r>
       <r>  -57.4339    1.0000 </r>
       <r>  -57.4285    1.0000 </r>
       <r>  -57.4268    1.0000 </r>
       <r>  -57.4240    1.0000 </r>
       <r>  -57.4174    1.0000 </r>
       <r>  -57.4158    1.0000 </r>
       <r>  -57.4000    1.0000 </r>
       <r>  -57.3865    1.0000 </r>
       <r>  -57.3611    1.0000 </r>
       <r>  -57.3358    1.0000 </r>
       <r>  -57.3186    1.0000 </r>
       <r>  -57.2693    1.0000 </r>
       <r>  -57.2553    1.0000 </r>
       <r>  -57.2503    1.0000 </r>
       <r>  -57.2485    1.0000 </r>
       <r>  -57.2464    1.0000 </r>
       <r>  -57.2437    1.0000 </r>
       <r>  -57.2419    1.0000 </r>
       <r>  -57.2406    1.0000 </r>
       <r>  -57.2384    1.0000 </r>
       <r>  -57.2382    1.0000 </r>
       <r>  -57.2278    1.0000 </r>
       <r>  -57.2268    1.0000 </r>
       <r>  -57.2107    1.0000 </r>
       <r>  -57.1869    1.0000 </r>
       <r>  -51.7939    1.0000 </r>
       <r>  -51.7865    1.0000 </r>
       <r>  -32.3323    1.0000 </r>
       <r>  -32.3006    1.0000 </r>
       <r>  -32.2911    1.0000 </r>
       <r>  -32.2671    1.0000 </r>
       <r>  -32.2470    1.0000 </r>
       <r>  -32.2390    1.0000 </r>
       <r>  -32.2337    1.0000 </r>
       <r>  -32.2188    1.0000 </r>
       <r>  -32.2065    1.0000 </r>
       <r>  -32.1936    1.0000 </r>
       <r>  -32.1798    1.0000 </r>
       <r>  -32.1703    1.0000 </r>
       <r>  -32.1688    1.0000 </r>
       <r>  -32.1627    1.0000 </r>
       <r>  -32.1565    1.0000 </r>
       <r>  -32.1520    1.0000 </r>
       <r>  -32.1398    1.0000 </r>
       <r>  -32.1347    1.0000 </r>
       <r>  -32.1227    1.0000 </r>
       <r>  -32.1165    1.0000 </r>
       <r>  -32.1129    1.0000 </r>
       <r>  -32.1058    1.0000 </r>
       <r>  -32.0996    1.0000 </r>
       <r>  -32.0925    1.0000 </r>
       <r>  -32.0853    1.0000 </r>
       <r>  -32.0740    1.0000 </r>
       <r>  -32.0686    1.0000 </r>
       <r>  -32.0547    1.0000 </r>
       <r>  -32.0502    1.0000 </r>
       <r>  -32.0398    1.0000 </r>
       <r>  -32.0340    1.0000 </r>
       <r>  -32.0232    1.0000 </r>
       <r>  -32.0050    1.0000 </r>
       <r>  -31.9979    1.0000 </r>
       <r>  -31.9916    1.0000 </r>
       <r>  -31.9830    1.0000 </r>
       <r>  -31.9715    1.0000 </r>
       <r>  -31.9593    1.0000 </r>
       <r>  -31.9446    1.0000 </r>
       <r>  -31.9292    1.0000 </r>
       <r>  -31.9228    1.0000 </r>
       <r>  -31.9114    1.0000 </r>
       <r>  -31.9004    1.0000 </r>
       <r>  -31.8947    1.0000 </r>
       <r>  -31.8770    1.0000 </r>
       <r>  -31.8578    1.0000 </r>
       <r>  -31.8512    1.0000 </r>
       <r>  -31.8383    1.0000 </r>
       <r>  -31.8361    1.0000 </r>
       <r>  -31.8295    1.0000 </r>
       <r>  -31.8162    1.0000 </r>
       <r>  -31.8115    1.0000 </r>
       <r>  -31.7980    1.0000 </r>
       <r>  -31.7829    1.0000 </r>
       <r>  -31.7682    1.0000 </r>
       <r>  -31.7565    1.0000 </r>
       <r>  -31.7440    1.0000 </r>
       <r>  -31.7424    1.0000 </r>
       <r>  -31.7345    1.0000 </r>
       <r>  -31.7268    1.0000 </r>
       <r>  -31.7221    1.0000 </r>
       <r>  -31.7146    1.0000 </r>
       <r>  -31.7059    1.0000 </r>
       <r>  -31.6958    1.0000 </r>
       <r>  -31.6925    1.0000 </r>
       <r>  -31.6874    1.0000 </r>
       <r>  -31.6829    1.0000 </r>
       <r>  -31.6778    1.0000 </r>
       <r>  -31.6726    1.0000 </r>
       <r>  -31.6634    1.0000 </r>
       <r>  -31.6594    1.0000 </r>
       <r>  -31.6468    1.0000 </r>
       <r>  -31.6396    1.0000 </r>
       <r>  -31.6275    1.0000 </r>
       <r>  -31.6149    1.0000 </r>
       <r>  -31.6075    1.0000 </r>
       <r>  -31.5946    1.0000 </r>
       <r>  -31.5909    1.0000 </r>
       <r>  -31.5776    1.0000 </r>
       <r>  -31.5717    1.0000 </r>
       <r>  -31.5635    1.0000 </r>
       <r>  -31.5585    1.0000 </r>
       <r>  -31.5549    1.0000 </r>
       <r>  -31.5413    1.0000 </r>
       <r>  -31.5355    1.0000 </r>
       <r>  -31.5242    1.0000 </r>
       <r>  -31.5160    1.0000 </r>
       <r>  -31.5009    1.0000 </r>
       <r>  -31.4920    1.0000 </r>
       <r>  -31.4862    1.0000 </r>
       <r>  -31.4772    1.0000 </r>
       <r>  -31.4688    1.0000 </r>
       <r>  -31.4658    1.0000 </r>
       <r>  -31.4549    1.0000 </r>
       <r>  -31.4461    1.0000 </r>
       <r>  -31.4383    1.0000 </r>
       <r>  -31.4375    1.0000 </r>
       <r>  -31.4349    1.0000 </r>
       <r>  -31.4303    1.0000 </r>
       <r>  -31.4232    1.0000 </r>
       <r>  -31.4210    1.0000 </r>
       <r>  -31.4172    1.0000 </r>
       <r>  -31.4066    1.0000 </r>
       <r>  -31.4052    1.0000 </r>
       <r>  -31.4004    1.0000 </r>
       <r>  -31.3903    1.0000 </r>
       <r>  -31.3842    1.0000 </r>
       <r>  -31.3771    1.0000 </r>
       <r>  -31.3689    1.0000 </r>
       <r>  -31.3656    1.0000 </r>
       <r>  -31.3516    1.0000 </r>
       <r>  -31.3488    1.0000 </r>
       <r>  -31.3421    1.0000 </r>
       <r>  -31.3212    1.0000 </r>
       <r>  -31.3144    1.0000 </r>
       <r>  -31.3073    1.0000 </r>
       <r>  -31.3009    1.0000 </r>
       <r>  -31.2976    1.0000 </r>
       <r>  -31.2936    1.0000 </r>
       <r>  -31.2908    1.0000 </r>
       <r>  -31.2850    1.0000 </r>
       <r>  -31.2807    1.0000 </r>
       <r>  -31.2780    1.0000 </r>
       <r>  -31.2743    1.0000 </r>
       <r>  -31.2686    1.0000 </r>
       <r>  -31.2631    1.0000 </r>
       <r>  -31.2546    1.0000 </r>
       <r>  -31.2462    1.0000 </r>
       <r>  -31.2424    1.0000 </r>
       <r>  -31.2358    1.0000 </r>
       <r>  -31.2327    1.0000 </r>
       <r>  -31.2267    1.0000 </r>
       <r>  -31.2216    1.0000 </r>
       <r>  -31.2176    1.0000 </r>
       <r>  -31.2149    1.0000 </r>
       <r>  -31.2083    1.0000 </r>
       <r>  -31.1993    1.0000 </r>
       <r>  -31.1927    1.0000 </r>
       <r>  -31.1907    1.0000 </r>
       <r>  -31.1832    1.0000 </r>
       <r>  -31.1771    1.0000 </r>
       <r>  -31.1693    1.0000 </r>
       <r>  -31.1613    1.0000 </r>
       <r>  -31.1569    1.0000 </r>
       <r>  -31.1548    1.0000 </r>
       <r>  -31.1501    1.0000 </r>
       <r>  -31.1349    1.0000 </r>
       <r>  -31.1312    1.0000 </r>
       <r>  -31.1216    1.0000 </r>
       <r>  -31.1202    1.0000 </r>
       <r>  -31.1168    1.0000 </r>
       <r>  -31.1116    1.0000 </r>
       <r>  -31.1055    1.0000 </r>
       <r>  -31.1029    1.0000 </r>
       <r>  -31.1012    1.0000 </r>
       <r>  -31.0956    1.0000 </r>
       <r>  -31.0903    1.0000 </r>
       <r>  -31.0890    1.0000 </r>
       <r>  -31.0833    1.0000 </r>
       <r>  -31.0800    1.0000 </r>
       <r>  -31.0768    1.0000 </r>
       <r>  -31.0742    1.0000 </r>
       <r>  -31.0645    1.0000 </r>
       <r>  -31.0625    1.0000 </r>
       <r>  -31.0532    1.0000 </r>
       <r>  -31.0521    1.0000 </r>
       <r>  -31.0444    1.0000 </r>
       <r>  -31.0418    1.0000 </r>
       <r>  -31.0355    1.0000 </r>
       <r>  -31.0296    1.0000 </r>
       <r>  -31.0265    1.0000 </r>
       <r>  -31.0257    1.0000 </r>
       <r>  -31.0128    1.0000 </r>
       <r>  -30.9820    1.0000 </r>
       <r>  -30.9698    1.0000 </r>
       <r>  -30.9591    1.0000 </r>
       <r>  -30.9544    1.0000 </r>
       <r>  -30.9371    1.0000 </r>
       <r>  -30.9251    1.0000 </r>
       <r>  -30.9167    1.0000 </r>
       <r>  -27.9822    1.0000 </r>
       <r>  -27.9452    1.0000 </r>
       <r>  -27.8698    1.0000 </r>
       <r>  -27.8447    1.0000 </r>
       <r>  -27.7363    1.0000 </r>
       <r>  -27.7306    1.0000 </r>
       <r>  -16.1866    1.0000 </r>
       <r>   -3.1213    1.0000 </r>
       <r>   -2.9619    1.0000 </r>
       <r>   -2.5667    1.0000 </r>
       <r>   -2.4961    1.0000 </r>
       <r>   -2.1278    1.0000 </r>
       <r>   -2.0674    1.0000 </r>
       <r>   -1.5209    1.0000 </r>
       <r>   -1.4815    1.0000 </r>
       <r>   -1.4167    1.0000 </r>
       <r>   -1.3945    1.0000 </r>
       <r>   -1.3548    1.0000 </r>
       <r>   -1.3505    1.0000 </r>
       <r>   -1.3411    1.0000 </r>
       <r>   -1.2314    1.0000 </r>
       <r>   -1.2064    1.0000 </r>
       <r>   -1.1112    1.0000 </r>
       <r>   -1.0604    1.0000 </r>
       <r>   -1.0552    1.0000 </r>
       <r>   -1.0506    1.0000 </r>
       <r>   -1.0433    1.0000 </r>
       <r>   -1.0185    1.0000 </r>
       <r>   -1.0052    1.0000 </r>
       <r>   -0.9446    1.0000 </r>
       <r>   -0.9185    1.0000 </r>
       <r>   -0.8927    1.0000 </r>
       <r>   -0.8829    1.0000 </r>
       <r>   -0.8704    1.0000 </r>
       <r>   -0.8424    1.0000 </r>
       <r>   -0.8150    1.0000 </r>
       <r>   -0.7858    1.0000 </r>
       <r>   -0.7479    1.0000 </r>
       <r>   -0.7126    1.0000 </r>
       <r>   -0.5748    1.0000 </r>
       <r>   -0.4908    1.0000 </r>
       <r>   -0.4367    1.0000 </r>
       <r>   -0.4299    1.0000 </r>
       <r>   -0.3782    1.0000 </r>
       <r>   -0.3719    1.0000 </r>
       <r>   -0.3656    1.0000 </r>
       <r>   -0.3090    1.0000 </r>
       <r>   -0.3001    1.0000 </r>
       <r>   -0.2886    1.0000 </r>
       <r>   -0.2498    1.0000 </r>
       <r>   -0.2252    1.0000 </r>
       <r>   -0.2040    1.0000 </r>
       <r>   -0.1455    1.0000 </r>
       <r>   -0.1295    1.0000 </r>
       <r>   -0.1020    1.0000 </r>
       <r>   -0.0947    1.0000 </r>
       <r>   -0.0437    1.0000 </r>
       <r>   -0.0229    1.0000 </r>
       <r>   -0.0074    1.0000 </r>
       <r>   -0.0001    1.0000 </r>
       <r>    0.0152    1.0000 </r>
       <r>    0.0306    1.0000 </r>
       <r>    0.0556    1.0000 </r>
       <r>    0.1102    1.0000 </r>
       <r>    0.1693    1.0000 </r>
       <r>    0.1869    1.0000 </r>
       <r>    0.1894    1.0000 </r>
       <r>    0.2687    1.0000 </r>
       <r>    0.3229    1.0000 </r>
       <r>    0.3343    1.0000 </r>
       <r>    0.3465    1.0000 </r>
       <r>    0.3600    1.0000 </r>
       <r>    0.3725    1.0000 </r>
       <r>    0.3974    1.0000 </r>
       <r>    0.4094    1.0000 </r>
       <r>    0.4225    1.0000 </r>
       <r>    0.4488    1.0000 </r>
       <r>    0.4726    1.0000 </r>
       <r>    0.4876    1.0000 </r>
       <r>    0.5051    1.0000 </r>
       <r>    0.5205    1.0000 </r>
       <r>    0.5403    1.0000 </r>
       <r>    0.5626    1.0000 </r>
       <r>    0.5905    1.0000 </r>
       <r>    0.5965    1.0000 </r>
       <r>    0.6150    1.0000 </r>
       <r>    0.6214    1.0000 </r>
       <r>    0.6442    1.0000 </r>
       <r>    0.6607    1.0000 </r>
       <r>    0.6795    1.0000 </r>
       <r>    0.6972    1.0000 </r>
       <r>    0.7127    1.0000 </r>
       <r>    0.7371    1.0000 </r>
       <r>    0.7549    1.0000 </r>
       <r>    0.7609    1.0000 </r>
       <r>    0.7864    1.0000 </r>
       <r>    0.8048    1.0000 </r>
       <r>    0.8179    1.0000 </r>
       <r>    0.8440    1.0000 </r>
       <r>    0.8732    1.0000 </r>
       <r>    0.8921    1.0000 </r>
       <r>    0.9045    1.0000 </r>
       <r>    0.9191    1.0000 </r>
       <r>    0.9638    1.0000 </r>
       <r>    0.9860    1.0000 </r>
       <r>    0.9901    1.0000 </r>
       <r>    1.0171    1.0000 </r>
       <r>    1.0435    1.0000 </r>
       <r>    1.0503    1.0000 </r>
       <r>    1.0833    1.0000 </r>
       <r>    1.1144    1.0000 </r>
       <r>    1.1328    1.0000 </r>
       <r>    1.1575    1.0000 </r>
       <r>    1.1771    1.0000 </r>
       <r>    1.2089    1.0000 </r>
       <r>    1.2233    1.0000 </r>
       <r>    1.2641    1.0000 </r>
       <r>    1.2787    1.0000 </r>
       <r>    1.3239    1.0000 </r>
       <r>    1.3522    1.0000 </r>
       <r>    1.3936    1.0000 </r>
       <r>    1.4263    1.0000 </r>
       <r>    1.4739    1.0000 </r>
       <r>    1.4830    1.0000 </r>
       <r>    1.4935    1.0000 </r>
       <r>    1.5145    1.0000 </r>
       <r>    1.5420    1.0000 </r>
       <r>    1.5957    1.0000 </r>
       <r>    1.6421    1.0000 </r>
       <r>    1.6541    1.0000 </r>
       <r>    1.6637    1.0000 </r>
       <r>    1.6816    1.0000 </r>
       <r>    1.7126    1.0000 </r>
       <r>    1.7503    1.0000 </r>
       <r>    1.7633    1.0000 </r>
       <r>    1.7970    1.0000 </r>
       <r>    1.8088    1.0000 </r>
       <r>    1.8483    1.0000 </r>
       <r>    1.8595    1.0000 </r>
       <r>    1.8995    1.0000 </r>
       <r>    1.9207    1.0000 </r>
       <r>    1.9487    1.0000 </r>
       <r>    1.9629    1.0000 </r>
       <r>    1.9827    1.0000 </r>
       <r>    1.9994    1.0000 </r>
       <r>    2.0130    1.0000 </r>
       <r>    2.0319    1.0000 </r>
       <r>    2.0463    1.0000 </r>
       <r>    2.0639    1.0000 </r>
       <r>    2.0927    1.0000 </r>
       <r>    2.1204    1.0000 </r>
       <r>    2.1458    1.0000 </r>
       <r>    2.1728    1.0000 </r>
       <r>    2.2028    1.0000 </r>
       <r>    2.2193    1.0000 </r>
       <r>    2.2357    1.0000 </r>
       <r>    2.2617    1.0000 </r>
       <r>    2.2731    1.0000 </r>
       <r>    2.2940    1.0000 </r>
       <r>    2.3131    1.0000 </r>
       <r>    2.3389    1.0000 </r>
       <r>    2.3866    1.0000 </r>
       <r>    2.4179    1.0000 </r>
       <r>    2.4291    1.0000 </r>
       <r>    2.4542    1.0000 </r>
       <r>    2.4763    1.0000 </r>
       <r>    2.4988    1.0000 </r>
       <r>    2.5375    1.0000 </r>
       <r>    2.5897    1.0000 </r>
       <r>    2.6077    1.0000 </r>
       <r>    2.6437    1.0000 </r>
       <r>    2.6685    1.0000 </r>
       <r>    2.7206    1.0000 </r>
       <r>    2.7383    1.0000 </r>
       <r>    2.8098    1.0000 </r>
       <r>    2.8433    1.0000 </r>
       <r>    2.8572    1.0000 </r>
       <r>    2.8705    1.0000 </r>
       <r>    2.8905    1.0000 </r>
       <r>    2.9212    1.0000 </r>
       <r>    2.9564    1.0000 </r>
       <r>    2.9986    1.0000 </r>
       <r>    3.0308    1.0000 </r>
       <r>    3.0826    1.0000 </r>
       <r>    3.1016    1.0000 </r>
       <r>    3.1360    1.0000 </r>
       <r>    3.1845    1.0000 </r>
       <r>    3.2197    0.9998 </r>
       <r>    3.2584    0.9988 </r>
       <r>    3.2849    0.9961 </r>
       <r>    3.3073    0.9906 </r>
       <r>    3.3370    0.9731 </r>
       <r>    3.3742    0.9195 </r>
       <r>    3.4497    0.6309 </r>
       <r>    3.5105    0.2997 </r>
       <r>    3.5454    0.1542 </r>
       <r>    3.5509    0.1364 </r>
       <r>    3.5733    0.0788 </r>
       <r>    3.6091    0.0275 </r>
       <r>    3.7352    0.0001 </r>
       <r>    3.7653    0.0000 </r>
       <r>    3.7863    0.0000 </r>
       <r>    3.8135    0.0000 </r>
       <r>    3.8386    0.0000 </r>
       <r>    3.8680    0.0000 </r>
       <r>    3.8738    0.0000 </r>
       <r>    3.8941    0.0000 </r>
       <r>    3.9223    0.0000 </r>
       <r>    3.9319    0.0000 </r>
       <r>    3.9478    0.0000 </r>
       <r>    3.9820    0.0000 </r>
       <r>    3.9964    0.0000 </r>
       <r>    4.0277    0.0000 </r>
       <r>    4.0508    0.0000 </r>
       <r>    4.1008    0.0000 </r>
       <r>    4.1102    0.0000 </r>
       <r>    4.1509    0.0000 </r>
       <r>    4.1821    0.0000 </r>
       <r>    4.2546    0.0000 </r>
       <r>    4.2936    0.0000 </r>
       <r>    4.3197    0.0000 </r>
       <r>    4.3267    0.0000 </r>
       <r>    4.3468    0.0000 </r>
       <r>    4.3784    0.0000 </r>
       <r>    4.4085    0.0000 </r>
       <r>    4.4178    0.0000 </r>
       <r>    4.4279    0.0000 </r>
       <r>    4.4439    0.0000 </r>
       <r>    4.4761    0.0000 </r>
       <r>    4.4908    0.0000 </r>
       <r>    4.4973    0.0000 </r>
       <r>    4.5250    0.0000 </r>
       <r>    4.5398    0.0000 </r>
       <r>    4.5744    0.0000 </r>
       <r>    4.5916    0.0000 </r>
       <r>    4.6275    0.0000 </r>
       <r>    4.6407    0.0000 </r>
       <r>    4.6619    0.0000 </r>
       <r>    4.6805    0.0000 </r>
       <r>    4.6973    0.0000 </r>
       <r>    4.7158    0.0000 </r>
       <r>    4.7442    0.0000 </r>
       <r>    4.7748    0.0000 </r>
       <r>    4.7900    0.0000 </r>
       <r>    4.8058    0.0000 </r>
       <r>    4.8249    0.0000 </r>
       <r>    4.8522    0.0000 </r>
       <r>    4.8659    0.0000 </r>
       <r>    4.8677    0.0000 </r>
       <r>    4.8999    0.0000 </r>
       <r>    4.9136    0.0000 </r>
       <r>    4.9284    0.0000 </r>
       <r>    4.9436    0.0000 </r>
       <r>    4.9544    0.0000 </r>
       <r>    5.0064    0.0000 </r>
       <r>    5.0243    0.0000 </r>
       <r>    5.0564    0.0000 </r>
       <r>    5.0941    0.0000 </r>
       <r>    5.1131    0.0000 </r>
       <r>    5.1495    0.0000 </r>
       <r>    5.1789    0.0000 </r>
       <r>    5.1911    0.0000 </r>
       <r>    5.2012    0.0000 </r>
       <r>    5.2108    0.0000 </r>
       <r>    5.2232    0.0000 </r>
       <r>    5.2374    0.0000 </r>
       <r>    5.2690    0.0000 </r>
       <r>    5.2794    0.0000 </r>
       <r>    5.2868    0.0000 </r>
       <r>    5.2954    0.0000 </r>
       <r>    5.3243    0.0000 </r>
       <r>    5.3328    0.0000 </r>
       <r>    5.3550    0.0000 </r>
       <r>    5.3801    0.0000 </r>
       <r>    5.4170    0.0000 </r>
       <r>    5.4276    0.0000 </r>
       <r>    5.4667    0.0000 </r>
       <r>    5.4901    0.0000 </r>
       <r>    5.5193    0.0000 </r>
       <r>    5.5463    0.0000 </r>
       <r>    5.5537    0.0000 </r>
      </set>
      <set comment="kpoint 3">
       <r>  -57.7293    1.0000 </r>
       <r>  -57.6785    1.0000 </r>
       <r>  -57.6634    1.0000 </r>
       <r>  -57.6380    1.0000 </r>
       <r>  -57.6336    1.0000 </r>
       <r>  -57.6249    1.0000 </r>
       <r>  -57.6106    1.0000 </r>
       <r>  -57.6077    1.0000 </r>
       <r>  -57.6035    1.0000 </r>
       <r>  -57.5983    1.0000 </r>
       <r>  -57.5942    1.0000 </r>
       <r>  -57.5859    1.0000 </r>
       <r>  -57.5827    1.0000 </r>
       <r>  -57.5769    1.0000 </r>
       <r>  -57.5729    1.0000 </r>
       <r>  -57.5669    1.0000 </r>
       <r>  -57.5634    1.0000 </r>
       <r>  -57.5521    1.0000 </r>
       <r>  -57.5222    1.0000 </r>
       <r>  -57.5024    1.0000 </r>
       <r>  -57.4867    1.0000 </r>
       <r>  -57.4797    1.0000 </r>
       <r>  -57.4698    1.0000 </r>
       <r>  -57.4644    1.0000 </r>
       <r>  -57.4599    1.0000 </r>
       <r>  -57.4585    1.0000 </r>
       <r>  -57.4566    1.0000 </r>
       <r>  -57.4552    1.0000 </r>
       <r>  -57.4509    1.0000 </r>
       <r>  -57.4486    1.0000 </r>
       <r>  -57.4468    1.0000 </r>
       <r>  -57.4458    1.0000 </r>
       <r>  -57.4429    1.0000 </r>
       <r>  -57.4425    1.0000 </r>
       <r>  -57.4367    1.0000 </r>
       <r>  -57.4333    1.0000 </r>
       <r>  -57.4289    1.0000 </r>
       <r>  -57.4267    1.0000 </r>
       <r>  -57.4240    1.0000 </r>
       <r>  -57.4172    1.0000 </r>
       <r>  -57.4160    1.0000 </r>
       <r>  -57.4001    1.0000 </r>
       <r>  -57.3865    1.0000 </r>
       <r>  -57.3612    1.0000 </r>
       <r>  -57.3364    1.0000 </r>
       <r>  -57.3182    1.0000 </r>
       <r>  -57.2688    1.0000 </r>
       <r>  -57.2552    1.0000 </r>
       <r>  -57.2503    1.0000 </r>
       <r>  -57.2485    1.0000 </r>
       <r>  -57.2464    1.0000 </r>
       <r>  -57.2437    1.0000 </r>
       <r>  -57.2417    1.0000 </r>
       <r>  -57.2404    1.0000 </r>
       <r>  -57.2386    1.0000 </r>
       <r>  -57.2380    1.0000 </r>
       <r>  -57.2281    1.0000 </r>
       <r>  -57.2268    1.0000 </r>
       <r>  -57.2112    1.0000 </r>
       <r>  -57.1866    1.0000 </r>
       <r>  -51.7939    1.0000 </r>
       <r>  -51.7865    1.0000 </r>
       <r>  -32.3299    1.0000 </r>
       <r>  -32.3056    1.0000 </r>
       <r>  -32.2907    1.0000 </r>
       <r>  -32.2643    1.0000 </r>
       <r>  -32.2481    1.0000 </r>
       <r>  -32.2387    1.0000 </r>
       <r>  -32.2331    1.0000 </r>
       <r>  -32.2190    1.0000 </r>
       <r>  -32.2062    1.0000 </r>
       <r>  -32.1944    1.0000 </r>
       <r>  -32.1790    1.0000 </r>
       <r>  -32.1705    1.0000 </r>
       <r>  -32.1682    1.0000 </r>
       <r>  -32.1640    1.0000 </r>
       <r>  -32.1570    1.0000 </r>
       <r>  -32.1513    1.0000 </r>
       <r>  -32.1387    1.0000 </r>
       <r>  -32.1334    1.0000 </r>
       <r>  -32.1227    1.0000 </r>
       <r>  -32.1173    1.0000 </r>
       <r>  -32.1132    1.0000 </r>
       <r>  -32.1047    1.0000 </r>
       <r>  -32.1004    1.0000 </r>
       <r>  -32.0907    1.0000 </r>
       <r>  -32.0853    1.0000 </r>
       <r>  -32.0760    1.0000 </r>
       <r>  -32.0687    1.0000 </r>
       <r>  -32.0552    1.0000 </r>
       <r>  -32.0517    1.0000 </r>
       <r>  -32.0400    1.0000 </r>
       <r>  -32.0343    1.0000 </r>
       <r>  -32.0211    1.0000 </r>
       <r>  -32.0091    1.0000 </r>
       <r>  -31.9962    1.0000 </r>
       <r>  -31.9908    1.0000 </r>
       <r>  -31.9826    1.0000 </r>
       <r>  -31.9705    1.0000 </r>
       <r>  -31.9598    1.0000 </r>
       <r>  -31.9441    1.0000 </r>
       <r>  -31.9302    1.0000 </r>
       <r>  -31.9233    1.0000 </r>
       <r>  -31.9116    1.0000 </r>
       <r>  -31.9015    1.0000 </r>
       <r>  -31.8944    1.0000 </r>
       <r>  -31.8751    1.0000 </r>
       <r>  -31.8572    1.0000 </r>
       <r>  -31.8499    1.0000 </r>
       <r>  -31.8394    1.0000 </r>
       <r>  -31.8342    1.0000 </r>
       <r>  -31.8291    1.0000 </r>
       <r>  -31.8173    1.0000 </r>
       <r>  -31.8118    1.0000 </r>
       <r>  -31.7963    1.0000 </r>
       <r>  -31.7848    1.0000 </r>
       <r>  -31.7699    1.0000 </r>
       <r>  -31.7602    1.0000 </r>
       <r>  -31.7452    1.0000 </r>
       <r>  -31.7415    1.0000 </r>
       <r>  -31.7359    1.0000 </r>
       <r>  -31.7261    1.0000 </r>
       <r>  -31.7214    1.0000 </r>
       <r>  -31.7149    1.0000 </r>
       <r>  -31.7034    1.0000 </r>
       <r>  -31.6968    1.0000 </r>
       <r>  -31.6904    1.0000 </r>
       <r>  -31.6865    1.0000 </r>
       <r>  -31.6835    1.0000 </r>
       <r>  -31.6777    1.0000 </r>
       <r>  -31.6696    1.0000 </r>
       <r>  -31.6639    1.0000 </r>
       <r>  -31.6593    1.0000 </r>
       <r>  -31.6474    1.0000 </r>
       <r>  -31.6403    1.0000 </r>
       <r>  -31.6275    1.0000 </r>
       <r>  -31.6152    1.0000 </r>
       <r>  -31.6074    1.0000 </r>
       <r>  -31.5946    1.0000 </r>
       <r>  -31.5913    1.0000 </r>
       <r>  -31.5778    1.0000 </r>
       <r>  -31.5718    1.0000 </r>
       <r>  -31.5630    1.0000 </r>
       <r>  -31.5590    1.0000 </r>
       <r>  -31.5550    1.0000 </r>
       <r>  -31.5429    1.0000 </r>
       <r>  -31.5362    1.0000 </r>
       <r>  -31.5227    1.0000 </r>
       <r>  -31.5148    1.0000 </r>
       <r>  -31.5001    1.0000 </r>
       <r>  -31.4927    1.0000 </r>
       <r>  -31.4856    1.0000 </r>
       <r>  -31.4776    1.0000 </r>
       <r>  -31.4690    1.0000 </r>
       <r>  -31.4636    1.0000 </r>
       <r>  -31.4558    1.0000 </r>
       <r>  -31.4457    1.0000 </r>
       <r>  -31.4382    1.0000 </r>
       <r>  -31.4371    1.0000 </r>
       <r>  -31.4345    1.0000 </r>
       <r>  -31.4298    1.0000 </r>
       <r>  -31.4232    1.0000 </r>
       <r>  -31.4212    1.0000 </r>
       <r>  -31.4177    1.0000 </r>
       <r>  -31.4061    1.0000 </r>
       <r>  -31.4053    1.0000 </r>
       <r>  -31.3992    1.0000 </r>
       <r>  -31.3912    1.0000 </r>
       <r>  -31.3846    1.0000 </r>
       <r>  -31.3796    1.0000 </r>
       <r>  -31.3690    1.0000 </r>
       <r>  -31.3650    1.0000 </r>
       <r>  -31.3556    1.0000 </r>
       <r>  -31.3473    1.0000 </r>
       <r>  -31.3418    1.0000 </r>
       <r>  -31.3189    1.0000 </r>
       <r>  -31.3145    1.0000 </r>
       <r>  -31.3082    1.0000 </r>
       <r>  -31.3014    1.0000 </r>
       <r>  -31.2974    1.0000 </r>
       <r>  -31.2938    1.0000 </r>
       <r>  -31.2911    1.0000 </r>
       <r>  -31.2847    1.0000 </r>
       <r>  -31.2800    1.0000 </r>
       <r>  -31.2785    1.0000 </r>
       <r>  -31.2736    1.0000 </r>
       <r>  -31.2688    1.0000 </r>
       <r>  -31.2624    1.0000 </r>
       <r>  -31.2551    1.0000 </r>
       <r>  -31.2465    1.0000 </r>
       <r>  -31.2429    1.0000 </r>
       <r>  -31.2360    1.0000 </r>
       <r>  -31.2321    1.0000 </r>
       <r>  -31.2263    1.0000 </r>
       <r>  -31.2210    1.0000 </r>
       <r>  -31.2177    1.0000 </r>
       <r>  -31.2142    1.0000 </r>
       <r>  -31.2084    1.0000 </r>
       <r>  -31.1993    1.0000 </r>
       <r>  -31.1940    1.0000 </r>
       <r>  -31.1920    1.0000 </r>
       <r>  -31.1827    1.0000 </r>
       <r>  -31.1778    1.0000 </r>
       <r>  -31.1692    1.0000 </r>
       <r>  -31.1607    1.0000 </r>
       <r>  -31.1571    1.0000 </r>
       <r>  -31.1542    1.0000 </r>
       <r>  -31.1500    1.0000 </r>
       <r>  -31.1374    1.0000 </r>
       <r>  -31.1291    1.0000 </r>
       <r>  -31.1213    1.0000 </r>
       <r>  -31.1202    1.0000 </r>
       <r>  -31.1182    1.0000 </r>
       <r>  -31.1112    1.0000 </r>
       <r>  -31.1054    1.0000 </r>
       <r>  -31.1028    1.0000 </r>
       <r>  -31.1006    1.0000 </r>
       <r>  -31.0940    1.0000 </r>
       <r>  -31.0903    1.0000 </r>
       <r>  -31.0884    1.0000 </r>
       <r>  -31.0833    1.0000 </r>
       <r>  -31.0794    1.0000 </r>
       <r>  -31.0771    1.0000 </r>
       <r>  -31.0742    1.0000 </r>
       <r>  -31.0649    1.0000 </r>
       <r>  -31.0628    1.0000 </r>
       <r>  -31.0538    1.0000 </r>
       <r>  -31.0523    1.0000 </r>
       <r>  -31.0463    1.0000 </r>
       <r>  -31.0416    1.0000 </r>
       <r>  -31.0351    1.0000 </r>
       <r>  -31.0285    1.0000 </r>
       <r>  -31.0268    1.0000 </r>
       <r>  -31.0258    1.0000 </r>
       <r>  -31.0125    1.0000 </r>
       <r>  -30.9827    1.0000 </r>
       <r>  -30.9694    1.0000 </r>
       <r>  -30.9601    1.0000 </r>
       <r>  -30.9546    1.0000 </r>
       <r>  -30.9352    1.0000 </r>
       <r>  -30.9252    1.0000 </r>
       <r>  -30.9175    1.0000 </r>
       <r>  -27.9822    1.0000 </r>
       <r>  -27.9452    1.0000 </r>
       <r>  -27.8698    1.0000 </r>
       <r>  -27.8447    1.0000 </r>
       <r>  -27.7363    1.0000 </r>
       <r>  -27.7306    1.0000 </r>
       <r>  -16.1866    1.0000 </r>
       <r>   -3.1211    1.0000 </r>
       <r>   -2.9615    1.0000 </r>
       <r>   -2.5680    1.0000 </r>
       <r>   -2.4961    1.0000 </r>
       <r>   -2.1280    1.0000 </r>
       <r>   -2.0674    1.0000 </r>
       <r>   -1.5226    1.0000 </r>
       <r>   -1.4814    1.0000 </r>
       <r>   -1.4174    1.0000 </r>
       <r>   -1.3938    1.0000 </r>
       <r>   -1.3556    1.0000 </r>
       <r>   -1.3499    1.0000 </r>
       <r>   -1.3405    1.0000 </r>
       <r>   -1.2304    1.0000 </r>
       <r>   -1.2064    1.0000 </r>
       <r>   -1.1102    1.0000 </r>
       <r>   -1.0600    1.0000 </r>
       <r>   -1.0547    1.0000 </r>
       <r>   -1.0521    1.0000 </r>
       <r>   -1.0431    1.0000 </r>
       <r>   -1.0189    1.0000 </r>
       <r>   -1.0053    1.0000 </r>
       <r>   -0.9450    1.0000 </r>
       <r>   -0.9195    1.0000 </r>
       <r>   -0.8931    1.0000 </r>
       <r>   -0.8830    1.0000 </r>
       <r>   -0.8688    1.0000 </r>
       <r>   -0.8424    1.0000 </r>
       <r>   -0.8155    1.0000 </r>
       <r>   -0.7836    1.0000 </r>
       <r>   -0.7487    1.0000 </r>
       <r>   -0.7117    1.0000 </r>
       <r>   -0.5744    1.0000 </r>
       <r>   -0.4890    1.0000 </r>
       <r>   -0.4371    1.0000 </r>
       <r>   -0.4313    1.0000 </r>
       <r>   -0.3774    1.0000 </r>
       <r>   -0.3744    1.0000 </r>
       <r>   -0.3642    1.0000 </r>
       <r>   -0.3088    1.0000 </r>
       <r>   -0.3000    1.0000 </r>
       <r>   -0.2890    1.0000 </r>
       <r>   -0.2477    1.0000 </r>
       <r>   -0.2260    1.0000 </r>
       <r>   -0.2046    1.0000 </r>
       <r>   -0.1468    1.0000 </r>
       <r>   -0.1282    1.0000 </r>
       <r>   -0.1028    1.0000 </r>
       <r>   -0.0944    1.0000 </r>
       <r>   -0.0419    1.0000 </r>
       <r>   -0.0237    1.0000 </r>
       <r>   -0.0063    1.0000 </r>
       <r>   -0.0002    1.0000 </r>
       <r>    0.0166    1.0000 </r>
       <r>    0.0286    1.0000 </r>
       <r>    0.0565    1.0000 </r>
       <r>    0.1087    1.0000 </r>
       <r>    0.1755    1.0000 </r>
       <r>    0.1871    1.0000 </r>
       <r>    0.1910    1.0000 </r>
       <r>    0.2688    1.0000 </r>
       <r>    0.3203    1.0000 </r>
       <r>    0.3317    1.0000 </r>
       <r>    0.3457    1.0000 </r>
       <r>    0.3602    1.0000 </r>
       <r>    0.3746    1.0000 </r>
       <r>    0.3966    1.0000 </r>
       <r>    0.4076    1.0000 </r>
       <r>    0.4214    1.0000 </r>
       <r>    0.4501    1.0000 </r>
       <r>    0.4731    1.0000 </r>
       <r>    0.4875    1.0000 </r>
       <r>    0.5086    1.0000 </r>
       <r>    0.5203    1.0000 </r>
       <r>    0.5422    1.0000 </r>
       <r>    0.5634    1.0000 </r>
       <r>    0.5869    1.0000 </r>
       <r>    0.6004    1.0000 </r>
       <r>    0.6168    1.0000 </r>
       <r>    0.6221    1.0000 </r>
       <r>    0.6442    1.0000 </r>
       <r>    0.6582    1.0000 </r>
       <r>    0.6813    1.0000 </r>
       <r>    0.6942    1.0000 </r>
       <r>    0.7128    1.0000 </r>
       <r>    0.7385    1.0000 </r>
       <r>    0.7526    1.0000 </r>
       <r>    0.7616    1.0000 </r>
       <r>    0.7869    1.0000 </r>
       <r>    0.8060    1.0000 </r>
       <r>    0.8168    1.0000 </r>
       <r>    0.8447    1.0000 </r>
       <r>    0.8735    1.0000 </r>
       <r>    0.8901    1.0000 </r>
       <r>    0.9042    1.0000 </r>
       <r>    0.9193    1.0000 </r>
       <r>    0.9644    1.0000 </r>
       <r>    0.9879    1.0000 </r>
       <r>    0.9903    1.0000 </r>
       <r>    1.0184    1.0000 </r>
       <r>    1.0435    1.0000 </r>
       <r>    1.0510    1.0000 </r>
       <r>    1.0836    1.0000 </r>
       <r>    1.1124    1.0000 </r>
       <r>    1.1309    1.0000 </r>
       <r>    1.1596    1.0000 </r>
       <r>    1.1781    1.0000 </r>
       <r>    1.2064    1.0000 </r>
       <r>    1.2215    1.0000 </r>
       <r>    1.2646    1.0000 </r>
       <r>    1.2764    1.0000 </r>
       <r>    1.3233    1.0000 </r>
       <r>    1.3524    1.0000 </r>
       <r>    1.3933    1.0000 </r>
       <r>    1.4218    1.0000 </r>
       <r>    1.4762    1.0000 </r>
       <r>    1.4824    1.0000 </r>
       <r>    1.4936    1.0000 </r>
       <r>    1.5169    1.0000 </r>
       <r>    1.5402    1.0000 </r>
       <r>    1.5989    1.0000 </r>
       <r>    1.6420    1.0000 </r>
       <r>    1.6533    1.0000 </r>
       <r>    1.6640    1.0000 </r>
       <r>    1.6797    1.0000 </r>
       <r>    1.7136    1.0000 </r>
       <r>    1.7477    1.0000 </r>
       <r>    1.7627    1.0000 </r>
       <r>    1.7970    1.0000 </r>
       <r>    1.8070    1.0000 </r>
       <r>    1.8487    1.0000 </r>
       <r>    1.8620    1.0000 </r>
       <r>    1.8984    1.0000 </r>
       <r>    1.9214    1.0000 </r>
       <r>    1.9480    1.0000 </r>
       <r>    1.9619    1.0000 </r>
       <r>    1.9814    1.0000 </r>
       <r>    2.0012    1.0000 </r>
       <r>    2.0118    1.0000 </r>
       <r>    2.0330    1.0000 </r>
       <r>    2.0442    1.0000 </r>
       <r>    2.0639    1.0000 </r>
       <r>    2.0908    1.0000 </r>
       <r>    2.1206    1.0000 </r>
       <r>    2.1465    1.0000 </r>
       <r>    2.1688    1.0000 </r>
       <r>    2.1998    1.0000 </r>
       <r>    2.2210    1.0000 </r>
       <r>    2.2326    1.0000 </r>
       <r>    2.2618    1.0000 </r>
       <r>    2.2740    1.0000 </r>
       <r>    2.2932    1.0000 </r>
       <r>    2.3094    1.0000 </r>
       <r>    2.3380    1.0000 </r>
       <r>    2.3861    1.0000 </r>
       <r>    2.4108    1.0000 </r>
       <r>    2.4327    1.0000 </r>
       <r>    2.4527    1.0000 </r>
       <r>    2.4777    1.0000 </r>
       <r>    2.4986    1.0000 </r>
       <r>    2.5319    1.0000 </r>
       <r>    2.5898    1.0000 </r>
       <r>    2.6011    1.0000 </r>
       <r>    2.6465    1.0000 </r>
       <r>    2.6674    1.0000 </r>
       <r>    2.7201    1.0000 </r>
       <r>    2.7497    1.0000 </r>
       <r>    2.8101    1.0000 </r>
       <r>    2.8469    1.0000 </r>
       <r>    2.8623    1.0000 </r>
       <r>    2.8711    1.0000 </r>
       <r>    2.8907    1.0000 </r>
       <r>    2.9202    1.0000 </r>
       <r>    2.9591    1.0000 </r>
       <r>    2.9925    1.0000 </r>
       <r>    3.0200    1.0000 </r>
       <r>    3.0815    1.0000 </r>
       <r>    3.0986    1.0000 </r>
       <r>    3.1354    1.0000 </r>
       <r>    3.1866    1.0000 </r>
       <r>    3.2172    0.9999 </r>
       <r>    3.2544    0.9990 </r>
       <r>    3.2850    0.9961 </r>
       <r>    3.3070    0.9907 </r>
       <r>    3.3404    0.9700 </r>
       <r>    3.3686    0.9307 </r>
       <r>    3.4597    0.5766 </r>
       <r>    3.5134    0.2858 </r>
       <r>    3.5450    0.1554 </r>
       <r>    3.5498    0.1398 </r>
       <r>    3.5737    0.0780 </r>
       <r>    3.6243    0.0164 </r>
       <r>    3.7372    0.0001 </r>
       <r>    3.7742    0.0000 </r>
       <r>    3.7873    0.0000 </r>
       <r>    3.8145    0.0000 </r>
       <r>    3.8423    0.0000 </r>
       <r>    3.8666    0.0000 </r>
       <r>    3.8738    0.0000 </r>
       <r>    3.8888    0.0000 </r>
       <r>    3.9111    0.0000 </r>
       <r>    3.9326    0.0000 </r>
       <r>    3.9606    0.0000 </r>
       <r>    3.9830    0.0000 </r>
       <r>    3.9937    0.0000 </r>
       <r>    4.0400    0.0000 </r>
       <r>    4.0490    0.0000 </r>
       <r>    4.1048    0.0000 </r>
       <r>    4.1143    0.0000 </r>
       <r>    4.1550    0.0000 </r>
       <r>    4.1774    0.0000 </r>
       <r>    4.2486    0.0000 </r>
       <r>    4.2864    0.0000 </r>
       <r>    4.3169    0.0000 </r>
       <r>    4.3271    0.0000 </r>
       <r>    4.3435    0.0000 </r>
       <r>    4.3775    0.0000 </r>
       <r>    4.4098    0.0000 </r>
       <r>    4.4172    0.0000 </r>
       <r>    4.4282    0.0000 </r>
       <r>    4.4457    0.0000 </r>
       <r>    4.4746    0.0000 </r>
       <r>    4.4904    0.0000 </r>
       <r>    4.4921    0.0000 </r>
       <r>    4.5215    0.0000 </r>
       <r>    4.5423    0.0000 </r>
       <r>    4.5764    0.0000 </r>
       <r>    4.5918    0.0000 </r>
       <r>    4.6321    0.0000 </r>
       <r>    4.6417    0.0000 </r>
       <r>    4.6647    0.0000 </r>
       <r>    4.6812    0.0000 </r>
       <r>    4.6972    0.0000 </r>
       <r>    4.7136    0.0000 </r>
       <r>    4.7451    0.0000 </r>
       <r>    4.7710    0.0000 </r>
       <r>    4.7892    0.0000 </r>
       <r>    4.8075    0.0000 </r>
       <r>    4.8266    0.0000 </r>
       <r>    4.8504    0.0000 </r>
       <r>    4.8659    0.0000 </r>
       <r>    4.8691    0.0000 </r>
       <r>    4.8991    0.0000 </r>
       <r>    4.9138    0.0000 </r>
       <r>    4.9264    0.0000 </r>
       <r>    4.9445    0.0000 </r>
       <r>    4.9593    0.0000 </r>
       <r>    5.0071    0.0000 </r>
       <r>    5.0225    0.0000 </r>
       <r>    5.0585    0.0000 </r>
       <r>    5.0942    0.0000 </r>
       <r>    5.1090    0.0000 </r>
       <r>    5.1529    0.0000 </r>
       <r>    5.1767    0.0000 </r>
       <r>    5.1935    0.0000 </r>
       <r>    5.2002    0.0000 </r>
       <r>    5.2108    0.0000 </r>
       <r>    5.2241    0.0000 </r>
       <r>    5.2376    0.0000 </r>
       <r>    5.2686    0.0000 </r>
       <r>    5.2772    0.0000 </r>
       <r>    5.2887    0.0000 </r>
       <r>    5.2942    0.0000 </r>
       <r>    5.3209    0.0000 </r>
       <r>    5.3337    0.0000 </r>
       <r>    5.3526    0.0000 </r>
       <r>    5.3816    0.0000 </r>
       <r>    5.4163    0.0000 </r>
       <r>    5.4245    0.0000 </r>
       <r>    5.4731    0.0000 </r>
       <r>    5.4907    0.0000 </r>
       <r>    5.5095    0.0000 </r>
       <r>    5.5346    0.0000 </r>
       <r>    5.5579    0.0000 </r>
      </set>
      <set comment="kpoint 4">
       <r>  -57.7110    1.0000 </r>
       <r>  -57.7062    1.0000 </r>
       <r>  -57.6537    1.0000 </r>
       <r>  -57.6470    1.0000 </r>
       <r>  -57.6292    1.0000 </r>
       <r>  -57.6245    1.0000 </r>
       <r>  -57.6185    1.0000 </r>
       <r>  -57.6171    1.0000 </r>
       <r>  -57.5978    1.0000 </r>
       <r>  -57.5942    1.0000 </r>
       <r>  -57.5907    1.0000 </r>
       <r>  -57.5905    1.0000 </r>
       <r>  -57.5778    1.0000 </r>
       <r>  -57.5742    1.0000 </r>
       <r>  -57.5690    1.0000 </r>
       <r>  -57.5633    1.0000 </r>
       <r>  -57.5601    1.0000 </r>
       <r>  -57.5506    1.0000 </r>
       <r>  -57.5191    1.0000 </r>
       <r>  -57.5024    1.0000 </r>
       <r>  -57.4885    1.0000 </r>
       <r>  -57.4789    1.0000 </r>
       <r>  -57.4725    1.0000 </r>
       <r>  -57.4643    1.0000 </r>
       <r>  -57.4617    1.0000 </r>
       <r>  -57.4576    1.0000 </r>
       <r>  -57.4566    1.0000 </r>
       <r>  -57.4548    1.0000 </r>
       <r>  -57.4539    1.0000 </r>
       <r>  -57.4509    1.0000 </r>
       <r>  -57.4502    1.0000 </r>
       <r>  -57.4480    1.0000 </r>
       <r>  -57.4463    1.0000 </r>
       <r>  -57.4438    1.0000 </r>
       <r>  -57.4365    1.0000 </r>
       <r>  -57.4341    1.0000 </r>
       <r>  -57.4287    1.0000 </r>
       <r>  -57.4246    1.0000 </r>
       <r>  -57.4219    1.0000 </r>
       <r>  -57.4188    1.0000 </r>
       <r>  -57.4168    1.0000 </r>
       <r>  -57.3982    1.0000 </r>
       <r>  -57.3735    1.0000 </r>
       <r>  -57.3686    1.0000 </r>
       <r>  -57.3337    1.0000 </r>
       <r>  -57.3196    1.0000 </r>
       <r>  -57.2706    1.0000 </r>
       <r>  -57.2572    1.0000 </r>
       <r>  -57.2501    1.0000 </r>
       <r>  -57.2485    1.0000 </r>
       <r>  -57.2464    1.0000 </r>
       <r>  -57.2438    1.0000 </r>
       <r>  -57.2418    1.0000 </r>
       <r>  -57.2409    1.0000 </r>
       <r>  -57.2401    1.0000 </r>
       <r>  -57.2333    1.0000 </r>
       <r>  -57.2306    1.0000 </r>
       <r>  -57.2279    1.0000 </r>
       <r>  -57.2040    1.0000 </r>
       <r>  -57.1905    1.0000 </r>
       <r>  -51.7939    1.0000 </r>
       <r>  -51.7865    1.0000 </r>
       <r>  -32.3473    1.0000 </r>
       <r>  -32.3156    1.0000 </r>
       <r>  -32.2861    1.0000 </r>
       <r>  -32.2628    1.0000 </r>
       <r>  -32.2389    1.0000 </r>
       <r>  -32.2321    1.0000 </r>
       <r>  -32.2182    1.0000 </r>
       <r>  -32.2083    1.0000 </r>
       <r>  -32.2031    1.0000 </r>
       <r>  -32.1963    1.0000 </r>
       <r>  -32.1879    1.0000 </r>
       <r>  -32.1835    1.0000 </r>
       <r>  -32.1730    1.0000 </r>
       <r>  -32.1700    1.0000 </r>
       <r>  -32.1669    1.0000 </r>
       <r>  -32.1496    1.0000 </r>
       <r>  -32.1432    1.0000 </r>
       <r>  -32.1363    1.0000 </r>
       <r>  -32.1245    1.0000 </r>
       <r>  -32.1215    1.0000 </r>
       <r>  -32.1132    1.0000 </r>
       <r>  -32.1075    1.0000 </r>
       <r>  -32.0986    1.0000 </r>
       <r>  -32.0855    1.0000 </r>
       <r>  -32.0811    1.0000 </r>
       <r>  -32.0778    1.0000 </r>
       <r>  -32.0681    1.0000 </r>
       <r>  -32.0660    1.0000 </r>
       <r>  -32.0568    1.0000 </r>
       <r>  -32.0544    1.0000 </r>
       <r>  -32.0490    1.0000 </r>
       <r>  -32.0352    1.0000 </r>
       <r>  -32.0266    1.0000 </r>
       <r>  -32.0082    1.0000 </r>
       <r>  -31.9946    1.0000 </r>
       <r>  -31.9708    1.0000 </r>
       <r>  -31.9494    1.0000 </r>
       <r>  -31.9308    1.0000 </r>
       <r>  -31.9214    1.0000 </r>
       <r>  -31.9197    1.0000 </r>
       <r>  -31.9027    1.0000 </r>
       <r>  -31.8952    1.0000 </r>
       <r>  -31.8878    1.0000 </r>
       <r>  -31.8755    1.0000 </r>
       <r>  -31.8715    1.0000 </r>
       <r>  -31.8605    1.0000 </r>
       <r>  -31.8543    1.0000 </r>
       <r>  -31.8441    1.0000 </r>
       <r>  -31.8223    1.0000 </r>
       <r>  -31.8151    1.0000 </r>
       <r>  -31.8138    1.0000 </r>
       <r>  -31.8101    1.0000 </r>
       <r>  -31.8010    1.0000 </r>
       <r>  -31.7763    1.0000 </r>
       <r>  -31.7728    1.0000 </r>
       <r>  -31.7625    1.0000 </r>
       <r>  -31.7570    1.0000 </r>
       <r>  -31.7409    1.0000 </r>
       <r>  -31.7348    1.0000 </r>
       <r>  -31.7316    1.0000 </r>
       <r>  -31.7270    1.0000 </r>
       <r>  -31.7221    1.0000 </r>
       <r>  -31.7178    1.0000 </r>
       <r>  -31.7097    1.0000 </r>
       <r>  -31.6973    1.0000 </r>
       <r>  -31.6893    1.0000 </r>
       <r>  -31.6790    1.0000 </r>
       <r>  -31.6746    1.0000 </r>
       <r>  -31.6621    1.0000 </r>
       <r>  -31.6493    1.0000 </r>
       <r>  -31.6450    1.0000 </r>
       <r>  -31.6381    1.0000 </r>
       <r>  -31.6286    1.0000 </r>
       <r>  -31.6204    1.0000 </r>
       <r>  -31.6097    1.0000 </r>
       <r>  -31.6077    1.0000 </r>
       <r>  -31.5796    1.0000 </r>
       <r>  -31.5740    1.0000 </r>
       <r>  -31.5661    1.0000 </r>
       <r>  -31.5533    1.0000 </r>
       <r>  -31.5484    1.0000 </r>
       <r>  -31.5471    1.0000 </r>
       <r>  -31.5420    1.0000 </r>
       <r>  -31.5376    1.0000 </r>
       <r>  -31.5346    1.0000 </r>
       <r>  -31.5271    1.0000 </r>
       <r>  -31.5207    1.0000 </r>
       <r>  -31.5125    1.0000 </r>
       <r>  -31.5073    1.0000 </r>
       <r>  -31.5000    1.0000 </r>
       <r>  -31.4908    1.0000 </r>
       <r>  -31.4881    1.0000 </r>
       <r>  -31.4806    1.0000 </r>
       <r>  -31.4757    1.0000 </r>
       <r>  -31.4706    1.0000 </r>
       <r>  -31.4614    1.0000 </r>
       <r>  -31.4527    1.0000 </r>
       <r>  -31.4482    1.0000 </r>
       <r>  -31.4447    1.0000 </r>
       <r>  -31.4436    1.0000 </r>
       <r>  -31.4328    1.0000 </r>
       <r>  -31.4260    1.0000 </r>
       <r>  -31.4209    1.0000 </r>
       <r>  -31.4077    1.0000 </r>
       <r>  -31.4054    1.0000 </r>
       <r>  -31.4034    1.0000 </r>
       <r>  -31.3864    1.0000 </r>
       <r>  -31.3789    1.0000 </r>
       <r>  -31.3755    1.0000 </r>
       <r>  -31.3650    1.0000 </r>
       <r>  -31.3525    1.0000 </r>
       <r>  -31.3447    1.0000 </r>
       <r>  -31.3368    1.0000 </r>
       <r>  -31.3312    1.0000 </r>
       <r>  -31.3271    1.0000 </r>
       <r>  -31.3243    1.0000 </r>
       <r>  -31.3165    1.0000 </r>
       <r>  -31.3085    1.0000 </r>
       <r>  -31.2924    1.0000 </r>
       <r>  -31.2828    1.0000 </r>
       <r>  -31.2779    1.0000 </r>
       <r>  -31.2667    1.0000 </r>
       <r>  -31.2566    1.0000 </r>
       <r>  -31.2503    1.0000 </r>
       <r>  -31.2476    1.0000 </r>
       <r>  -31.2444    1.0000 </r>
       <r>  -31.2427    1.0000 </r>
       <r>  -31.2400    1.0000 </r>
       <r>  -31.2369    1.0000 </r>
       <r>  -31.2334    1.0000 </r>
       <r>  -31.2308    1.0000 </r>
       <r>  -31.2294    1.0000 </r>
       <r>  -31.2248    1.0000 </r>
       <r>  -31.2126    1.0000 </r>
       <r>  -31.2055    1.0000 </r>
       <r>  -31.2037    1.0000 </r>
       <r>  -31.2023    1.0000 </r>
       <r>  -31.1907    1.0000 </r>
       <r>  -31.1837    1.0000 </r>
       <r>  -31.1759    1.0000 </r>
       <r>  -31.1749    1.0000 </r>
       <r>  -31.1679    1.0000 </r>
       <r>  -31.1666    1.0000 </r>
       <r>  -31.1574    1.0000 </r>
       <r>  -31.1508    1.0000 </r>
       <r>  -31.1470    1.0000 </r>
       <r>  -31.1455    1.0000 </r>
       <r>  -31.1343    1.0000 </r>
       <r>  -31.1257    1.0000 </r>
       <r>  -31.1164    1.0000 </r>
       <r>  -31.1147    1.0000 </r>
       <r>  -31.1073    1.0000 </r>
       <r>  -31.0952    1.0000 </r>
       <r>  -31.0916    1.0000 </r>
       <r>  -31.0871    1.0000 </r>
       <r>  -31.0865    1.0000 </r>
       <r>  -31.0852    1.0000 </r>
       <r>  -31.0839    1.0000 </r>
       <r>  -31.0834    1.0000 </r>
       <r>  -31.0826    1.0000 </r>
       <r>  -31.0764    1.0000 </r>
       <r>  -31.0675    1.0000 </r>
       <r>  -31.0667    1.0000 </r>
       <r>  -31.0659    1.0000 </r>
       <r>  -31.0652    1.0000 </r>
       <r>  -31.0545    1.0000 </r>
       <r>  -31.0530    1.0000 </r>
       <r>  -31.0482    1.0000 </r>
       <r>  -31.0422    1.0000 </r>
       <r>  -31.0350    1.0000 </r>
       <r>  -31.0314    1.0000 </r>
       <r>  -31.0249    1.0000 </r>
       <r>  -31.0077    1.0000 </r>
       <r>  -30.9795    1.0000 </r>
       <r>  -30.9694    1.0000 </r>
       <r>  -30.9624    1.0000 </r>
       <r>  -30.9572    1.0000 </r>
       <r>  -30.9437    1.0000 </r>
       <r>  -30.9287    1.0000 </r>
       <r>  -30.9186    1.0000 </r>
       <r>  -27.9822    1.0000 </r>
       <r>  -27.9452    1.0000 </r>
       <r>  -27.8698    1.0000 </r>
       <r>  -27.8447    1.0000 </r>
       <r>  -27.7364    1.0000 </r>
       <r>  -27.7306    1.0000 </r>
       <r>  -16.1866    1.0000 </r>
       <r>   -2.9756    1.0000 </r>
       <r>   -2.7398    1.0000 </r>
       <r>   -2.7024    1.0000 </r>
       <r>   -2.5346    1.0000 </r>
       <r>   -2.4654    1.0000 </r>
       <r>   -1.8551    1.0000 </r>
       <r>   -1.7870    1.0000 </r>
       <r>   -1.4840    1.0000 </r>
       <r>   -1.4348    1.0000 </r>
       <r>   -1.2811    1.0000 </r>
       <r>   -1.2193    1.0000 </r>
       <r>   -1.1684    1.0000 </r>
       <r>   -1.1559    1.0000 </r>
       <r>   -1.1384    1.0000 </r>
       <r>   -1.1238    1.0000 </r>
       <r>   -1.0589    1.0000 </r>
       <r>   -1.0394    1.0000 </r>
       <r>   -1.0164    1.0000 </r>
       <r>   -0.9954    1.0000 </r>
       <r>   -0.9789    1.0000 </r>
       <r>   -0.9504    1.0000 </r>
       <r>   -0.9401    1.0000 </r>
       <r>   -0.8675    1.0000 </r>
       <r>   -0.8566    1.0000 </r>
       <r>   -0.8392    1.0000 </r>
       <r>   -0.8278    1.0000 </r>
       <r>   -0.8186    1.0000 </r>
       <r>   -0.7975    1.0000 </r>
       <r>   -0.7716    1.0000 </r>
       <r>   -0.7434    1.0000 </r>
       <r>   -0.7355    1.0000 </r>
       <r>   -0.7247    1.0000 </r>
       <r>   -0.7008    1.0000 </r>
       <r>   -0.6883    1.0000 </r>
       <r>   -0.6391    1.0000 </r>
       <r>   -0.4161    1.0000 </r>
       <r>   -0.3868    1.0000 </r>
       <r>   -0.3702    1.0000 </r>
       <r>   -0.3542    1.0000 </r>
       <r>   -0.3199    1.0000 </r>
       <r>   -0.3117    1.0000 </r>
       <r>   -0.2853    1.0000 </r>
       <r>   -0.2532    1.0000 </r>
       <r>   -0.2380    1.0000 </r>
       <r>   -0.2290    1.0000 </r>
       <r>   -0.2009    1.0000 </r>
       <r>   -0.1881    1.0000 </r>
       <r>   -0.1746    1.0000 </r>
       <r>   -0.1386    1.0000 </r>
       <r>   -0.1057    1.0000 </r>
       <r>   -0.1031    1.0000 </r>
       <r>   -0.0591    1.0000 </r>
       <r>   -0.0322    1.0000 </r>
       <r>    0.0224    1.0000 </r>
       <r>    0.0438    1.0000 </r>
       <r>    0.0501    1.0000 </r>
       <r>    0.0978    1.0000 </r>
       <r>    0.1289    1.0000 </r>
       <r>    0.1379    1.0000 </r>
       <r>    0.1423    1.0000 </r>
       <r>    0.1599    1.0000 </r>
       <r>    0.2126    1.0000 </r>
       <r>    0.2911    1.0000 </r>
       <r>    0.3302    1.0000 </r>
       <r>    0.3919    1.0000 </r>
       <r>    0.4132    1.0000 </r>
       <r>    0.4183    1.0000 </r>
       <r>    0.4251    1.0000 </r>
       <r>    0.4361    1.0000 </r>
       <r>    0.4378    1.0000 </r>
       <r>    0.4449    1.0000 </r>
       <r>    0.4492    1.0000 </r>
       <r>    0.4632    1.0000 </r>
       <r>    0.4938    1.0000 </r>
       <r>    0.5095    1.0000 </r>
       <r>    0.5259    1.0000 </r>
       <r>    0.5559    1.0000 </r>
       <r>    0.5728    1.0000 </r>
       <r>    0.5775    1.0000 </r>
       <r>    0.5824    1.0000 </r>
       <r>    0.6067    1.0000 </r>
       <r>    0.6351    1.0000 </r>
       <r>    0.6390    1.0000 </r>
       <r>    0.6701    1.0000 </r>
       <r>    0.6784    1.0000 </r>
       <r>    0.6859    1.0000 </r>
       <r>    0.6955    1.0000 </r>
       <r>    0.7069    1.0000 </r>
       <r>    0.7217    1.0000 </r>
       <r>    0.7417    1.0000 </r>
       <r>    0.7611    1.0000 </r>
       <r>    0.7985    1.0000 </r>
       <r>    0.8061    1.0000 </r>
       <r>    0.8290    1.0000 </r>
       <r>    0.8482    1.0000 </r>
       <r>    0.8665    1.0000 </r>
       <r>    0.8704    1.0000 </r>
       <r>    0.8884    1.0000 </r>
       <r>    0.9080    1.0000 </r>
       <r>    1.0417    1.0000 </r>
       <r>    1.0840    1.0000 </r>
       <r>    1.0970    1.0000 </r>
       <r>    1.1264    1.0000 </r>
       <r>    1.1411    1.0000 </r>
       <r>    1.1578    1.0000 </r>
       <r>    1.1742    1.0000 </r>
       <r>    1.1909    1.0000 </r>
       <r>    1.2028    1.0000 </r>
       <r>    1.2486    1.0000 </r>
       <r>    1.3229    1.0000 </r>
       <r>    1.3514    1.0000 </r>
       <r>    1.3710    1.0000 </r>
       <r>    1.3944    1.0000 </r>
       <r>    1.4100    1.0000 </r>
       <r>    1.4170    1.0000 </r>
       <r>    1.4445    1.0000 </r>
       <r>    1.4552    1.0000 </r>
       <r>    1.4892    1.0000 </r>
       <r>    1.5171    1.0000 </r>
       <r>    1.5288    1.0000 </r>
       <r>    1.5378    1.0000 </r>
       <r>    1.5668    1.0000 </r>
       <r>    1.5852    1.0000 </r>
       <r>    1.5919    1.0000 </r>
       <r>    1.6208    1.0000 </r>
       <r>    1.6610    1.0000 </r>
       <r>    1.6927    1.0000 </r>
       <r>    1.7105    1.0000 </r>
       <r>    1.8050    1.0000 </r>
       <r>    1.8393    1.0000 </r>
       <r>    1.8713    1.0000 </r>
       <r>    1.8959    1.0000 </r>
       <r>    1.9039    1.0000 </r>
       <r>    1.9175    1.0000 </r>
       <r>    1.9421    1.0000 </r>
       <r>    1.9599    1.0000 </r>
       <r>    1.9927    1.0000 </r>
       <r>    2.0050    1.0000 </r>
       <r>    2.0224    1.0000 </r>
       <r>    2.0377    1.0000 </r>
       <r>    2.0501    1.0000 </r>
       <r>    2.0657    1.0000 </r>
       <r>    2.0780    1.0000 </r>
       <r>    2.0804    1.0000 </r>
       <r>    2.1036    1.0000 </r>
       <r>    2.1313    1.0000 </r>
       <r>    2.1442    1.0000 </r>
       <r>    2.1502    1.0000 </r>
       <r>    2.1754    1.0000 </r>
       <r>    2.2060    1.0000 </r>
       <r>    2.2172    1.0000 </r>
       <r>    2.2740    1.0000 </r>
       <r>    2.2874    1.0000 </r>
       <r>    2.3050    1.0000 </r>
       <r>    2.3306    1.0000 </r>
       <r>    2.3611    1.0000 </r>
       <r>    2.4073    1.0000 </r>
       <r>    2.4457    1.0000 </r>
       <r>    2.5534    1.0000 </r>
       <r>    2.6018    1.0000 </r>
       <r>    2.6151    1.0000 </r>
       <r>    2.6656    1.0000 </r>
       <r>    2.6839    1.0000 </r>
       <r>    2.7383    1.0000 </r>
       <r>    2.7572    1.0000 </r>
       <r>    2.7716    1.0000 </r>
       <r>    2.8032    1.0000 </r>
       <r>    2.8053    1.0000 </r>
       <r>    2.8271    1.0000 </r>
       <r>    2.8657    1.0000 </r>
       <r>    2.8917    1.0000 </r>
       <r>    2.9366    1.0000 </r>
       <r>    2.9662    1.0000 </r>
       <r>    2.9783    1.0000 </r>
       <r>    3.0125    1.0000 </r>
       <r>    3.0621    1.0000 </r>
       <r>    3.1342    1.0000 </r>
       <r>    3.1429    1.0000 </r>
       <r>    3.1630    1.0000 </r>
       <r>    3.1866    1.0000 </r>
       <r>    3.2165    0.9999 </r>
       <r>    3.2253    0.9998 </r>
       <r>    3.2896    0.9953 </r>
       <r>    3.2996    0.9930 </r>
       <r>    3.3516    0.9575 </r>
       <r>    3.3630    0.9408 </r>
       <r>    3.4040    0.8368 </r>
       <r>    3.4393    0.6849 </r>
       <r>    3.5243    0.2357 </r>
       <r>    3.5707    0.0843 </r>
       <r>    3.6130    0.0241 </r>
       <r>    3.6229    0.0172 </r>
       <r>    3.6458    0.0074 </r>
       <r>    3.6822    0.0016 </r>
       <r>    3.7221    0.0002 </r>
       <r>    3.7565    0.0000 </r>
       <r>    3.7859    0.0000 </r>
       <r>    3.8446    0.0000 </r>
       <r>    3.9002    0.0000 </r>
       <r>    3.9053    0.0000 </r>
       <r>    3.9090    0.0000 </r>
       <r>    3.9763    0.0000 </r>
       <r>    4.0165    0.0000 </r>
       <r>    4.0742    0.0000 </r>
       <r>    4.0916    0.0000 </r>
       <r>    4.1176    0.0000 </r>
       <r>    4.1558    0.0000 </r>
       <r>    4.1824    0.0000 </r>
       <r>    4.2135    0.0000 </r>
       <r>    4.2385    0.0000 </r>
       <r>    4.2616    0.0000 </r>
       <r>    4.2808    0.0000 </r>
       <r>    4.3278    0.0000 </r>
       <r>    4.3781    0.0000 </r>
       <r>    4.4098    0.0000 </r>
       <r>    4.4330    0.0000 </r>
       <r>    4.4926    0.0000 </r>
       <r>    4.5229    0.0000 </r>
       <r>    4.5516    0.0000 </r>
       <r>    4.5759    0.0000 </r>
       <r>    4.5834    0.0000 </r>
       <r>    4.5980    0.0000 </r>
       <r>    4.6068    0.0000 </r>
       <r>    4.6118    0.0000 </r>
       <r>    4.6196    0.0000 </r>
       <r>    4.6337    0.0000 </r>
       <r>    4.6384    0.0000 </r>
       <r>    4.6413    0.0000 </r>
       <r>    4.6670    0.0000 </r>
       <r>    4.6894    0.0000 </r>
       <r>    4.6977    0.0000 </r>
       <r>    4.7426    0.0000 </r>
       <r>    4.7603    0.0000 </r>
       <r>    4.7770    0.0000 </r>
       <r>    4.8070    0.0000 </r>
       <r>    4.8352    0.0000 </r>
       <r>    4.8645    0.0000 </r>
       <r>    4.8904    0.0000 </r>
       <r>    4.9027    0.0000 </r>
       <r>    4.9149    0.0000 </r>
       <r>    4.9184    0.0000 </r>
       <r>    4.9231    0.0000 </r>
       <r>    4.9317    0.0000 </r>
       <r>    4.9354    0.0000 </r>
       <r>    4.9514    0.0000 </r>
       <r>    4.9543    0.0000 </r>
       <r>    4.9710    0.0000 </r>
       <r>    4.9767    0.0000 </r>
       <r>    5.0170    0.0000 </r>
       <r>    5.0262    0.0000 </r>
       <r>    5.0516    0.0000 </r>
       <r>    5.0653    0.0000 </r>
       <r>    5.0855    0.0000 </r>
       <r>    5.1094    0.0000 </r>
       <r>    5.1253    0.0000 </r>
       <r>    5.1654    0.0000 </r>
       <r>    5.1909    0.0000 </r>
       <r>    5.2066    0.0000 </r>
       <r>    5.2342    0.0000 </r>
       <r>    5.2469    0.0000 </r>
       <r>    5.2596    0.0000 </r>
       <r>    5.2673    0.0000 </r>
       <r>    5.2772    0.0000 </r>
       <r>    5.3060    0.0000 </r>
       <r>    5.3511    0.0000 </r>
       <r>    5.3638    0.0000 </r>
       <r>    5.3870    0.0000 </r>
       <r>    5.4037    0.0000 </r>
       <r>    5.4322    0.0000 </r>
       <r>    5.4409    0.0000 </r>
       <r>    5.4703    0.0000 </r>
       <r>    5.5207    0.0000 </r>
       <r>    5.5558    0.0000 </r>
       <r>    5.5899    0.0000 </r>
      </set>
      <set comment="kpoint 5">
       <r>  -57.7112    1.0000 </r>
       <r>  -57.7060    1.0000 </r>
       <r>  -57.6537    1.0000 </r>
       <r>  -57.6464    1.0000 </r>
       <r>  -57.6297    1.0000 </r>
       <r>  -57.6243    1.0000 </r>
       <r>  -57.6186    1.0000 </r>
       <r>  -57.6175    1.0000 </r>
       <r>  -57.5982    1.0000 </r>
       <r>  -57.5947    1.0000 </r>
       <r>  -57.5915    1.0000 </r>
       <r>  -57.5893    1.0000 </r>
       <r>  -57.5775    1.0000 </r>
       <r>  -57.5733    1.0000 </r>
       <r>  -57.5693    1.0000 </r>
       <r>  -57.5631    1.0000 </r>
       <r>  -57.5602    1.0000 </r>
       <r>  -57.5506    1.0000 </r>
       <r>  -57.5193    1.0000 </r>
       <r>  -57.5041    1.0000 </r>
       <r>  -57.4864    1.0000 </r>
       <r>  -57.4791    1.0000 </r>
       <r>  -57.4722    1.0000 </r>
       <r>  -57.4651    1.0000 </r>
       <r>  -57.4619    1.0000 </r>
       <r>  -57.4573    1.0000 </r>
       <r>  -57.4564    1.0000 </r>
       <r>  -57.4547    1.0000 </r>
       <r>  -57.4538    1.0000 </r>
       <r>  -57.4507    1.0000 </r>
       <r>  -57.4506    1.0000 </r>
       <r>  -57.4477    1.0000 </r>
       <r>  -57.4465    1.0000 </r>
       <r>  -57.4438    1.0000 </r>
       <r>  -57.4363    1.0000 </r>
       <r>  -57.4338    1.0000 </r>
       <r>  -57.4289    1.0000 </r>
       <r>  -57.4248    1.0000 </r>
       <r>  -57.4219    1.0000 </r>
       <r>  -57.4187    1.0000 </r>
       <r>  -57.4167    1.0000 </r>
       <r>  -57.3982    1.0000 </r>
       <r>  -57.3736    1.0000 </r>
       <r>  -57.3685    1.0000 </r>
       <r>  -57.3351    1.0000 </r>
       <r>  -57.3186    1.0000 </r>
       <r>  -57.2697    1.0000 </r>
       <r>  -57.2572    1.0000 </r>
       <r>  -57.2501    1.0000 </r>
       <r>  -57.2486    1.0000 </r>
       <r>  -57.2464    1.0000 </r>
       <r>  -57.2440    1.0000 </r>
       <r>  -57.2415    1.0000 </r>
       <r>  -57.2409    1.0000 </r>
       <r>  -57.2401    1.0000 </r>
       <r>  -57.2335    1.0000 </r>
       <r>  -57.2305    1.0000 </r>
       <r>  -57.2282    1.0000 </r>
       <r>  -57.2052    1.0000 </r>
       <r>  -57.1895    1.0000 </r>
       <r>  -51.7939    1.0000 </r>
       <r>  -51.7865    1.0000 </r>
       <r>  -32.3453    1.0000 </r>
       <r>  -32.3178    1.0000 </r>
       <r>  -32.2888    1.0000 </r>
       <r>  -32.2608    1.0000 </r>
       <r>  -32.2387    1.0000 </r>
       <r>  -32.2316    1.0000 </r>
       <r>  -32.2198    1.0000 </r>
       <r>  -32.2062    1.0000 </r>
       <r>  -32.2009    1.0000 </r>
       <r>  -32.1975    1.0000 </r>
       <r>  -32.1873    1.0000 </r>
       <r>  -32.1838    1.0000 </r>
       <r>  -32.1730    1.0000 </r>
       <r>  -32.1698    1.0000 </r>
       <r>  -32.1674    1.0000 </r>
       <r>  -32.1501    1.0000 </r>
       <r>  -32.1414    1.0000 </r>
       <r>  -32.1370    1.0000 </r>
       <r>  -32.1229    1.0000 </r>
       <r>  -32.1204    1.0000 </r>
       <r>  -32.1155    1.0000 </r>
       <r>  -32.1084    1.0000 </r>
       <r>  -32.0987    1.0000 </r>
       <r>  -32.0862    1.0000 </r>
       <r>  -32.0809    1.0000 </r>
       <r>  -32.0786    1.0000 </r>
       <r>  -32.0697    1.0000 </r>
       <r>  -32.0650    1.0000 </r>
       <r>  -32.0565    1.0000 </r>
       <r>  -32.0540    1.0000 </r>
       <r>  -32.0495    1.0000 </r>
       <r>  -32.0364    1.0000 </r>
       <r>  -32.0250    1.0000 </r>
       <r>  -32.0055    1.0000 </r>
       <r>  -31.9991    1.0000 </r>
       <r>  -31.9740    1.0000 </r>
       <r>  -31.9451    1.0000 </r>
       <r>  -31.9317    1.0000 </r>
       <r>  -31.9203    1.0000 </r>
       <r>  -31.9169    1.0000 </r>
       <r>  -31.8988    1.0000 </r>
       <r>  -31.8974    1.0000 </r>
       <r>  -31.8895    1.0000 </r>
       <r>  -31.8775    1.0000 </r>
       <r>  -31.8714    1.0000 </r>
       <r>  -31.8611    1.0000 </r>
       <r>  -31.8555    1.0000 </r>
       <r>  -31.8448    1.0000 </r>
       <r>  -31.8234    1.0000 </r>
       <r>  -31.8150    1.0000 </r>
       <r>  -31.8137    1.0000 </r>
       <r>  -31.8080    1.0000 </r>
       <r>  -31.7977    1.0000 </r>
       <r>  -31.7782    1.0000 </r>
       <r>  -31.7724    1.0000 </r>
       <r>  -31.7611    1.0000 </r>
       <r>  -31.7563    1.0000 </r>
       <r>  -31.7422    1.0000 </r>
       <r>  -31.7368    1.0000 </r>
       <r>  -31.7360    1.0000 </r>
       <r>  -31.7266    1.0000 </r>
       <r>  -31.7227    1.0000 </r>
       <r>  -31.7178    1.0000 </r>
       <r>  -31.7119    1.0000 </r>
       <r>  -31.6956    1.0000 </r>
       <r>  -31.6891    1.0000 </r>
       <r>  -31.6790    1.0000 </r>
       <r>  -31.6728    1.0000 </r>
       <r>  -31.6618    1.0000 </r>
       <r>  -31.6487    1.0000 </r>
       <r>  -31.6438    1.0000 </r>
       <r>  -31.6366    1.0000 </r>
       <r>  -31.6272    1.0000 </r>
       <r>  -31.6190    1.0000 </r>
       <r>  -31.6110    1.0000 </r>
       <r>  -31.6078    1.0000 </r>
       <r>  -31.5794    1.0000 </r>
       <r>  -31.5731    1.0000 </r>
       <r>  -31.5680    1.0000 </r>
       <r>  -31.5533    1.0000 </r>
       <r>  -31.5491    1.0000 </r>
       <r>  -31.5480    1.0000 </r>
       <r>  -31.5430    1.0000 </r>
       <r>  -31.5377    1.0000 </r>
       <r>  -31.5352    1.0000 </r>
       <r>  -31.5269    1.0000 </r>
       <r>  -31.5203    1.0000 </r>
       <r>  -31.5111    1.0000 </r>
       <r>  -31.5070    1.0000 </r>
       <r>  -31.4974    1.0000 </r>
       <r>  -31.4929    1.0000 </r>
       <r>  -31.4880    1.0000 </r>
       <r>  -31.4813    1.0000 </r>
       <r>  -31.4770    1.0000 </r>
       <r>  -31.4703    1.0000 </r>
       <r>  -31.4599    1.0000 </r>
       <r>  -31.4510    1.0000 </r>
       <r>  -31.4450    1.0000 </r>
       <r>  -31.4439    1.0000 </r>
       <r>  -31.4426    1.0000 </r>
       <r>  -31.4323    1.0000 </r>
       <r>  -31.4279    1.0000 </r>
       <r>  -31.4224    1.0000 </r>
       <r>  -31.4062    1.0000 </r>
       <r>  -31.4051    1.0000 </r>
       <r>  -31.4027    1.0000 </r>
       <r>  -31.3900    1.0000 </r>
       <r>  -31.3816    1.0000 </r>
       <r>  -31.3752    1.0000 </r>
       <r>  -31.3646    1.0000 </r>
       <r>  -31.3573    1.0000 </r>
       <r>  -31.3433    1.0000 </r>
       <r>  -31.3371    1.0000 </r>
       <r>  -31.3305    1.0000 </r>
       <r>  -31.3266    1.0000 </r>
       <r>  -31.3222    1.0000 </r>
       <r>  -31.3160    1.0000 </r>
       <r>  -31.3091    1.0000 </r>
       <r>  -31.2911    1.0000 </r>
       <r>  -31.2823    1.0000 </r>
       <r>  -31.2783    1.0000 </r>
       <r>  -31.2719    1.0000 </r>
       <r>  -31.2567    1.0000 </r>
       <r>  -31.2509    1.0000 </r>
       <r>  -31.2476    1.0000 </r>
       <r>  -31.2437    1.0000 </r>
       <r>  -31.2421    1.0000 </r>
       <r>  -31.2397    1.0000 </r>
       <r>  -31.2361    1.0000 </r>
       <r>  -31.2336    1.0000 </r>
       <r>  -31.2297    1.0000 </r>
       <r>  -31.2283    1.0000 </r>
       <r>  -31.2232    1.0000 </r>
       <r>  -31.2116    1.0000 </r>
       <r>  -31.2083    1.0000 </r>
       <r>  -31.2046    1.0000 </r>
       <r>  -31.2034    1.0000 </r>
       <r>  -31.1893    1.0000 </r>
       <r>  -31.1857    1.0000 </r>
       <r>  -31.1750    1.0000 </r>
       <r>  -31.1745    1.0000 </r>
       <r>  -31.1680    1.0000 </r>
       <r>  -31.1662    1.0000 </r>
       <r>  -31.1594    1.0000 </r>
       <r>  -31.1504    1.0000 </r>
       <r>  -31.1454    1.0000 </r>
       <r>  -31.1451    1.0000 </r>
       <r>  -31.1346    1.0000 </r>
       <r>  -31.1260    1.0000 </r>
       <r>  -31.1167    1.0000 </r>
       <r>  -31.1151    1.0000 </r>
       <r>  -31.1067    1.0000 </r>
       <r>  -31.0969    1.0000 </r>
       <r>  -31.0905    1.0000 </r>
       <r>  -31.0873    1.0000 </r>
       <r>  -31.0864    1.0000 </r>
       <r>  -31.0852    1.0000 </r>
       <r>  -31.0839    1.0000 </r>
       <r>  -31.0835    1.0000 </r>
       <r>  -31.0823    1.0000 </r>
       <r>  -31.0715    1.0000 </r>
       <r>  -31.0674    1.0000 </r>
       <r>  -31.0665    1.0000 </r>
       <r>  -31.0659    1.0000 </r>
       <r>  -31.0652    1.0000 </r>
       <r>  -31.0548    1.0000 </r>
       <r>  -31.0532    1.0000 </r>
       <r>  -31.0479    1.0000 </r>
       <r>  -31.0441    1.0000 </r>
       <r>  -31.0351    1.0000 </r>
       <r>  -31.0316    1.0000 </r>
       <r>  -31.0245    1.0000 </r>
       <r>  -31.0095    1.0000 </r>
       <r>  -30.9796    1.0000 </r>
       <r>  -30.9690    1.0000 </r>
       <r>  -30.9621    1.0000 </r>
       <r>  -30.9606    1.0000 </r>
       <r>  -30.9389    1.0000 </r>
       <r>  -30.9293    1.0000 </r>
       <r>  -30.9200    1.0000 </r>
       <r>  -27.9821    1.0000 </r>
       <r>  -27.9453    1.0000 </r>
       <r>  -27.8698    1.0000 </r>
       <r>  -27.8447    1.0000 </r>
       <r>  -27.7363    1.0000 </r>
       <r>  -27.7306    1.0000 </r>
       <r>  -16.1866    1.0000 </r>
       <r>   -2.9737    1.0000 </r>
       <r>   -2.7407    1.0000 </r>
       <r>   -2.7029    1.0000 </r>
       <r>   -2.5365    1.0000 </r>
       <r>   -2.4652    1.0000 </r>
       <r>   -1.8556    1.0000 </r>
       <r>   -1.7872    1.0000 </r>
       <r>   -1.4855    1.0000 </r>
       <r>   -1.4341    1.0000 </r>
       <r>   -1.2829    1.0000 </r>
       <r>   -1.2188    1.0000 </r>
       <r>   -1.1688    1.0000 </r>
       <r>   -1.1563    1.0000 </r>
       <r>   -1.1383    1.0000 </r>
       <r>   -1.1239    1.0000 </r>
       <r>   -1.0568    1.0000 </r>
       <r>   -1.0390    1.0000 </r>
       <r>   -1.0154    1.0000 </r>
       <r>   -0.9947    1.0000 </r>
       <r>   -0.9776    1.0000 </r>
       <r>   -0.9498    1.0000 </r>
       <r>   -0.9435    1.0000 </r>
       <r>   -0.8684    1.0000 </r>
       <r>   -0.8559    1.0000 </r>
       <r>   -0.8392    1.0000 </r>
       <r>   -0.8279    1.0000 </r>
       <r>   -0.8195    1.0000 </r>
       <r>   -0.7966    1.0000 </r>
       <r>   -0.7697    1.0000 </r>
       <r>   -0.7403    1.0000 </r>
       <r>   -0.7360    1.0000 </r>
       <r>   -0.7249    1.0000 </r>
       <r>   -0.7001    1.0000 </r>
       <r>   -0.6875    1.0000 </r>
       <r>   -0.6388    1.0000 </r>
       <r>   -0.4147    1.0000 </r>
       <r>   -0.3883    1.0000 </r>
       <r>   -0.3701    1.0000 </r>
       <r>   -0.3541    1.0000 </r>
       <r>   -0.3195    1.0000 </r>
       <r>   -0.3094    1.0000 </r>
       <r>   -0.2833    1.0000 </r>
       <r>   -0.2550    1.0000 </r>
       <r>   -0.2389    1.0000 </r>
       <r>   -0.2281    1.0000 </r>
       <r>   -0.2000    1.0000 </r>
       <r>   -0.1884    1.0000 </r>
       <r>   -0.1745    1.0000 </r>
       <r>   -0.1393    1.0000 </r>
       <r>   -0.1053    1.0000 </r>
       <r>   -0.1030    1.0000 </r>
       <r>   -0.0591    1.0000 </r>
       <r>   -0.0327    1.0000 </r>
       <r>    0.0212    1.0000 </r>
       <r>    0.0392    1.0000 </r>
       <r>    0.0534    1.0000 </r>
       <r>    0.0970    1.0000 </r>
       <r>    0.1276    1.0000 </r>
       <r>    0.1378    1.0000 </r>
       <r>    0.1431    1.0000 </r>
       <r>    0.1606    1.0000 </r>
       <r>    0.2184    1.0000 </r>
       <r>    0.2961    1.0000 </r>
       <r>    0.3269    1.0000 </r>
       <r>    0.3934    1.0000 </r>
       <r>    0.4121    1.0000 </r>
       <r>    0.4181    1.0000 </r>
       <r>    0.4254    1.0000 </r>
       <r>    0.4364    1.0000 </r>
       <r>    0.4394    1.0000 </r>
       <r>    0.4448    1.0000 </r>
       <r>    0.4484    1.0000 </r>
       <r>    0.4624    1.0000 </r>
       <r>    0.4947    1.0000 </r>
       <r>    0.5184    1.0000 </r>
       <r>    0.5346    1.0000 </r>
       <r>    0.5612    1.0000 </r>
       <r>    0.5689    1.0000 </r>
       <r>    0.5763    1.0000 </r>
       <r>    0.5811    1.0000 </r>
       <r>    0.6050    1.0000 </r>
       <r>    0.6358    1.0000 </r>
       <r>    0.6399    1.0000 </r>
       <r>    0.6712    1.0000 </r>
       <r>    0.6785    1.0000 </r>
       <r>    0.6833    1.0000 </r>
       <r>    0.6938    1.0000 </r>
       <r>    0.7066    1.0000 </r>
       <r>    0.7173    1.0000 </r>
       <r>    0.7399    1.0000 </r>
       <r>    0.7638    1.0000 </r>
       <r>    0.7946    1.0000 </r>
       <r>    0.8036    1.0000 </r>
       <r>    0.8294    1.0000 </r>
       <r>    0.8469    1.0000 </r>
       <r>    0.8669    1.0000 </r>
       <r>    0.8726    1.0000 </r>
       <r>    0.8923    1.0000 </r>
       <r>    0.9091    1.0000 </r>
       <r>    1.0439    1.0000 </r>
       <r>    1.0867    1.0000 </r>
       <r>    1.1016    1.0000 </r>
       <r>    1.1248    1.0000 </r>
       <r>    1.1403    1.0000 </r>
       <r>    1.1597    1.0000 </r>
       <r>    1.1726    1.0000 </r>
       <r>    1.1851    1.0000 </r>
       <r>    1.2002    1.0000 </r>
       <r>    1.2462    1.0000 </r>
       <r>    1.3130    1.0000 </r>
       <r>    1.3510    1.0000 </r>
       <r>    1.3717    1.0000 </r>
       <r>    1.3989    1.0000 </r>
       <r>    1.4090    1.0000 </r>
       <r>    1.4157    1.0000 </r>
       <r>    1.4419    1.0000 </r>
       <r>    1.4571    1.0000 </r>
       <r>    1.4905    1.0000 </r>
       <r>    1.5153    1.0000 </r>
       <r>    1.5242    1.0000 </r>
       <r>    1.5376    1.0000 </r>
       <r>    1.5665    1.0000 </r>
       <r>    1.5859    1.0000 </r>
       <r>    1.5910    1.0000 </r>
       <r>    1.6183    1.0000 </r>
       <r>    1.6603    1.0000 </r>
       <r>    1.6916    1.0000 </r>
       <r>    1.7153    1.0000 </r>
       <r>    1.7983    1.0000 </r>
       <r>    1.8409    1.0000 </r>
       <r>    1.8626    1.0000 </r>
       <r>    1.8978    1.0000 </r>
       <r>    1.9047    1.0000 </r>
       <r>    1.9106    1.0000 </r>
       <r>    1.9428    1.0000 </r>
       <r>    1.9568    1.0000 </r>
       <r>    1.9912    1.0000 </r>
       <r>    2.0049    1.0000 </r>
       <r>    2.0229    1.0000 </r>
       <r>    2.0423    1.0000 </r>
       <r>    2.0502    1.0000 </r>
       <r>    2.0680    1.0000 </r>
       <r>    2.0781    1.0000 </r>
       <r>    2.0868    1.0000 </r>
       <r>    2.0997    1.0000 </r>
       <r>    2.1305    1.0000 </r>
       <r>    2.1362    1.0000 </r>
       <r>    2.1477    1.0000 </r>
       <r>    2.1765    1.0000 </r>
       <r>    2.2090    1.0000 </r>
       <r>    2.2189    1.0000 </r>
       <r>    2.2746    1.0000 </r>
       <r>    2.2869    1.0000 </r>
       <r>    2.2969    1.0000 </r>
       <r>    2.3239    1.0000 </r>
       <r>    2.3603    1.0000 </r>
       <r>    2.4062    1.0000 </r>
       <r>    2.4465    1.0000 </r>
       <r>    2.5525    1.0000 </r>
       <r>    2.6014    1.0000 </r>
       <r>    2.6200    1.0000 </r>
       <r>    2.6646    1.0000 </r>
       <r>    2.6913    1.0000 </r>
       <r>    2.7336    1.0000 </r>
       <r>    2.7454    1.0000 </r>
       <r>    2.7614    1.0000 </r>
       <r>    2.8031    1.0000 </r>
       <r>    2.8044    1.0000 </r>
       <r>    2.8190    1.0000 </r>
       <r>    2.8738    1.0000 </r>
       <r>    2.8896    1.0000 </r>
       <r>    2.9337    1.0000 </r>
       <r>    2.9584    1.0000 </r>
       <r>    2.9822    1.0000 </r>
       <r>    3.0278    1.0000 </r>
       <r>    3.0694    1.0000 </r>
       <r>    3.1260    1.0000 </r>
       <r>    3.1549    1.0000 </r>
       <r>    3.1662    1.0000 </r>
       <r>    3.1700    1.0000 </r>
       <r>    3.2165    0.9999 </r>
       <r>    3.2279    0.9997 </r>
       <r>    3.2901    0.9952 </r>
       <r>    3.2975    0.9936 </r>
       <r>    3.3569    0.9503 </r>
       <r>    3.3651    0.9371 </r>
       <r>    3.3986    0.8549 </r>
       <r>    3.4458    0.6519 </r>
       <r>    3.5187    0.2605 </r>
       <r>    3.5699    0.0860 </r>
       <r>    3.6150    0.0226 </r>
       <r>    3.6289    0.0139 </r>
       <r>    3.6458    0.0074 </r>
       <r>    3.6802    0.0017 </r>
       <r>    3.7345    0.0001 </r>
       <r>    3.7670    0.0000 </r>
       <r>    3.7898    0.0000 </r>
       <r>    3.8324    0.0000 </r>
       <r>    3.9044    0.0000 </r>
       <r>    3.9080    0.0000 </r>
       <r>    3.9101    0.0000 </r>
       <r>    3.9827    0.0000 </r>
       <r>    4.0282    0.0000 </r>
       <r>    4.0848    0.0000 </r>
       <r>    4.1036    0.0000 </r>
       <r>    4.1191    0.0000 </r>
       <r>    4.1490    0.0000 </r>
       <r>    4.1806    0.0000 </r>
       <r>    4.2076    0.0000 </r>
       <r>    4.2335    0.0000 </r>
       <r>    4.2655    0.0000 </r>
       <r>    4.2835    0.0000 </r>
       <r>    4.3285    0.0000 </r>
       <r>    4.3897    0.0000 </r>
       <r>    4.4066    0.0000 </r>
       <r>    4.4230    0.0000 </r>
       <r>    4.4856    0.0000 </r>
       <r>    4.5036    0.0000 </r>
       <r>    4.5560    0.0000 </r>
       <r>    4.5742    0.0000 </r>
       <r>    4.5820    0.0000 </r>
       <r>    4.5984    0.0000 </r>
       <r>    4.6106    0.0000 </r>
       <r>    4.6146    0.0000 </r>
       <r>    4.6286    0.0000 </r>
       <r>    4.6323    0.0000 </r>
       <r>    4.6369    0.0000 </r>
       <r>    4.6420    0.0000 </r>
       <r>    4.6713    0.0000 </r>
       <r>    4.6843    0.0000 </r>
       <r>    4.7009    0.0000 </r>
       <r>    4.7464    0.0000 </r>
       <r>    4.7561    0.0000 </r>
       <r>    4.7750    0.0000 </r>
       <r>    4.8005    0.0000 </r>
       <r>    4.8426    0.0000 </r>
       <r>    4.8689    0.0000 </r>
       <r>    4.8874    0.0000 </r>
       <r>    4.9006    0.0000 </r>
       <r>    4.9146    0.0000 </r>
       <r>    4.9203    0.0000 </r>
       <r>    4.9259    0.0000 </r>
       <r>    4.9322    0.0000 </r>
       <r>    4.9364    0.0000 </r>
       <r>    4.9492    0.0000 </r>
       <r>    4.9608    0.0000 </r>
       <r>    4.9704    0.0000 </r>
       <r>    4.9755    0.0000 </r>
       <r>    5.0131    0.0000 </r>
       <r>    5.0300    0.0000 </r>
       <r>    5.0535    0.0000 </r>
       <r>    5.0674    0.0000 </r>
       <r>    5.0865    0.0000 </r>
       <r>    5.1078    0.0000 </r>
       <r>    5.1291    0.0000 </r>
       <r>    5.1592    0.0000 </r>
       <r>    5.1886    0.0000 </r>
       <r>    5.2006    0.0000 </r>
       <r>    5.2362    0.0000 </r>
       <r>    5.2457    0.0000 </r>
       <r>    5.2583    0.0000 </r>
       <r>    5.2677    0.0000 </r>
       <r>    5.2808    0.0000 </r>
       <r>    5.3021    0.0000 </r>
       <r>    5.3477    0.0000 </r>
       <r>    5.3660    0.0000 </r>
       <r>    5.3845    0.0000 </r>
       <r>    5.4044    0.0000 </r>
       <r>    5.4252    0.0000 </r>
       <r>    5.4455    0.0000 </r>
       <r>    5.4684    0.0000 </r>
       <r>    5.5107    0.0000 </r>
       <r>    5.5280    0.0000 </r>
       <r>    5.5568    0.0000 </r>
      </set>
      <set comment="kpoint 6">
       <r>  -57.7225    1.0000 </r>
       <r>  -57.6751    1.0000 </r>
       <r>  -57.6701    1.0000 </r>
       <r>  -57.6570    1.0000 </r>
       <r>  -57.6362    1.0000 </r>
       <r>  -57.6227    1.0000 </r>
       <r>  -57.6206    1.0000 </r>
       <r>  -57.6015    1.0000 </r>
       <r>  -57.5995    1.0000 </r>
       <r>  -57.5965    1.0000 </r>
       <r>  -57.5873    1.0000 </r>
       <r>  -57.5836    1.0000 </r>
       <r>  -57.5795    1.0000 </r>
       <r>  -57.5740    1.0000 </r>
       <r>  -57.5709    1.0000 </r>
       <r>  -57.5668    1.0000 </r>
       <r>  -57.5608    1.0000 </r>
       <r>  -57.5511    1.0000 </r>
       <r>  -57.5199    1.0000 </r>
       <r>  -57.5011    1.0000 </r>
       <r>  -57.4906    1.0000 </r>
       <r>  -57.4782    1.0000 </r>
       <r>  -57.4696    1.0000 </r>
       <r>  -57.4666    1.0000 </r>
       <r>  -57.4586    1.0000 </r>
       <r>  -57.4575    1.0000 </r>
       <r>  -57.4558    1.0000 </r>
       <r>  -57.4557    1.0000 </r>
       <r>  -57.4542    1.0000 </r>
       <r>  -57.4487    1.0000 </r>
       <r>  -57.4480    1.0000 </r>
       <r>  -57.4473    1.0000 </r>
       <r>  -57.4448    1.0000 </r>
       <r>  -57.4418    1.0000 </r>
       <r>  -57.4403    1.0000 </r>
       <r>  -57.4387    1.0000 </r>
       <r>  -57.4341    1.0000 </r>
       <r>  -57.4315    1.0000 </r>
       <r>  -57.4273    1.0000 </r>
       <r>  -57.4133    1.0000 </r>
       <r>  -57.4039    1.0000 </r>
       <r>  -57.3949    1.0000 </r>
       <r>  -57.3840    1.0000 </r>
       <r>  -57.3641    1.0000 </r>
       <r>  -57.3353    1.0000 </r>
       <r>  -57.3182    1.0000 </r>
       <r>  -57.2697    1.0000 </r>
       <r>  -57.2547    1.0000 </r>
       <r>  -57.2537    1.0000 </r>
       <r>  -57.2484    1.0000 </r>
       <r>  -57.2459    1.0000 </r>
       <r>  -57.2450    1.0000 </r>
       <r>  -57.2438    1.0000 </r>
       <r>  -57.2398    1.0000 </r>
       <r>  -57.2390    1.0000 </r>
       <r>  -57.2384    1.0000 </r>
       <r>  -57.2283    1.0000 </r>
       <r>  -57.2210    1.0000 </r>
       <r>  -57.2096    1.0000 </r>
       <r>  -57.1886    1.0000 </r>
       <r>  -51.7939    1.0000 </r>
       <r>  -51.7865    1.0000 </r>
       <r>  -32.3255    1.0000 </r>
       <r>  -32.3219    1.0000 </r>
       <r>  -32.2924    1.0000 </r>
       <r>  -32.2917    1.0000 </r>
       <r>  -32.2671    1.0000 </r>
       <r>  -32.2612    1.0000 </r>
       <r>  -32.2158    1.0000 </r>
       <r>  -32.2027    1.0000 </r>
       <r>  -32.1859    1.0000 </r>
       <r>  -32.1808    1.0000 </r>
       <r>  -32.1742    1.0000 </r>
       <r>  -32.1730    1.0000 </r>
       <r>  -32.1668    1.0000 </r>
       <r>  -32.1586    1.0000 </r>
       <r>  -32.1564    1.0000 </r>
       <r>  -32.1438    1.0000 </r>
       <r>  -32.1382    1.0000 </r>
       <r>  -32.1368    1.0000 </r>
       <r>  -32.1278    1.0000 </r>
       <r>  -32.1249    1.0000 </r>
       <r>  -32.1120    1.0000 </r>
       <r>  -32.1072    1.0000 </r>
       <r>  -32.1025    1.0000 </r>
       <r>  -32.0852    1.0000 </r>
       <r>  -32.0829    1.0000 </r>
       <r>  -32.0791    1.0000 </r>
       <r>  -32.0718    1.0000 </r>
       <r>  -32.0619    1.0000 </r>
       <r>  -32.0582    1.0000 </r>
       <r>  -32.0344    1.0000 </r>
       <r>  -32.0290    1.0000 </r>
       <r>  -32.0116    1.0000 </r>
       <r>  -32.0024    1.0000 </r>
       <r>  -31.9967    1.0000 </r>
       <r>  -31.9905    1.0000 </r>
       <r>  -31.9754    1.0000 </r>
       <r>  -31.9632    1.0000 </r>
       <r>  -31.9585    1.0000 </r>
       <r>  -31.9491    1.0000 </r>
       <r>  -31.9396    1.0000 </r>
       <r>  -31.9185    1.0000 </r>
       <r>  -31.9024    1.0000 </r>
       <r>  -31.8962    1.0000 </r>
       <r>  -31.8878    1.0000 </r>
       <r>  -31.8783    1.0000 </r>
       <r>  -31.8536    1.0000 </r>
       <r>  -31.8514    1.0000 </r>
       <r>  -31.8448    1.0000 </r>
       <r>  -31.8377    1.0000 </r>
       <r>  -31.8311    1.0000 </r>
       <r>  -31.8197    1.0000 </r>
       <r>  -31.8183    1.0000 </r>
       <r>  -31.8099    1.0000 </r>
       <r>  -31.7880    1.0000 </r>
       <r>  -31.7764    1.0000 </r>
       <r>  -31.7694    1.0000 </r>
       <r>  -31.7530    1.0000 </r>
       <r>  -31.7350    1.0000 </r>
       <r>  -31.7317    1.0000 </r>
       <r>  -31.7229    1.0000 </r>
       <r>  -31.7163    1.0000 </r>
       <r>  -31.7026    1.0000 </r>
       <r>  -31.7000    1.0000 </r>
       <r>  -31.6931    1.0000 </r>
       <r>  -31.6893    1.0000 </r>
       <r>  -31.6852    1.0000 </r>
       <r>  -31.6839    1.0000 </r>
       <r>  -31.6788    1.0000 </r>
       <r>  -31.6589    1.0000 </r>
       <r>  -31.6572    1.0000 </r>
       <r>  -31.6376    1.0000 </r>
       <r>  -31.6316    1.0000 </r>
       <r>  -31.6293    1.0000 </r>
       <r>  -31.6101    1.0000 </r>
       <r>  -31.6085    1.0000 </r>
       <r>  -31.6057    1.0000 </r>
       <r>  -31.5910    1.0000 </r>
       <r>  -31.5839    1.0000 </r>
       <r>  -31.5814    1.0000 </r>
       <r>  -31.5760    1.0000 </r>
       <r>  -31.5710    1.0000 </r>
       <r>  -31.5495    1.0000 </r>
       <r>  -31.5482    1.0000 </r>
       <r>  -31.5367    1.0000 </r>
       <r>  -31.5313    1.0000 </r>
       <r>  -31.5198    1.0000 </r>
       <r>  -31.5156    1.0000 </r>
       <r>  -31.5104    1.0000 </r>
       <r>  -31.5029    1.0000 </r>
       <r>  -31.4992    1.0000 </r>
       <r>  -31.4843    1.0000 </r>
       <r>  -31.4816    1.0000 </r>
       <r>  -31.4746    1.0000 </r>
       <r>  -31.4606    1.0000 </r>
       <r>  -31.4532    1.0000 </r>
       <r>  -31.4491    1.0000 </r>
       <r>  -31.4463    1.0000 </r>
       <r>  -31.4390    1.0000 </r>
       <r>  -31.4372    1.0000 </r>
       <r>  -31.4358    1.0000 </r>
       <r>  -31.4311    1.0000 </r>
       <r>  -31.4264    1.0000 </r>
       <r>  -31.4155    1.0000 </r>
       <r>  -31.4130    1.0000 </r>
       <r>  -31.4071    1.0000 </r>
       <r>  -31.3942    1.0000 </r>
       <r>  -31.3832    1.0000 </r>
       <r>  -31.3780    1.0000 </r>
       <r>  -31.3708    1.0000 </r>
       <r>  -31.3630    1.0000 </r>
       <r>  -31.3545    1.0000 </r>
       <r>  -31.3525    1.0000 </r>
       <r>  -31.3514    1.0000 </r>
       <r>  -31.3454    1.0000 </r>
       <r>  -31.3413    1.0000 </r>
       <r>  -31.3204    1.0000 </r>
       <r>  -31.3140    1.0000 </r>
       <r>  -31.3074    1.0000 </r>
       <r>  -31.2892    1.0000 </r>
       <r>  -31.2855    1.0000 </r>
       <r>  -31.2708    1.0000 </r>
       <r>  -31.2638    1.0000 </r>
       <r>  -31.2618    1.0000 </r>
       <r>  -31.2534    1.0000 </r>
       <r>  -31.2522    1.0000 </r>
       <r>  -31.2437    1.0000 </r>
       <r>  -31.2369    1.0000 </r>
       <r>  -31.2347    1.0000 </r>
       <r>  -31.2327    1.0000 </r>
       <r>  -31.2317    1.0000 </r>
       <r>  -31.2262    1.0000 </r>
       <r>  -31.2222    1.0000 </r>
       <r>  -31.2171    1.0000 </r>
       <r>  -31.2150    1.0000 </r>
       <r>  -31.2096    1.0000 </r>
       <r>  -31.2025    1.0000 </r>
       <r>  -31.2009    1.0000 </r>
       <r>  -31.1929    1.0000 </r>
       <r>  -31.1891    1.0000 </r>
       <r>  -31.1832    1.0000 </r>
       <r>  -31.1813    1.0000 </r>
       <r>  -31.1719    1.0000 </r>
       <r>  -31.1713    1.0000 </r>
       <r>  -31.1652    1.0000 </r>
       <r>  -31.1623    1.0000 </r>
       <r>  -31.1467    1.0000 </r>
       <r>  -31.1461    1.0000 </r>
       <r>  -31.1309    1.0000 </r>
       <r>  -31.1259    1.0000 </r>
       <r>  -31.1252    1.0000 </r>
       <r>  -31.1248    1.0000 </r>
       <r>  -31.1133    1.0000 </r>
       <r>  -31.1019    1.0000 </r>
       <r>  -31.0994    1.0000 </r>
       <r>  -31.0954    1.0000 </r>
       <r>  -31.0932    1.0000 </r>
       <r>  -31.0852    1.0000 </r>
       <r>  -31.0844    1.0000 </r>
       <r>  -31.0803    1.0000 </r>
       <r>  -31.0787    1.0000 </r>
       <r>  -31.0773    1.0000 </r>
       <r>  -31.0661    1.0000 </r>
       <r>  -31.0639    1.0000 </r>
       <r>  -31.0580    1.0000 </r>
       <r>  -31.0573    1.0000 </r>
       <r>  -31.0539    1.0000 </r>
       <r>  -31.0480    1.0000 </r>
       <r>  -31.0465    1.0000 </r>
       <r>  -31.0422    1.0000 </r>
       <r>  -31.0309    1.0000 </r>
       <r>  -31.0291    1.0000 </r>
       <r>  -31.0230    1.0000 </r>
       <r>  -31.0083    1.0000 </r>
       <r>  -30.9840    1.0000 </r>
       <r>  -30.9675    1.0000 </r>
       <r>  -30.9600    1.0000 </r>
       <r>  -30.9557    1.0000 </r>
       <r>  -30.9369    1.0000 </r>
       <r>  -30.9294    1.0000 </r>
       <r>  -30.9160    1.0000 </r>
       <r>  -27.9822    1.0000 </r>
       <r>  -27.9452    1.0000 </r>
       <r>  -27.8698    1.0000 </r>
       <r>  -27.8447    1.0000 </r>
       <r>  -27.7364    1.0000 </r>
       <r>  -27.7306    1.0000 </r>
       <r>  -16.1866    1.0000 </r>
       <r>   -2.9807    1.0000 </r>
       <r>   -2.9609    1.0000 </r>
       <r>   -2.5669    1.0000 </r>
       <r>   -2.4919    1.0000 </r>
       <r>   -2.0225    1.0000 </r>
       <r>   -1.9896    1.0000 </r>
       <r>   -1.9370    1.0000 </r>
       <r>   -1.4032    1.0000 </r>
       <r>   -1.3682    1.0000 </r>
       <r>   -1.3575    1.0000 </r>
       <r>   -1.3090    1.0000 </r>
       <r>   -1.2786    1.0000 </r>
       <r>   -1.2769    1.0000 </r>
       <r>   -1.2635    1.0000 </r>
       <r>   -1.2592    1.0000 </r>
       <r>   -1.2431    1.0000 </r>
       <r>   -1.2053    1.0000 </r>
       <r>   -1.0940    1.0000 </r>
       <r>   -0.9515    1.0000 </r>
       <r>   -0.8940    1.0000 </r>
       <r>   -0.8484    1.0000 </r>
       <r>   -0.8432    1.0000 </r>
       <r>   -0.8285    1.0000 </r>
       <r>   -0.8242    1.0000 </r>
       <r>   -0.8117    1.0000 </r>
       <r>   -0.7924    1.0000 </r>
       <r>   -0.7636    1.0000 </r>
       <r>   -0.7519    1.0000 </r>
       <r>   -0.7449    1.0000 </r>
       <r>   -0.7389    1.0000 </r>
       <r>   -0.6457    1.0000 </r>
       <r>   -0.6402    1.0000 </r>
       <r>   -0.5302    1.0000 </r>
       <r>   -0.5093    1.0000 </r>
       <r>   -0.5052    1.0000 </r>
       <r>   -0.4891    1.0000 </r>
       <r>   -0.4498    1.0000 </r>
       <r>   -0.4240    1.0000 </r>
       <r>   -0.3929    1.0000 </r>
       <r>   -0.3827    1.0000 </r>
       <r>   -0.3765    1.0000 </r>
       <r>   -0.3162    1.0000 </r>
       <r>   -0.3046    1.0000 </r>
       <r>   -0.2962    1.0000 </r>
       <r>   -0.2551    1.0000 </r>
       <r>   -0.2527    1.0000 </r>
       <r>   -0.2040    1.0000 </r>
       <r>   -0.1778    1.0000 </r>
       <r>   -0.1189    1.0000 </r>
       <r>   -0.0579    1.0000 </r>
       <r>   -0.0494    1.0000 </r>
       <r>   -0.0283    1.0000 </r>
       <r>    0.0261    1.0000 </r>
       <r>    0.0303    1.0000 </r>
       <r>    0.0762    1.0000 </r>
       <r>    0.1199    1.0000 </r>
       <r>    0.1333    1.0000 </r>
       <r>    0.1537    1.0000 </r>
       <r>    0.1800    1.0000 </r>
       <r>    0.1992    1.0000 </r>
       <r>    0.2353    1.0000 </r>
       <r>    0.2469    1.0000 </r>
       <r>    0.2829    1.0000 </r>
       <r>    0.3028    1.0000 </r>
       <r>    0.3128    1.0000 </r>
       <r>    0.3508    1.0000 </r>
       <r>    0.3560    1.0000 </r>
       <r>    0.3958    1.0000 </r>
       <r>    0.4239    1.0000 </r>
       <r>    0.4264    1.0000 </r>
       <r>    0.4356    1.0000 </r>
       <r>    0.4559    1.0000 </r>
       <r>    0.4573    1.0000 </r>
       <r>    0.4824    1.0000 </r>
       <r>    0.4973    1.0000 </r>
       <r>    0.5063    1.0000 </r>
       <r>    0.5153    1.0000 </r>
       <r>    0.5345    1.0000 </r>
       <r>    0.5516    1.0000 </r>
       <r>    0.5702    1.0000 </r>
       <r>    0.5806    1.0000 </r>
       <r>    0.5910    1.0000 </r>
       <r>    0.6154    1.0000 </r>
       <r>    0.6268    1.0000 </r>
       <r>    0.6462    1.0000 </r>
       <r>    0.6842    1.0000 </r>
       <r>    0.6988    1.0000 </r>
       <r>    0.7232    1.0000 </r>
       <r>    0.7873    1.0000 </r>
       <r>    0.7937    1.0000 </r>
       <r>    0.8333    1.0000 </r>
       <r>    0.8439    1.0000 </r>
       <r>    0.8494    1.0000 </r>
       <r>    0.8699    1.0000 </r>
       <r>    0.8807    1.0000 </r>
       <r>    0.9150    1.0000 </r>
       <r>    0.9546    1.0000 </r>
       <r>    0.9720    1.0000 </r>
       <r>    0.9964    1.0000 </r>
       <r>    1.0144    1.0000 </r>
       <r>    1.0247    1.0000 </r>
       <r>    1.0286    1.0000 </r>
       <r>    1.0493    1.0000 </r>
       <r>    1.0712    1.0000 </r>
       <r>    1.0953    1.0000 </r>
       <r>    1.1069    1.0000 </r>
       <r>    1.1981    1.0000 </r>
       <r>    1.2099    1.0000 </r>
       <r>    1.2153    1.0000 </r>
       <r>    1.2645    1.0000 </r>
       <r>    1.3147    1.0000 </r>
       <r>    1.3406    1.0000 </r>
       <r>    1.3761    1.0000 </r>
       <r>    1.3931    1.0000 </r>
       <r>    1.4167    1.0000 </r>
       <r>    1.4385    1.0000 </r>
       <r>    1.4542    1.0000 </r>
       <r>    1.5058    1.0000 </r>
       <r>    1.5176    1.0000 </r>
       <r>    1.5404    1.0000 </r>
       <r>    1.5488    1.0000 </r>
       <r>    1.5910    1.0000 </r>
       <r>    1.5983    1.0000 </r>
       <r>    1.6143    1.0000 </r>
       <r>    1.6259    1.0000 </r>
       <r>    1.6697    1.0000 </r>
       <r>    1.7263    1.0000 </r>
       <r>    1.7421    1.0000 </r>
       <r>    1.7886    1.0000 </r>
       <r>    1.7913    1.0000 </r>
       <r>    1.8000    1.0000 </r>
       <r>    1.8254    1.0000 </r>
       <r>    1.8416    1.0000 </r>
       <r>    1.8759    1.0000 </r>
       <r>    1.9013    1.0000 </r>
       <r>    1.9335    1.0000 </r>
       <r>    1.9451    1.0000 </r>
       <r>    1.9683    1.0000 </r>
       <r>    1.9884    1.0000 </r>
       <r>    1.9922    1.0000 </r>
       <r>    2.0128    1.0000 </r>
       <r>    2.0286    1.0000 </r>
       <r>    2.0605    1.0000 </r>
       <r>    2.0659    1.0000 </r>
       <r>    2.0935    1.0000 </r>
       <r>    2.1037    1.0000 </r>
       <r>    2.1182    1.0000 </r>
       <r>    2.1830    1.0000 </r>
       <r>    2.1960    1.0000 </r>
       <r>    2.2318    1.0000 </r>
       <r>    2.2736    1.0000 </r>
       <r>    2.2945    1.0000 </r>
       <r>    2.3280    1.0000 </r>
       <r>    2.3521    1.0000 </r>
       <r>    2.3659    1.0000 </r>
       <r>    2.3939    1.0000 </r>
       <r>    2.4029    1.0000 </r>
       <r>    2.4852    1.0000 </r>
       <r>    2.5530    1.0000 </r>
       <r>    2.5567    1.0000 </r>
       <r>    2.5968    1.0000 </r>
       <r>    2.6755    1.0000 </r>
       <r>    2.7243    1.0000 </r>
       <r>    2.7778    1.0000 </r>
       <r>    2.8305    1.0000 </r>
       <r>    2.8524    1.0000 </r>
       <r>    2.8763    1.0000 </r>
       <r>    2.8794    1.0000 </r>
       <r>    2.9026    1.0000 </r>
       <r>    2.9277    1.0000 </r>
       <r>    2.9304    1.0000 </r>
       <r>    2.9397    1.0000 </r>
       <r>    2.9859    1.0000 </r>
       <r>    3.0277    1.0000 </r>
       <r>    3.0711    1.0000 </r>
       <r>    3.0892    1.0000 </r>
       <r>    3.1336    1.0000 </r>
       <r>    3.1539    1.0000 </r>
       <r>    3.1636    1.0000 </r>
       <r>    3.2196    0.9998 </r>
       <r>    3.2274    0.9997 </r>
       <r>    3.2498    0.9992 </r>
       <r>    3.2753    0.9975 </r>
       <r>    3.2842    0.9963 </r>
       <r>    3.3681    0.9317 </r>
       <r>    3.3758    0.9161 </r>
       <r>    3.4167    0.7887 </r>
       <r>    3.4769    0.4800 </r>
       <r>    3.5006    0.3502 </r>
       <r>    3.5451    0.1550 </r>
       <r>    3.5687    0.0889 </r>
       <r>    3.6681    0.0029 </r>
       <r>    3.6876    0.0012 </r>
       <r>    3.7201    0.0002 </r>
       <r>    3.7569    0.0000 </r>
       <r>    3.7889    0.0000 </r>
       <r>    3.8523    0.0000 </r>
       <r>    3.9066    0.0000 </r>
       <r>    3.9236    0.0000 </r>
       <r>    3.9412    0.0000 </r>
       <r>    3.9554    0.0000 </r>
       <r>    3.9842    0.0000 </r>
       <r>    3.9859    0.0000 </r>
       <r>    3.9900    0.0000 </r>
       <r>    4.0694    0.0000 </r>
       <r>    4.0784    0.0000 </r>
       <r>    4.1418    0.0000 </r>
       <r>    4.1506    0.0000 </r>
       <r>    4.1829    0.0000 </r>
       <r>    4.1987    0.0000 </r>
       <r>    4.2617    0.0000 </r>
       <r>    4.2839    0.0000 </r>
       <r>    4.2940    0.0000 </r>
       <r>    4.3300    0.0000 </r>
       <r>    4.3663    0.0000 </r>
       <r>    4.4278    0.0000 </r>
       <r>    4.4350    0.0000 </r>
       <r>    4.4714    0.0000 </r>
       <r>    4.4855    0.0000 </r>
       <r>    4.5022    0.0000 </r>
       <r>    4.5150    0.0000 </r>
       <r>    4.5256    0.0000 </r>
       <r>    4.5389    0.0000 </r>
       <r>    4.5476    0.0000 </r>
       <r>    4.5983    0.0000 </r>
       <r>    4.6076    0.0000 </r>
       <r>    4.6377    0.0000 </r>
       <r>    4.6401    0.0000 </r>
       <r>    4.6753    0.0000 </r>
       <r>    4.7271    0.0000 </r>
       <r>    4.7388    0.0000 </r>
       <r>    4.7571    0.0000 </r>
       <r>    4.7629    0.0000 </r>
       <r>    4.7690    0.0000 </r>
       <r>    4.7921    0.0000 </r>
       <r>    4.8253    0.0000 </r>
       <r>    4.8434    0.0000 </r>
       <r>    4.8574    0.0000 </r>
       <r>    4.8720    0.0000 </r>
       <r>    4.8823    0.0000 </r>
       <r>    4.9185    0.0000 </r>
       <r>    4.9379    0.0000 </r>
       <r>    4.9507    0.0000 </r>
       <r>    4.9648    0.0000 </r>
       <r>    4.9766    0.0000 </r>
       <r>    4.9959    0.0000 </r>
       <r>    5.0219    0.0000 </r>
       <r>    5.0343    0.0000 </r>
       <r>    5.0584    0.0000 </r>
       <r>    5.0644    0.0000 </r>
       <r>    5.0901    0.0000 </r>
       <r>    5.0973    0.0000 </r>
       <r>    5.1165    0.0000 </r>
       <r>    5.1187    0.0000 </r>
       <r>    5.1432    0.0000 </r>
       <r>    5.1742    0.0000 </r>
       <r>    5.1831    0.0000 </r>
       <r>    5.2029    0.0000 </r>
       <r>    5.2135    0.0000 </r>
       <r>    5.2484    0.0000 </r>
       <r>    5.2752    0.0000 </r>
       <r>    5.3068    0.0000 </r>
       <r>    5.3130    0.0000 </r>
       <r>    5.3189    0.0000 </r>
       <r>    5.3357    0.0000 </r>
       <r>    5.3617    0.0000 </r>
       <r>    5.3644    0.0000 </r>
       <r>    5.3762    0.0000 </r>
       <r>    5.3904    0.0000 </r>
       <r>    5.4150    0.0000 </r>
       <r>    5.4863    0.0000 </r>
       <r>    5.4919    0.0000 </r>
       <r>    5.5087    0.0000 </r>
       <r>    5.5421    0.0000 </r>
      </set>
      <set comment="kpoint 7">
       <r>  -57.7223    1.0000 </r>
       <r>  -57.6769    1.0000 </r>
       <r>  -57.6696    1.0000 </r>
       <r>  -57.6550    1.0000 </r>
       <r>  -57.6359    1.0000 </r>
       <r>  -57.6268    1.0000 </r>
       <r>  -57.6155    1.0000 </r>
       <r>  -57.6056    1.0000 </r>
       <r>  -57.5993    1.0000 </r>
       <r>  -57.5938    1.0000 </r>
       <r>  -57.5891    1.0000 </r>
       <r>  -57.5827    1.0000 </r>
       <r>  -57.5795    1.0000 </r>
       <r>  -57.5745    1.0000 </r>
       <r>  -57.5702    1.0000 </r>
       <r>  -57.5676    1.0000 </r>
       <r>  -57.5607    1.0000 </r>
       <r>  -57.5509    1.0000 </r>
       <r>  -57.5197    1.0000 </r>
       <r>  -57.5024    1.0000 </r>
       <r>  -57.4880    1.0000 </r>
       <r>  -57.4785    1.0000 </r>
       <r>  -57.4722    1.0000 </r>
       <r>  -57.4630    1.0000 </r>
       <r>  -57.4621    1.0000 </r>
       <r>  -57.4578    1.0000 </r>
       <r>  -57.4566    1.0000 </r>
       <r>  -57.4548    1.0000 </r>
       <r>  -57.4521    1.0000 </r>
       <r>  -57.4488    1.0000 </r>
       <r>  -57.4482    1.0000 </r>
       <r>  -57.4463    1.0000 </r>
       <r>  -57.4452    1.0000 </r>
       <r>  -57.4422    1.0000 </r>
       <r>  -57.4409    1.0000 </r>
       <r>  -57.4364    1.0000 </r>
       <r>  -57.4345    1.0000 </r>
       <r>  -57.4315    1.0000 </r>
       <r>  -57.4289    1.0000 </r>
       <r>  -57.4138    1.0000 </r>
       <r>  -57.4027    1.0000 </r>
       <r>  -57.3936    1.0000 </r>
       <r>  -57.3866    1.0000 </r>
       <r>  -57.3638    1.0000 </r>
       <r>  -57.3344    1.0000 </r>
       <r>  -57.3188    1.0000 </r>
       <r>  -57.2697    1.0000 </r>
       <r>  -57.2555    1.0000 </r>
       <r>  -57.2524    1.0000 </r>
       <r>  -57.2490    1.0000 </r>
       <r>  -57.2458    1.0000 </r>
       <r>  -57.2442    1.0000 </r>
       <r>  -57.2436    1.0000 </r>
       <r>  -57.2403    1.0000 </r>
       <r>  -57.2395    1.0000 </r>
       <r>  -57.2375    1.0000 </r>
       <r>  -57.2283    1.0000 </r>
       <r>  -57.2229    1.0000 </r>
       <r>  -57.2078    1.0000 </r>
       <r>  -57.1891    1.0000 </r>
       <r>  -51.7939    1.0000 </r>
       <r>  -51.7865    1.0000 </r>
       <r>  -32.3393    1.0000 </r>
       <r>  -32.3093    1.0000 </r>
       <r>  -32.2902    1.0000 </r>
       <r>  -32.2849    1.0000 </r>
       <r>  -32.2700    1.0000 </r>
       <r>  -32.2598    1.0000 </r>
       <r>  -32.2264    1.0000 </r>
       <r>  -32.1981    1.0000 </r>
       <r>  -32.1915    1.0000 </r>
       <r>  -32.1860    1.0000 </r>
       <r>  -32.1761    1.0000 </r>
       <r>  -32.1727    1.0000 </r>
       <r>  -32.1582    1.0000 </r>
       <r>  -32.1567    1.0000 </r>
       <r>  -32.1490    1.0000 </r>
       <r>  -32.1428    1.0000 </r>
       <r>  -32.1394    1.0000 </r>
       <r>  -32.1369    1.0000 </r>
       <r>  -32.1312    1.0000 </r>
       <r>  -32.1234    1.0000 </r>
       <r>  -32.1082    1.0000 </r>
       <r>  -32.1039    1.0000 </r>
       <r>  -32.1010    1.0000 </r>
       <r>  -32.0926    1.0000 </r>
       <r>  -32.0854    1.0000 </r>
       <r>  -32.0784    1.0000 </r>
       <r>  -32.0697    1.0000 </r>
       <r>  -32.0620    1.0000 </r>
       <r>  -32.0589    1.0000 </r>
       <r>  -32.0392    1.0000 </r>
       <r>  -32.0304    1.0000 </r>
       <r>  -32.0203    1.0000 </r>
       <r>  -32.0039    1.0000 </r>
       <r>  -32.0007    1.0000 </r>
       <r>  -31.9829    1.0000 </r>
       <r>  -31.9706    1.0000 </r>
       <r>  -31.9674    1.0000 </r>
       <r>  -31.9510    1.0000 </r>
       <r>  -31.9436    1.0000 </r>
       <r>  -31.9340    1.0000 </r>
       <r>  -31.9193    1.0000 </r>
       <r>  -31.9070    1.0000 </r>
       <r>  -31.9043    1.0000 </r>
       <r>  -31.8881    1.0000 </r>
       <r>  -31.8756    1.0000 </r>
       <r>  -31.8611    1.0000 </r>
       <r>  -31.8534    1.0000 </r>
       <r>  -31.8449    1.0000 </r>
       <r>  -31.8379    1.0000 </r>
       <r>  -31.8320    1.0000 </r>
       <r>  -31.8203    1.0000 </r>
       <r>  -31.8174    1.0000 </r>
       <r>  -31.8057    1.0000 </r>
       <r>  -31.7898    1.0000 </r>
       <r>  -31.7673    1.0000 </r>
       <r>  -31.7557    1.0000 </r>
       <r>  -31.7533    1.0000 </r>
       <r>  -31.7459    1.0000 </r>
       <r>  -31.7359    1.0000 </r>
       <r>  -31.7312    1.0000 </r>
       <r>  -31.7198    1.0000 </r>
       <r>  -31.7000    1.0000 </r>
       <r>  -31.6955    1.0000 </r>
       <r>  -31.6942    1.0000 </r>
       <r>  -31.6889    1.0000 </r>
       <r>  -31.6856    1.0000 </r>
       <r>  -31.6812    1.0000 </r>
       <r>  -31.6695    1.0000 </r>
       <r>  -31.6660    1.0000 </r>
       <r>  -31.6510    1.0000 </r>
       <r>  -31.6328    1.0000 </r>
       <r>  -31.6290    1.0000 </r>
       <r>  -31.6252    1.0000 </r>
       <r>  -31.6186    1.0000 </r>
       <r>  -31.6084    1.0000 </r>
       <r>  -31.6049    1.0000 </r>
       <r>  -31.5973    1.0000 </r>
       <r>  -31.5866    1.0000 </r>
       <r>  -31.5790    1.0000 </r>
       <r>  -31.5715    1.0000 </r>
       <r>  -31.5642    1.0000 </r>
       <r>  -31.5552    1.0000 </r>
       <r>  -31.5478    1.0000 </r>
       <r>  -31.5397    1.0000 </r>
       <r>  -31.5351    1.0000 </r>
       <r>  -31.5281    1.0000 </r>
       <r>  -31.5198    1.0000 </r>
       <r>  -31.5111    1.0000 </r>
       <r>  -31.4977    1.0000 </r>
       <r>  -31.4907    1.0000 </r>
       <r>  -31.4827    1.0000 </r>
       <r>  -31.4740    1.0000 </r>
       <r>  -31.4713    1.0000 </r>
       <r>  -31.4624    1.0000 </r>
       <r>  -31.4555    1.0000 </r>
       <r>  -31.4521    1.0000 </r>
       <r>  -31.4481    1.0000 </r>
       <r>  -31.4451    1.0000 </r>
       <r>  -31.4419    1.0000 </r>
       <r>  -31.4356    1.0000 </r>
       <r>  -31.4301    1.0000 </r>
       <r>  -31.4216    1.0000 </r>
       <r>  -31.4133    1.0000 </r>
       <r>  -31.4113    1.0000 </r>
       <r>  -31.4065    1.0000 </r>
       <r>  -31.3942    1.0000 </r>
       <r>  -31.3842    1.0000 </r>
       <r>  -31.3765    1.0000 </r>
       <r>  -31.3741    1.0000 </r>
       <r>  -31.3653    1.0000 </r>
       <r>  -31.3567    1.0000 </r>
       <r>  -31.3540    1.0000 </r>
       <r>  -31.3524    1.0000 </r>
       <r>  -31.3475    1.0000 </r>
       <r>  -31.3415    1.0000 </r>
       <r>  -31.3270    1.0000 </r>
       <r>  -31.3140    1.0000 </r>
       <r>  -31.2969    1.0000 </r>
       <r>  -31.2915    1.0000 </r>
       <r>  -31.2819    1.0000 </r>
       <r>  -31.2723    1.0000 </r>
       <r>  -31.2671    1.0000 </r>
       <r>  -31.2575    1.0000 </r>
       <r>  -31.2513    1.0000 </r>
       <r>  -31.2484    1.0000 </r>
       <r>  -31.2435    1.0000 </r>
       <r>  -31.2390    1.0000 </r>
       <r>  -31.2374    1.0000 </r>
       <r>  -31.2302    1.0000 </r>
       <r>  -31.2287    1.0000 </r>
       <r>  -31.2263    1.0000 </r>
       <r>  -31.2218    1.0000 </r>
       <r>  -31.2184    1.0000 </r>
       <r>  -31.2141    1.0000 </r>
       <r>  -31.2067    1.0000 </r>
       <r>  -31.2026    1.0000 </r>
       <r>  -31.2016    1.0000 </r>
       <r>  -31.1940    1.0000 </r>
       <r>  -31.1907    1.0000 </r>
       <r>  -31.1860    1.0000 </r>
       <r>  -31.1807    1.0000 </r>
       <r>  -31.1775    1.0000 </r>
       <r>  -31.1731    1.0000 </r>
       <r>  -31.1638    1.0000 </r>
       <r>  -31.1571    1.0000 </r>
       <r>  -31.1508    1.0000 </r>
       <r>  -31.1411    1.0000 </r>
       <r>  -31.1363    1.0000 </r>
       <r>  -31.1276    1.0000 </r>
       <r>  -31.1252    1.0000 </r>
       <r>  -31.1248    1.0000 </r>
       <r>  -31.1092    1.0000 </r>
       <r>  -31.1042    1.0000 </r>
       <r>  -31.1006    1.0000 </r>
       <r>  -31.0938    1.0000 </r>
       <r>  -31.0883    1.0000 </r>
       <r>  -31.0857    1.0000 </r>
       <r>  -31.0848    1.0000 </r>
       <r>  -31.0801    1.0000 </r>
       <r>  -31.0783    1.0000 </r>
       <r>  -31.0759    1.0000 </r>
       <r>  -31.0663    1.0000 </r>
       <r>  -31.0635    1.0000 </r>
       <r>  -31.0591    1.0000 </r>
       <r>  -31.0565    1.0000 </r>
       <r>  -31.0526    1.0000 </r>
       <r>  -31.0485    1.0000 </r>
       <r>  -31.0448    1.0000 </r>
       <r>  -31.0430    1.0000 </r>
       <r>  -31.0342    1.0000 </r>
       <r>  -31.0260    1.0000 </r>
       <r>  -31.0209    1.0000 </r>
       <r>  -31.0132    1.0000 </r>
       <r>  -30.9817    1.0000 </r>
       <r>  -30.9696    1.0000 </r>
       <r>  -30.9620    1.0000 </r>
       <r>  -30.9564    1.0000 </r>
       <r>  -30.9384    1.0000 </r>
       <r>  -30.9262    1.0000 </r>
       <r>  -30.9161    1.0000 </r>
       <r>  -27.9822    1.0000 </r>
       <r>  -27.9452    1.0000 </r>
       <r>  -27.8698    1.0000 </r>
       <r>  -27.8447    1.0000 </r>
       <r>  -27.7364    1.0000 </r>
       <r>  -27.7306    1.0000 </r>
       <r>  -16.1866    1.0000 </r>
       <r>   -3.0160    1.0000 </r>
       <r>   -2.9274    1.0000 </r>
       <r>   -2.5583    1.0000 </r>
       <r>   -2.5004    1.0000 </r>
       <r>   -2.0174    1.0000 </r>
       <r>   -1.9854    1.0000 </r>
       <r>   -1.9397    1.0000 </r>
       <r>   -1.4029    1.0000 </r>
       <r>   -1.3701    1.0000 </r>
       <r>   -1.3591    1.0000 </r>
       <r>   -1.2993    1.0000 </r>
       <r>   -1.2872    1.0000 </r>
       <r>   -1.2739    1.0000 </r>
       <r>   -1.2653    1.0000 </r>
       <r>   -1.2522    1.0000 </r>
       <r>   -1.2504    1.0000 </r>
       <r>   -1.1960    1.0000 </r>
       <r>   -1.1049    1.0000 </r>
       <r>   -0.9485    1.0000 </r>
       <r>   -0.8931    1.0000 </r>
       <r>   -0.8492    1.0000 </r>
       <r>   -0.8434    1.0000 </r>
       <r>   -0.8324    1.0000 </r>
       <r>   -0.8223    1.0000 </r>
       <r>   -0.8017    1.0000 </r>
       <r>   -0.7932    1.0000 </r>
       <r>   -0.7713    1.0000 </r>
       <r>   -0.7602    1.0000 </r>
       <r>   -0.7539    1.0000 </r>
       <r>   -0.7300    1.0000 </r>
       <r>   -0.6532    1.0000 </r>
       <r>   -0.6342    1.0000 </r>
       <r>   -0.5184    1.0000 </r>
       <r>   -0.5146    1.0000 </r>
       <r>   -0.5052    1.0000 </r>
       <r>   -0.4791    1.0000 </r>
       <r>   -0.4448    1.0000 </r>
       <r>   -0.4312    1.0000 </r>
       <r>   -0.3956    1.0000 </r>
       <r>   -0.3830    1.0000 </r>
       <r>   -0.3682    1.0000 </r>
       <r>   -0.3183    1.0000 </r>
       <r>   -0.3067    1.0000 </r>
       <r>   -0.3052    1.0000 </r>
       <r>   -0.2631    1.0000 </r>
       <r>   -0.2487    1.0000 </r>
       <r>   -0.1977    1.0000 </r>
       <r>   -0.1780    1.0000 </r>
       <r>   -0.1149    1.0000 </r>
       <r>   -0.0706    1.0000 </r>
       <r>   -0.0583    1.0000 </r>
       <r>   -0.0093    1.0000 </r>
       <r>    0.0252    1.0000 </r>
       <r>    0.0339    1.0000 </r>
       <r>    0.0539    1.0000 </r>
       <r>    0.1271    1.0000 </r>
       <r>    0.1486    1.0000 </r>
       <r>    0.1625    1.0000 </r>
       <r>    0.1803    1.0000 </r>
       <r>    0.2043    1.0000 </r>
       <r>    0.2210    1.0000 </r>
       <r>    0.2403    1.0000 </r>
       <r>    0.2982    1.0000 </r>
       <r>    0.3062    1.0000 </r>
       <r>    0.3145    1.0000 </r>
       <r>    0.3268    1.0000 </r>
       <r>    0.3541    1.0000 </r>
       <r>    0.4027    1.0000 </r>
       <r>    0.4283    1.0000 </r>
       <r>    0.4323    1.0000 </r>
       <r>    0.4340    1.0000 </r>
       <r>    0.4499    1.0000 </r>
       <r>    0.4562    1.0000 </r>
       <r>    0.4814    1.0000 </r>
       <r>    0.4943    1.0000 </r>
       <r>    0.5025    1.0000 </r>
       <r>    0.5261    1.0000 </r>
       <r>    0.5397    1.0000 </r>
       <r>    0.5494    1.0000 </r>
       <r>    0.5617    1.0000 </r>
       <r>    0.5721    1.0000 </r>
       <r>    0.5963    1.0000 </r>
       <r>    0.6201    1.0000 </r>
       <r>    0.6270    1.0000 </r>
       <r>    0.6387    1.0000 </r>
       <r>    0.6840    1.0000 </r>
       <r>    0.6977    1.0000 </r>
       <r>    0.7231    1.0000 </r>
       <r>    0.7574    1.0000 </r>
       <r>    0.8080    1.0000 </r>
       <r>    0.8264    1.0000 </r>
       <r>    0.8444    1.0000 </r>
       <r>    0.8689    1.0000 </r>
       <r>    0.8711    1.0000 </r>
       <r>    0.8759    1.0000 </r>
       <r>    0.9170    1.0000 </r>
       <r>    0.9524    1.0000 </r>
       <r>    0.9654    1.0000 </r>
       <r>    0.9923    1.0000 </r>
       <r>    1.0082    1.0000 </r>
       <r>    1.0221    1.0000 </r>
       <r>    1.0354    1.0000 </r>
       <r>    1.0588    1.0000 </r>
       <r>    1.0686    1.0000 </r>
       <r>    1.0936    1.0000 </r>
       <r>    1.1220    1.0000 </r>
       <r>    1.1876    1.0000 </r>
       <r>    1.2324    1.0000 </r>
       <r>    1.2471    1.0000 </r>
       <r>    1.2573    1.0000 </r>
       <r>    1.2978    1.0000 </r>
       <r>    1.3384    1.0000 </r>
       <r>    1.3637    1.0000 </r>
       <r>    1.4032    1.0000 </r>
       <r>    1.4466    1.0000 </r>
       <r>    1.4508    1.0000 </r>
       <r>    1.4762    1.0000 </r>
       <r>    1.5008    1.0000 </r>
       <r>    1.5120    1.0000 </r>
       <r>    1.5339    1.0000 </r>
       <r>    1.5651    1.0000 </r>
       <r>    1.5851    1.0000 </r>
       <r>    1.5981    1.0000 </r>
       <r>    1.6257    1.0000 </r>
       <r>    1.6342    1.0000 </r>
       <r>    1.6708    1.0000 </r>
       <r>    1.7150    1.0000 </r>
       <r>    1.7310    1.0000 </r>
       <r>    1.7585    1.0000 </r>
       <r>    1.7807    1.0000 </r>
       <r>    1.7938    1.0000 </r>
       <r>    1.8134    1.0000 </r>
       <r>    1.8212    1.0000 </r>
       <r>    1.8750    1.0000 </r>
       <r>    1.8797    1.0000 </r>
       <r>    1.9218    1.0000 </r>
       <r>    1.9468    1.0000 </r>
       <r>    1.9502    1.0000 </r>
       <r>    1.9760    1.0000 </r>
       <r>    1.9918    1.0000 </r>
       <r>    1.9978    1.0000 </r>
       <r>    2.0319    1.0000 </r>
       <r>    2.0540    1.0000 </r>
       <r>    2.0735    1.0000 </r>
       <r>    2.0961    1.0000 </r>
       <r>    2.1038    1.0000 </r>
       <r>    2.1154    1.0000 </r>
       <r>    2.1457    1.0000 </r>
       <r>    2.1836    1.0000 </r>
       <r>    2.2270    1.0000 </r>
       <r>    2.2818    1.0000 </r>
       <r>    2.2954    1.0000 </r>
       <r>    2.3107    1.0000 </r>
       <r>    2.3310    1.0000 </r>
       <r>    2.3949    1.0000 </r>
       <r>    2.4123    1.0000 </r>
       <r>    2.4475    1.0000 </r>
       <r>    2.4875    1.0000 </r>
       <r>    2.5445    1.0000 </r>
       <r>    2.5647    1.0000 </r>
       <r>    2.5935    1.0000 </r>
       <r>    2.6915    1.0000 </r>
       <r>    2.7365    1.0000 </r>
       <r>    2.7728    1.0000 </r>
       <r>    2.7992    1.0000 </r>
       <r>    2.8615    1.0000 </r>
       <r>    2.8712    1.0000 </r>
       <r>    2.8786    1.0000 </r>
       <r>    2.9095    1.0000 </r>
       <r>    2.9191    1.0000 </r>
       <r>    2.9247    1.0000 </r>
       <r>    2.9970    1.0000 </r>
       <r>    3.0274    1.0000 </r>
       <r>    3.0322    1.0000 </r>
       <r>    3.0760    1.0000 </r>
       <r>    3.1122    1.0000 </r>
       <r>    3.1350    1.0000 </r>
       <r>    3.1556    1.0000 </r>
       <r>    3.1924    1.0000 </r>
       <r>    3.2273    0.9997 </r>
       <r>    3.2438    0.9994 </r>
       <r>    3.2595    0.9988 </r>
       <r>    3.2642    0.9985 </r>
       <r>    3.2919    0.9949 </r>
       <r>    3.3316    0.9775 </r>
       <r>    3.3464    0.9637 </r>
       <r>    3.4361    0.7008 </r>
       <r>    3.4856    0.4313 </r>
       <r>    3.5313    0.2064 </r>
       <r>    3.5602    0.1098 </r>
       <r>    3.5867    0.0545 </r>
       <r>    3.6091    0.0274 </r>
       <r>    3.6606    0.0040 </r>
       <r>    3.7457    0.0001 </r>
       <r>    3.8099    0.0000 </r>
       <r>    3.8518    0.0000 </r>
       <r>    3.8650    0.0000 </r>
       <r>    3.8842    0.0000 </r>
       <r>    3.8957    0.0000 </r>
       <r>    3.9297    0.0000 </r>
       <r>    3.9445    0.0000 </r>
       <r>    3.9706    0.0000 </r>
       <r>    3.9828    0.0000 </r>
       <r>    3.9832    0.0000 </r>
       <r>    4.0489    0.0000 </r>
       <r>    4.0702    0.0000 </r>
       <r>    4.1133    0.0000 </r>
       <r>    4.1629    0.0000 </r>
       <r>    4.1948    0.0000 </r>
       <r>    4.2145    0.0000 </r>
       <r>    4.2537    0.0000 </r>
       <r>    4.2852    0.0000 </r>
       <r>    4.3208    0.0000 </r>
       <r>    4.3485    0.0000 </r>
       <r>    4.3788    0.0000 </r>
       <r>    4.4050    0.0000 </r>
       <r>    4.4443    0.0000 </r>
       <r>    4.4558    0.0000 </r>
       <r>    4.4714    0.0000 </r>
       <r>    4.4848    0.0000 </r>
       <r>    4.5013    0.0000 </r>
       <r>    4.5063    0.0000 </r>
       <r>    4.5465    0.0000 </r>
       <r>    4.5547    0.0000 </r>
       <r>    4.5736    0.0000 </r>
       <r>    4.6051    0.0000 </r>
       <r>    4.6305    0.0000 </r>
       <r>    4.6402    0.0000 </r>
       <r>    4.6766    0.0000 </r>
       <r>    4.7161    0.0000 </r>
       <r>    4.7271    0.0000 </r>
       <r>    4.7513    0.0000 </r>
       <r>    4.7591    0.0000 </r>
       <r>    4.7743    0.0000 </r>
       <r>    4.7827    0.0000 </r>
       <r>    4.8145    0.0000 </r>
       <r>    4.8312    0.0000 </r>
       <r>    4.8472    0.0000 </r>
       <r>    4.8820    0.0000 </r>
       <r>    4.8890    0.0000 </r>
       <r>    4.8970    0.0000 </r>
       <r>    4.9305    0.0000 </r>
       <r>    4.9514    0.0000 </r>
       <r>    4.9703    0.0000 </r>
       <r>    4.9809    0.0000 </r>
       <r>    4.9987    0.0000 </r>
       <r>    5.0222    0.0000 </r>
       <r>    5.0439    0.0000 </r>
       <r>    5.0506    0.0000 </r>
       <r>    5.0614    0.0000 </r>
       <r>    5.0763    0.0000 </r>
       <r>    5.1112    0.0000 </r>
       <r>    5.1233    0.0000 </r>
       <r>    5.1442    0.0000 </r>
       <r>    5.1629    0.0000 </r>
       <r>    5.1713    0.0000 </r>
       <r>    5.1858    0.0000 </r>
       <r>    5.2085    0.0000 </r>
       <r>    5.2260    0.0000 </r>
       <r>    5.2609    0.0000 </r>
       <r>    5.2653    0.0000 </r>
       <r>    5.2755    0.0000 </r>
       <r>    5.3104    0.0000 </r>
       <r>    5.3210    0.0000 </r>
       <r>    5.3400    0.0000 </r>
       <r>    5.3576    0.0000 </r>
       <r>    5.3616    0.0000 </r>
       <r>    5.3798    0.0000 </r>
       <r>    5.3880    0.0000 </r>
       <r>    5.4109    0.0000 </r>
       <r>    5.4485    0.0000 </r>
       <r>    5.4875    0.0000 </r>
       <r>    5.5140    0.0000 </r>
       <r>    5.5272    0.0000 </r>
      </set>
      <set comment="kpoint 8">
       <r>  -57.7047    1.0000 </r>
       <r>  -57.7002    1.0000 </r>
       <r>  -57.6592    1.0000 </r>
       <r>  -57.6571    1.0000 </r>
       <r>  -57.6464    1.0000 </r>
       <r>  -57.6368    1.0000 </r>
       <r>  -57.6147    1.0000 </r>
       <r>  -57.6095    1.0000 </r>
       <r>  -57.5953    1.0000 </r>
       <r>  -57.5924    1.0000 </r>
       <r>  -57.5834    1.0000 </r>
       <r>  -57.5800    1.0000 </r>
       <r>  -57.5753    1.0000 </r>
       <r>  -57.5718    1.0000 </r>
       <r>  -57.5679    1.0000 </r>
       <r>  -57.5647    1.0000 </r>
       <r>  -57.5588    1.0000 </r>
       <r>  -57.5497    1.0000 </r>
       <r>  -57.5166    1.0000 </r>
       <r>  -57.5016    1.0000 </r>
       <r>  -57.4913    1.0000 </r>
       <r>  -57.4770    1.0000 </r>
       <r>  -57.4733    1.0000 </r>
       <r>  -57.4651    1.0000 </r>
       <r>  -57.4616    1.0000 </r>
       <r>  -57.4597    1.0000 </r>
       <r>  -57.4570    1.0000 </r>
       <r>  -57.4552    1.0000 </r>
       <r>  -57.4535    1.0000 </r>
       <r>  -57.4519    1.0000 </r>
       <r>  -57.4502    1.0000 </r>
       <r>  -57.4493    1.0000 </r>
       <r>  -57.4466    1.0000 </r>
       <r>  -57.4424    1.0000 </r>
       <r>  -57.4417    1.0000 </r>
       <r>  -57.4390    1.0000 </r>
       <r>  -57.4361    1.0000 </r>
       <r>  -57.4311    1.0000 </r>
       <r>  -57.4288    1.0000 </r>
       <r>  -57.4094    1.0000 </r>
       <r>  -57.4007    1.0000 </r>
       <r>  -57.3926    1.0000 </r>
       <r>  -57.3761    1.0000 </r>
       <r>  -57.3706    1.0000 </r>
       <r>  -57.3331    1.0000 </r>
       <r>  -57.3189    1.0000 </r>
       <r>  -57.2708    1.0000 </r>
       <r>  -57.2563    1.0000 </r>
       <r>  -57.2523    1.0000 </r>
       <r>  -57.2500    1.0000 </r>
       <r>  -57.2483    1.0000 </r>
       <r>  -57.2466    1.0000 </r>
       <r>  -57.2430    1.0000 </r>
       <r>  -57.2399    1.0000 </r>
       <r>  -57.2379    1.0000 </r>
       <r>  -57.2342    1.0000 </r>
       <r>  -57.2316    1.0000 </r>
       <r>  -57.2194    1.0000 </r>
       <r>  -57.2041    1.0000 </r>
       <r>  -57.1924    1.0000 </r>
       <r>  -51.7939    1.0000 </r>
       <r>  -51.7865    1.0000 </r>
       <r>  -32.3445    1.0000 </r>
       <r>  -32.3205    1.0000 </r>
       <r>  -32.3000    1.0000 </r>
       <r>  -32.2973    1.0000 </r>
       <r>  -32.2663    1.0000 </r>
       <r>  -32.2367    1.0000 </r>
       <r>  -32.2348    1.0000 </r>
       <r>  -32.2231    1.0000 </r>
       <r>  -32.2118    1.0000 </r>
       <r>  -32.1810    1.0000 </r>
       <r>  -32.1758    1.0000 </r>
       <r>  -32.1670    1.0000 </r>
       <r>  -32.1605    1.0000 </r>
       <r>  -32.1577    1.0000 </r>
       <r>  -32.1448    1.0000 </r>
       <r>  -32.1419    1.0000 </r>
       <r>  -32.1295    1.0000 </r>
       <r>  -32.1265    1.0000 </r>
       <r>  -32.1147    1.0000 </r>
       <r>  -32.1106    1.0000 </r>
       <r>  -32.1042    1.0000 </r>
       <r>  -32.1023    1.0000 </r>
       <r>  -32.0970    1.0000 </r>
       <r>  -32.0932    1.0000 </r>
       <r>  -32.0857    1.0000 </r>
       <r>  -32.0754    1.0000 </r>
       <r>  -32.0707    1.0000 </r>
       <r>  -32.0644    1.0000 </r>
       <r>  -32.0594    1.0000 </r>
       <r>  -32.0520    1.0000 </r>
       <r>  -32.0417    1.0000 </r>
       <r>  -32.0134    1.0000 </r>
       <r>  -31.9983    1.0000 </r>
       <r>  -31.9850    1.0000 </r>
       <r>  -31.9779    1.0000 </r>
       <r>  -31.9689    1.0000 </r>
       <r>  -31.9607    1.0000 </r>
       <r>  -31.9552    1.0000 </r>
       <r>  -31.9429    1.0000 </r>
       <r>  -31.9252    1.0000 </r>
       <r>  -31.9137    1.0000 </r>
       <r>  -31.9088    1.0000 </r>
       <r>  -31.8991    1.0000 </r>
       <r>  -31.8926    1.0000 </r>
       <r>  -31.8845    1.0000 </r>
       <r>  -31.8728    1.0000 </r>
       <r>  -31.8660    1.0000 </r>
       <r>  -31.8576    1.0000 </r>
       <r>  -31.8433    1.0000 </r>
       <r>  -31.8345    1.0000 </r>
       <r>  -31.8248    1.0000 </r>
       <r>  -31.8094    1.0000 </r>
       <r>  -31.8070    1.0000 </r>
       <r>  -31.7816    1.0000 </r>
       <r>  -31.7658    1.0000 </r>
       <r>  -31.7632    1.0000 </r>
       <r>  -31.7594    1.0000 </r>
       <r>  -31.7485    1.0000 </r>
       <r>  -31.7375    1.0000 </r>
       <r>  -31.7193    1.0000 </r>
       <r>  -31.7066    1.0000 </r>
       <r>  -31.6996    1.0000 </r>
       <r>  -31.6958    1.0000 </r>
       <r>  -31.6903    1.0000 </r>
       <r>  -31.6822    1.0000 </r>
       <r>  -31.6742    1.0000 </r>
       <r>  -31.6636    1.0000 </r>
       <r>  -31.6588    1.0000 </r>
       <r>  -31.6545    1.0000 </r>
       <r>  -31.6517    1.0000 </r>
       <r>  -31.6393    1.0000 </r>
       <r>  -31.6346    1.0000 </r>
       <r>  -31.6261    1.0000 </r>
       <r>  -31.6112    1.0000 </r>
       <r>  -31.6045    1.0000 </r>
       <r>  -31.5888    1.0000 </r>
       <r>  -31.5827    1.0000 </r>
       <r>  -31.5744    1.0000 </r>
       <r>  -31.5688    1.0000 </r>
       <r>  -31.5631    1.0000 </r>
       <r>  -31.5524    1.0000 </r>
       <r>  -31.5481    1.0000 </r>
       <r>  -31.5412    1.0000 </r>
       <r>  -31.5361    1.0000 </r>
       <r>  -31.5304    1.0000 </r>
       <r>  -31.5242    1.0000 </r>
       <r>  -31.5171    1.0000 </r>
       <r>  -31.5121    1.0000 </r>
       <r>  -31.5061    1.0000 </r>
       <r>  -31.5002    1.0000 </r>
       <r>  -31.4970    1.0000 </r>
       <r>  -31.4929    1.0000 </r>
       <r>  -31.4869    1.0000 </r>
       <r>  -31.4804    1.0000 </r>
       <r>  -31.4764    1.0000 </r>
       <r>  -31.4692    1.0000 </r>
       <r>  -31.4608    1.0000 </r>
       <r>  -31.4587    1.0000 </r>
       <r>  -31.4538    1.0000 </r>
       <r>  -31.4495    1.0000 </r>
       <r>  -31.4440    1.0000 </r>
       <r>  -31.4373    1.0000 </r>
       <r>  -31.4231    1.0000 </r>
       <r>  -31.4187    1.0000 </r>
       <r>  -31.4100    1.0000 </r>
       <r>  -31.4077    1.0000 </r>
       <r>  -31.3963    1.0000 </r>
       <r>  -31.3843    1.0000 </r>
       <r>  -31.3759    1.0000 </r>
       <r>  -31.3658    1.0000 </r>
       <r>  -31.3616    1.0000 </r>
       <r>  -31.3549    1.0000 </r>
       <r>  -31.3407    1.0000 </r>
       <r>  -31.3337    1.0000 </r>
       <r>  -31.3196    1.0000 </r>
       <r>  -31.3044    1.0000 </r>
       <r>  -31.2965    1.0000 </r>
       <r>  -31.2893    1.0000 </r>
       <r>  -31.2864    1.0000 </r>
       <r>  -31.2850    1.0000 </r>
       <r>  -31.2828    1.0000 </r>
       <r>  -31.2804    1.0000 </r>
       <r>  -31.2759    1.0000 </r>
       <r>  -31.2628    1.0000 </r>
       <r>  -31.2567    1.0000 </r>
       <r>  -31.2447    1.0000 </r>
       <r>  -31.2348    1.0000 </r>
       <r>  -31.2284    1.0000 </r>
       <r>  -31.2237    1.0000 </r>
       <r>  -31.2192    1.0000 </r>
       <r>  -31.2166    1.0000 </r>
       <r>  -31.2112    1.0000 </r>
       <r>  -31.2097    1.0000 </r>
       <r>  -31.2045    1.0000 </r>
       <r>  -31.2001    1.0000 </r>
       <r>  -31.1951    1.0000 </r>
       <r>  -31.1924    1.0000 </r>
       <r>  -31.1885    1.0000 </r>
       <r>  -31.1842    1.0000 </r>
       <r>  -31.1813    1.0000 </r>
       <r>  -31.1799    1.0000 </r>
       <r>  -31.1761    1.0000 </r>
       <r>  -31.1717    1.0000 </r>
       <r>  -31.1645    1.0000 </r>
       <r>  -31.1625    1.0000 </r>
       <r>  -31.1597    1.0000 </r>
       <r>  -31.1466    1.0000 </r>
       <r>  -31.1396    1.0000 </r>
       <r>  -31.1343    1.0000 </r>
       <r>  -31.1290    1.0000 </r>
       <r>  -31.1217    1.0000 </r>
       <r>  -31.1100    1.0000 </r>
       <r>  -31.1004    1.0000 </r>
       <r>  -31.0982    1.0000 </r>
       <r>  -31.0962    1.0000 </r>
       <r>  -31.0894    1.0000 </r>
       <r>  -31.0877    1.0000 </r>
       <r>  -31.0862    1.0000 </r>
       <r>  -31.0812    1.0000 </r>
       <r>  -31.0798    1.0000 </r>
       <r>  -31.0791    1.0000 </r>
       <r>  -31.0669    1.0000 </r>
       <r>  -31.0649    1.0000 </r>
       <r>  -31.0606    1.0000 </r>
       <r>  -31.0523    1.0000 </r>
       <r>  -31.0506    1.0000 </r>
       <r>  -31.0450    1.0000 </r>
       <r>  -31.0426    1.0000 </r>
       <r>  -31.0377    1.0000 </r>
       <r>  -31.0353    1.0000 </r>
       <r>  -31.0323    1.0000 </r>
       <r>  -31.0261    1.0000 </r>
       <r>  -31.0065    1.0000 </r>
       <r>  -30.9840    1.0000 </r>
       <r>  -30.9673    1.0000 </r>
       <r>  -30.9636    1.0000 </r>
       <r>  -30.9560    1.0000 </r>
       <r>  -30.9401    1.0000 </r>
       <r>  -30.9292    1.0000 </r>
       <r>  -30.9158    1.0000 </r>
       <r>  -27.9822    1.0000 </r>
       <r>  -27.9453    1.0000 </r>
       <r>  -27.8698    1.0000 </r>
       <r>  -27.8447    1.0000 </r>
       <r>  -27.7364    1.0000 </r>
       <r>  -27.7305    1.0000 </r>
       <r>  -16.1865    1.0000 </r>
       <r>   -2.9647    1.0000 </r>
       <r>   -2.6499    1.0000 </r>
       <r>   -2.5945    1.0000 </r>
       <r>   -2.5062    1.0000 </r>
       <r>   -2.4374    1.0000 </r>
       <r>   -1.7327    1.0000 </r>
       <r>   -1.7046    1.0000 </r>
       <r>   -1.6952    1.0000 </r>
       <r>   -1.6183    1.0000 </r>
       <r>   -1.3442    1.0000 </r>
       <r>   -1.2970    1.0000 </r>
       <r>   -1.2521    1.0000 </r>
       <r>   -1.2073    1.0000 </r>
       <r>   -1.1467    1.0000 </r>
       <r>   -1.0845    1.0000 </r>
       <r>   -1.0220    1.0000 </r>
       <r>   -0.9949    1.0000 </r>
       <r>   -0.9615    1.0000 </r>
       <r>   -0.9319    1.0000 </r>
       <r>   -0.9079    1.0000 </r>
       <r>   -0.8841    1.0000 </r>
       <r>   -0.8671    1.0000 </r>
       <r>   -0.8526    1.0000 </r>
       <r>   -0.8124    1.0000 </r>
       <r>   -0.7556    1.0000 </r>
       <r>   -0.7276    1.0000 </r>
       <r>   -0.7179    1.0000 </r>
       <r>   -0.7011    1.0000 </r>
       <r>   -0.6862    1.0000 </r>
       <r>   -0.6590    1.0000 </r>
       <r>   -0.6349    1.0000 </r>
       <r>   -0.6239    1.0000 </r>
       <r>   -0.6039    1.0000 </r>
       <r>   -0.5789    1.0000 </r>
       <r>   -0.5273    1.0000 </r>
       <r>   -0.4823    1.0000 </r>
       <r>   -0.4572    1.0000 </r>
       <r>   -0.4504    1.0000 </r>
       <r>   -0.4342    1.0000 </r>
       <r>   -0.3979    1.0000 </r>
       <r>   -0.3642    1.0000 </r>
       <r>   -0.3458    1.0000 </r>
       <r>   -0.2938    1.0000 </r>
       <r>   -0.2593    1.0000 </r>
       <r>   -0.2402    1.0000 </r>
       <r>   -0.2311    1.0000 </r>
       <r>   -0.2166    1.0000 </r>
       <r>   -0.1916    1.0000 </r>
       <r>   -0.1762    1.0000 </r>
       <r>   -0.1553    1.0000 </r>
       <r>   -0.1348    1.0000 </r>
       <r>   -0.1035    1.0000 </r>
       <r>   -0.0413    1.0000 </r>
       <r>   -0.0146    1.0000 </r>
       <r>    0.0275    1.0000 </r>
       <r>    0.0547    1.0000 </r>
       <r>    0.0744    1.0000 </r>
       <r>    0.0970    1.0000 </r>
       <r>    0.1061    1.0000 </r>
       <r>    0.1506    1.0000 </r>
       <r>    0.1788    1.0000 </r>
       <r>    0.2533    1.0000 </r>
       <r>    0.2754    1.0000 </r>
       <r>    0.2877    1.0000 </r>
       <r>    0.3137    1.0000 </r>
       <r>    0.3239    1.0000 </r>
       <r>    0.3337    1.0000 </r>
       <r>    0.3450    1.0000 </r>
       <r>    0.3545    1.0000 </r>
       <r>    0.3670    1.0000 </r>
       <r>    0.3965    1.0000 </r>
       <r>    0.4155    1.0000 </r>
       <r>    0.4193    1.0000 </r>
       <r>    0.4423    1.0000 </r>
       <r>    0.4503    1.0000 </r>
       <r>    0.4627    1.0000 </r>
       <r>    0.4783    1.0000 </r>
       <r>    0.5040    1.0000 </r>
       <r>    0.5353    1.0000 </r>
       <r>    0.5547    1.0000 </r>
       <r>    0.5836    1.0000 </r>
       <r>    0.5973    1.0000 </r>
       <r>    0.6079    1.0000 </r>
       <r>    0.6406    1.0000 </r>
       <r>    0.6768    1.0000 </r>
       <r>    0.6819    1.0000 </r>
       <r>    0.7077    1.0000 </r>
       <r>    0.7274    1.0000 </r>
       <r>    0.7356    1.0000 </r>
       <r>    0.7603    1.0000 </r>
       <r>    0.7835    1.0000 </r>
       <r>    0.7936    1.0000 </r>
       <r>    0.8259    1.0000 </r>
       <r>    0.8354    1.0000 </r>
       <r>    0.8644    1.0000 </r>
       <r>    0.8747    1.0000 </r>
       <r>    0.9011    1.0000 </r>
       <r>    0.9265    1.0000 </r>
       <r>    0.9568    1.0000 </r>
       <r>    0.9888    1.0000 </r>
       <r>    1.0264    1.0000 </r>
       <r>    1.0778    1.0000 </r>
       <r>    1.0937    1.0000 </r>
       <r>    1.1176    1.0000 </r>
       <r>    1.1366    1.0000 </r>
       <r>    1.1466    1.0000 </r>
       <r>    1.1821    1.0000 </r>
       <r>    1.2039    1.0000 </r>
       <r>    1.2160    1.0000 </r>
       <r>    1.2607    1.0000 </r>
       <r>    1.3122    1.0000 </r>
       <r>    1.3337    1.0000 </r>
       <r>    1.3474    1.0000 </r>
       <r>    1.3537    1.0000 </r>
       <r>    1.3765    1.0000 </r>
       <r>    1.4101    1.0000 </r>
       <r>    1.4359    1.0000 </r>
       <r>    1.4705    1.0000 </r>
       <r>    1.4888    1.0000 </r>
       <r>    1.5102    1.0000 </r>
       <r>    1.5305    1.0000 </r>
       <r>    1.5413    1.0000 </r>
       <r>    1.5637    1.0000 </r>
       <r>    1.5789    1.0000 </r>
       <r>    1.6019    1.0000 </r>
       <r>    1.6153    1.0000 </r>
       <r>    1.6278    1.0000 </r>
       <r>    1.6659    1.0000 </r>
       <r>    1.6960    1.0000 </r>
       <r>    1.7128    1.0000 </r>
       <r>    1.7433    1.0000 </r>
       <r>    1.7724    1.0000 </r>
       <r>    1.7925    1.0000 </r>
       <r>    1.8307    1.0000 </r>
       <r>    1.8396    1.0000 </r>
       <r>    1.8540    1.0000 </r>
       <r>    1.8862    1.0000 </r>
       <r>    1.9137    1.0000 </r>
       <r>    1.9254    1.0000 </r>
       <r>    1.9374    1.0000 </r>
       <r>    1.9552    1.0000 </r>
       <r>    1.9718    1.0000 </r>
       <r>    1.9949    1.0000 </r>
       <r>    2.0146    1.0000 </r>
       <r>    2.0373    1.0000 </r>
       <r>    2.0747    1.0000 </r>
       <r>    2.1145    1.0000 </r>
       <r>    2.1708    1.0000 </r>
       <r>    2.2022    1.0000 </r>
       <r>    2.2340    1.0000 </r>
       <r>    2.2780    1.0000 </r>
       <r>    2.3079    1.0000 </r>
       <r>    2.3986    1.0000 </r>
       <r>    2.4504    1.0000 </r>
       <r>    2.4626    1.0000 </r>
       <r>    2.5060    1.0000 </r>
       <r>    2.5269    1.0000 </r>
       <r>    2.5612    1.0000 </r>
       <r>    2.5987    1.0000 </r>
       <r>    2.6262    1.0000 </r>
       <r>    2.6902    1.0000 </r>
       <r>    2.7471    1.0000 </r>
       <r>    2.7796    1.0000 </r>
       <r>    2.8383    1.0000 </r>
       <r>    2.8652    1.0000 </r>
       <r>    2.8873    1.0000 </r>
       <r>    2.9214    1.0000 </r>
       <r>    2.9268    1.0000 </r>
       <r>    2.9550    1.0000 </r>
       <r>    2.9900    1.0000 </r>
       <r>    3.0356    1.0000 </r>
       <r>    3.0625    1.0000 </r>
       <r>    3.0679    1.0000 </r>
       <r>    3.0731    1.0000 </r>
       <r>    3.1221    1.0000 </r>
       <r>    3.1443    1.0000 </r>
       <r>    3.1653    1.0000 </r>
       <r>    3.2060    0.9999 </r>
       <r>    3.2197    0.9998 </r>
       <r>    3.2348    0.9996 </r>
       <r>    3.2675    0.9982 </r>
       <r>    3.3046    0.9915 </r>
       <r>    3.3217    0.9840 </r>
       <r>    3.3411    0.9693 </r>
       <r>    3.3739    0.9202 </r>
       <r>    3.4107    0.8121 </r>
       <r>    3.4581    0.5854 </r>
       <r>    3.4805    0.4599 </r>
       <r>    3.5177    0.2653 </r>
       <r>    3.5675    0.0916 </r>
       <r>    3.5772    0.0711 </r>
       <r>    3.6034    0.0329 </r>
       <r>    3.6302    0.0133 </r>
       <r>    3.6545    0.0052 </r>
       <r>    3.6827    0.0015 </r>
       <r>    3.7427    0.0001 </r>
       <r>    3.7703    0.0000 </r>
       <r>    3.8590    0.0000 </r>
       <r>    3.9274    0.0000 </r>
       <r>    3.9621    0.0000 </r>
       <r>    3.9999    0.0000 </r>
       <r>    4.0176    0.0000 </r>
       <r>    4.0449    0.0000 </r>
       <r>    4.0867    0.0000 </r>
       <r>    4.0978    0.0000 </r>
       <r>    4.1232    0.0000 </r>
       <r>    4.1333    0.0000 </r>
       <r>    4.1828    0.0000 </r>
       <r>    4.2297    0.0000 </r>
       <r>    4.2502    0.0000 </r>
       <r>    4.2952    0.0000 </r>
       <r>    4.3221    0.0000 </r>
       <r>    4.3456    0.0000 </r>
       <r>    4.3768    0.0000 </r>
       <r>    4.4027    0.0000 </r>
       <r>    4.4400    0.0000 </r>
       <r>    4.4616    0.0000 </r>
       <r>    4.5204    0.0000 </r>
       <r>    4.5416    0.0000 </r>
       <r>    4.5807    0.0000 </r>
       <r>    4.6180    0.0000 </r>
       <r>    4.6477    0.0000 </r>
       <r>    4.6563    0.0000 </r>
       <r>    4.6667    0.0000 </r>
       <r>    4.6803    0.0000 </r>
       <r>    4.6973    0.0000 </r>
       <r>    4.7056    0.0000 </r>
       <r>    4.7220    0.0000 </r>
       <r>    4.7379    0.0000 </r>
       <r>    4.7468    0.0000 </r>
       <r>    4.7581    0.0000 </r>
       <r>    4.7642    0.0000 </r>
       <r>    4.7878    0.0000 </r>
       <r>    4.8012    0.0000 </r>
       <r>    4.8128    0.0000 </r>
       <r>    4.8211    0.0000 </r>
       <r>    4.8473    0.0000 </r>
       <r>    4.8633    0.0000 </r>
       <r>    4.8718    0.0000 </r>
       <r>    4.8875    0.0000 </r>
       <r>    4.9163    0.0000 </r>
       <r>    4.9276    0.0000 </r>
       <r>    4.9607    0.0000 </r>
       <r>    4.9881    0.0000 </r>
       <r>    5.0063    0.0000 </r>
       <r>    5.0228    0.0000 </r>
       <r>    5.0446    0.0000 </r>
       <r>    5.0632    0.0000 </r>
       <r>    5.0800    0.0000 </r>
       <r>    5.1010    0.0000 </r>
       <r>    5.1074    0.0000 </r>
       <r>    5.1134    0.0000 </r>
       <r>    5.1200    0.0000 </r>
       <r>    5.1473    0.0000 </r>
       <r>    5.1548    0.0000 </r>
       <r>    5.1727    0.0000 </r>
       <r>    5.1976    0.0000 </r>
       <r>    5.2135    0.0000 </r>
       <r>    5.2220    0.0000 </r>
       <r>    5.2361    0.0000 </r>
       <r>    5.2571    0.0000 </r>
       <r>    5.2761    0.0000 </r>
       <r>    5.2924    0.0000 </r>
       <r>    5.3141    0.0000 </r>
       <r>    5.3363    0.0000 </r>
       <r>    5.3463    0.0000 </r>
       <r>    5.3717    0.0000 </r>
       <r>    5.3833    0.0000 </r>
       <r>    5.4239    0.0000 </r>
       <r>    5.4401    0.0000 </r>
       <r>    5.4486    0.0000 </r>
       <r>    5.4804    0.0000 </r>
       <r>    5.4993    0.0000 </r>
       <r>    5.5380    0.0000 </r>
      </set>
      <set comment="kpoint 9">
       <r>  -57.7049    1.0000 </r>
       <r>  -57.7000    1.0000 </r>
       <r>  -57.6594    1.0000 </r>
       <r>  -57.6568    1.0000 </r>
       <r>  -57.6465    1.0000 </r>
       <r>  -57.6369    1.0000 </r>
       <r>  -57.6148    1.0000 </r>
       <r>  -57.6092    1.0000 </r>
       <r>  -57.5954    1.0000 </r>
       <r>  -57.5933    1.0000 </r>
       <r>  -57.5833    1.0000 </r>
       <r>  -57.5796    1.0000 </r>
       <r>  -57.5750    1.0000 </r>
       <r>  -57.5708    1.0000 </r>
       <r>  -57.5688    1.0000 </r>
       <r>  -57.5643    1.0000 </r>
       <r>  -57.5589    1.0000 </r>
       <r>  -57.5497    1.0000 </r>
       <r>  -57.5168    1.0000 </r>
       <r>  -57.5027    1.0000 </r>
       <r>  -57.4902    1.0000 </r>
       <r>  -57.4768    1.0000 </r>
       <r>  -57.4731    1.0000 </r>
       <r>  -57.4657    1.0000 </r>
       <r>  -57.4616    1.0000 </r>
       <r>  -57.4595    1.0000 </r>
       <r>  -57.4571    1.0000 </r>
       <r>  -57.4549    1.0000 </r>
       <r>  -57.4535    1.0000 </r>
       <r>  -57.4522    1.0000 </r>
       <r>  -57.4502    1.0000 </r>
       <r>  -57.4493    1.0000 </r>
       <r>  -57.4466    1.0000 </r>
       <r>  -57.4422    1.0000 </r>
       <r>  -57.4414    1.0000 </r>
       <r>  -57.4395    1.0000 </r>
       <r>  -57.4359    1.0000 </r>
       <r>  -57.4311    1.0000 </r>
       <r>  -57.4290    1.0000 </r>
       <r>  -57.4094    1.0000 </r>
       <r>  -57.4005    1.0000 </r>
       <r>  -57.3928    1.0000 </r>
       <r>  -57.3762    1.0000 </r>
       <r>  -57.3705    1.0000 </r>
       <r>  -57.3338    1.0000 </r>
       <r>  -57.3184    1.0000 </r>
       <r>  -57.2702    1.0000 </r>
       <r>  -57.2563    1.0000 </r>
       <r>  -57.2523    1.0000 </r>
       <r>  -57.2500    1.0000 </r>
       <r>  -57.2485    1.0000 </r>
       <r>  -57.2466    1.0000 </r>
       <r>  -57.2432    1.0000 </r>
       <r>  -57.2397    1.0000 </r>
       <r>  -57.2379    1.0000 </r>
       <r>  -57.2345    1.0000 </r>
       <r>  -57.2315    1.0000 </r>
       <r>  -57.2193    1.0000 </r>
       <r>  -57.2051    1.0000 </r>
       <r>  -57.1917    1.0000 </r>
       <r>  -51.7939    1.0000 </r>
       <r>  -51.7865    1.0000 </r>
       <r>  -32.3428    1.0000 </r>
       <r>  -32.3234    1.0000 </r>
       <r>  -32.2995    1.0000 </r>
       <r>  -32.2965    1.0000 </r>
       <r>  -32.2667    1.0000 </r>
       <r>  -32.2392    1.0000 </r>
       <r>  -32.2343    1.0000 </r>
       <r>  -32.2224    1.0000 </r>
       <r>  -32.2096    1.0000 </r>
       <r>  -32.1822    1.0000 </r>
       <r>  -32.1770    1.0000 </r>
       <r>  -32.1660    1.0000 </r>
       <r>  -32.1600    1.0000 </r>
       <r>  -32.1556    1.0000 </r>
       <r>  -32.1444    1.0000 </r>
       <r>  -32.1405    1.0000 </r>
       <r>  -32.1304    1.0000 </r>
       <r>  -32.1277    1.0000 </r>
       <r>  -32.1158    1.0000 </r>
       <r>  -32.1088    1.0000 </r>
       <r>  -32.1050    1.0000 </r>
       <r>  -32.1021    1.0000 </r>
       <r>  -32.0974    1.0000 </r>
       <r>  -32.0941    1.0000 </r>
       <r>  -32.0851    1.0000 </r>
       <r>  -32.0763    1.0000 </r>
       <r>  -32.0697    1.0000 </r>
       <r>  -32.0660    1.0000 </r>
       <r>  -32.0597    1.0000 </r>
       <r>  -32.0532    1.0000 </r>
       <r>  -32.0399    1.0000 </r>
       <r>  -32.0147    1.0000 </r>
       <r>  -31.9979    1.0000 </r>
       <r>  -31.9844    1.0000 </r>
       <r>  -31.9814    1.0000 </r>
       <r>  -31.9669    1.0000 </r>
       <r>  -31.9584    1.0000 </r>
       <r>  -31.9549    1.0000 </r>
       <r>  -31.9416    1.0000 </r>
       <r>  -31.9273    1.0000 </r>
       <r>  -31.9134    1.0000 </r>
       <r>  -31.9086    1.0000 </r>
       <r>  -31.8988    1.0000 </r>
       <r>  -31.8921    1.0000 </r>
       <r>  -31.8863    1.0000 </r>
       <r>  -31.8733    1.0000 </r>
       <r>  -31.8661    1.0000 </r>
       <r>  -31.8562    1.0000 </r>
       <r>  -31.8439    1.0000 </r>
       <r>  -31.8349    1.0000 </r>
       <r>  -31.8237    1.0000 </r>
       <r>  -31.8097    1.0000 </r>
       <r>  -31.8074    1.0000 </r>
       <r>  -31.7801    1.0000 </r>
       <r>  -31.7667    1.0000 </r>
       <r>  -31.7635    1.0000 </r>
       <r>  -31.7604    1.0000 </r>
       <r>  -31.7486    1.0000 </r>
       <r>  -31.7357    1.0000 </r>
       <r>  -31.7202    1.0000 </r>
       <r>  -31.7090    1.0000 </r>
       <r>  -31.7005    1.0000 </r>
       <r>  -31.6969    1.0000 </r>
       <r>  -31.6883    1.0000 </r>
       <r>  -31.6806    1.0000 </r>
       <r>  -31.6747    1.0000 </r>
       <r>  -31.6634    1.0000 </r>
       <r>  -31.6599    1.0000 </r>
       <r>  -31.6532    1.0000 </r>
       <r>  -31.6517    1.0000 </r>
       <r>  -31.6388    1.0000 </r>
       <r>  -31.6336    1.0000 </r>
       <r>  -31.6264    1.0000 </r>
       <r>  -31.6106    1.0000 </r>
       <r>  -31.6052    1.0000 </r>
       <r>  -31.5898    1.0000 </r>
       <r>  -31.5821    1.0000 </r>
       <r>  -31.5749    1.0000 </r>
       <r>  -31.5665    1.0000 </r>
       <r>  -31.5630    1.0000 </r>
       <r>  -31.5530    1.0000 </r>
       <r>  -31.5497    1.0000 </r>
       <r>  -31.5409    1.0000 </r>
       <r>  -31.5353    1.0000 </r>
       <r>  -31.5310    1.0000 </r>
       <r>  -31.5237    1.0000 </r>
       <r>  -31.5176    1.0000 </r>
       <r>  -31.5123    1.0000 </r>
       <r>  -31.5065    1.0000 </r>
       <r>  -31.5010    1.0000 </r>
       <r>  -31.4961    1.0000 </r>
       <r>  -31.4917    1.0000 </r>
       <r>  -31.4862    1.0000 </r>
       <r>  -31.4821    1.0000 </r>
       <r>  -31.4755    1.0000 </r>
       <r>  -31.4673    1.0000 </r>
       <r>  -31.4596    1.0000 </r>
       <r>  -31.4571    1.0000 </r>
       <r>  -31.4522    1.0000 </r>
       <r>  -31.4504    1.0000 </r>
       <r>  -31.4435    1.0000 </r>
       <r>  -31.4391    1.0000 </r>
       <r>  -31.4260    1.0000 </r>
       <r>  -31.4177    1.0000 </r>
       <r>  -31.4115    1.0000 </r>
       <r>  -31.4077    1.0000 </r>
       <r>  -31.3978    1.0000 </r>
       <r>  -31.3848    1.0000 </r>
       <r>  -31.3731    1.0000 </r>
       <r>  -31.3658    1.0000 </r>
       <r>  -31.3629    1.0000 </r>
       <r>  -31.3571    1.0000 </r>
       <r>  -31.3410    1.0000 </r>
       <r>  -31.3333    1.0000 </r>
       <r>  -31.3168    1.0000 </r>
       <r>  -31.3058    1.0000 </r>
       <r>  -31.2972    1.0000 </r>
       <r>  -31.2892    1.0000 </r>
       <r>  -31.2866    1.0000 </r>
       <r>  -31.2849    1.0000 </r>
       <r>  -31.2829    1.0000 </r>
       <r>  -31.2789    1.0000 </r>
       <r>  -31.2750    1.0000 </r>
       <r>  -31.2632    1.0000 </r>
       <r>  -31.2568    1.0000 </r>
       <r>  -31.2469    1.0000 </r>
       <r>  -31.2342    1.0000 </r>
       <r>  -31.2275    1.0000 </r>
       <r>  -31.2238    1.0000 </r>
       <r>  -31.2202    1.0000 </r>
       <r>  -31.2167    1.0000 </r>
       <r>  -31.2118    1.0000 </r>
       <r>  -31.2092    1.0000 </r>
       <r>  -31.2047    1.0000 </r>
       <r>  -31.1997    1.0000 </r>
       <r>  -31.1952    1.0000 </r>
       <r>  -31.1922    1.0000 </r>
       <r>  -31.1891    1.0000 </r>
       <r>  -31.1851    1.0000 </r>
       <r>  -31.1810    1.0000 </r>
       <r>  -31.1803    1.0000 </r>
       <r>  -31.1755    1.0000 </r>
       <r>  -31.1715    1.0000 </r>
       <r>  -31.1638    1.0000 </r>
       <r>  -31.1628    1.0000 </r>
       <r>  -31.1587    1.0000 </r>
       <r>  -31.1473    1.0000 </r>
       <r>  -31.1399    1.0000 </r>
       <r>  -31.1342    1.0000 </r>
       <r>  -31.1293    1.0000 </r>
       <r>  -31.1205    1.0000 </r>
       <r>  -31.1097    1.0000 </r>
       <r>  -31.1010    1.0000 </r>
       <r>  -31.0984    1.0000 </r>
       <r>  -31.0962    1.0000 </r>
       <r>  -31.0892    1.0000 </r>
       <r>  -31.0877    1.0000 </r>
       <r>  -31.0854    1.0000 </r>
       <r>  -31.0811    1.0000 </r>
       <r>  -31.0796    1.0000 </r>
       <r>  -31.0789    1.0000 </r>
       <r>  -31.0671    1.0000 </r>
       <r>  -31.0648    1.0000 </r>
       <r>  -31.0605    1.0000 </r>
       <r>  -31.0524    1.0000 </r>
       <r>  -31.0501    1.0000 </r>
       <r>  -31.0456    1.0000 </r>
       <r>  -31.0430    1.0000 </r>
       <r>  -31.0374    1.0000 </r>
       <r>  -31.0353    1.0000 </r>
       <r>  -31.0320    1.0000 </r>
       <r>  -31.0262    1.0000 </r>
       <r>  -31.0072    1.0000 </r>
       <r>  -30.9846    1.0000 </r>
       <r>  -30.9669    1.0000 </r>
       <r>  -30.9630    1.0000 </r>
       <r>  -30.9576    1.0000 </r>
       <r>  -30.9382    1.0000 </r>
       <r>  -30.9296    1.0000 </r>
       <r>  -30.9163    1.0000 </r>
       <r>  -27.9821    1.0000 </r>
       <r>  -27.9453    1.0000 </r>
       <r>  -27.8698    1.0000 </r>
       <r>  -27.8447    1.0000 </r>
       <r>  -27.7364    1.0000 </r>
       <r>  -27.7305    1.0000 </r>
       <r>  -16.1865    1.0000 </r>
       <r>   -2.9638    1.0000 </r>
       <r>   -2.6507    1.0000 </r>
       <r>   -2.5950    1.0000 </r>
       <r>   -2.5064    1.0000 </r>
       <r>   -2.4376    1.0000 </r>
       <r>   -1.7330    1.0000 </r>
       <r>   -1.7046    1.0000 </r>
       <r>   -1.6951    1.0000 </r>
       <r>   -1.6185    1.0000 </r>
       <r>   -1.3458    1.0000 </r>
       <r>   -1.2964    1.0000 </r>
       <r>   -1.2521    1.0000 </r>
       <r>   -1.2072    1.0000 </r>
       <r>   -1.1487    1.0000 </r>
       <r>   -1.0845    1.0000 </r>
       <r>   -1.0196    1.0000 </r>
       <r>   -0.9932    1.0000 </r>
       <r>   -0.9613    1.0000 </r>
       <r>   -0.9297    1.0000 </r>
       <r>   -0.9083    1.0000 </r>
       <r>   -0.8857    1.0000 </r>
       <r>   -0.8663    1.0000 </r>
       <r>   -0.8523    1.0000 </r>
       <r>   -0.8151    1.0000 </r>
       <r>   -0.7565    1.0000 </r>
       <r>   -0.7284    1.0000 </r>
       <r>   -0.7169    1.0000 </r>
       <r>   -0.7003    1.0000 </r>
       <r>   -0.6871    1.0000 </r>
       <r>   -0.6581    1.0000 </r>
       <r>   -0.6333    1.0000 </r>
       <r>   -0.6233    1.0000 </r>
       <r>   -0.6025    1.0000 </r>
       <r>   -0.5800    1.0000 </r>
       <r>   -0.5266    1.0000 </r>
       <r>   -0.4822    1.0000 </r>
       <r>   -0.4573    1.0000 </r>
       <r>   -0.4492    1.0000 </r>
       <r>   -0.4325    1.0000 </r>
       <r>   -0.3981    1.0000 </r>
       <r>   -0.3624    1.0000 </r>
       <r>   -0.3487    1.0000 </r>
       <r>   -0.2967    1.0000 </r>
       <r>   -0.2635    1.0000 </r>
       <r>   -0.2358    1.0000 </r>
       <r>   -0.2296    1.0000 </r>
       <r>   -0.2172    1.0000 </r>
       <r>   -0.1910    1.0000 </r>
       <r>   -0.1767    1.0000 </r>
       <r>   -0.1550    1.0000 </r>
       <r>   -0.1353    1.0000 </r>
       <r>   -0.1035    1.0000 </r>
       <r>   -0.0447    1.0000 </r>
       <r>   -0.0136    1.0000 </r>
       <r>    0.0282    1.0000 </r>
       <r>    0.0578    1.0000 </r>
       <r>    0.0760    1.0000 </r>
       <r>    0.0953    1.0000 </r>
       <r>    0.1054    1.0000 </r>
       <r>    0.1509    1.0000 </r>
       <r>    0.1745    1.0000 </r>
       <r>    0.2529    1.0000 </r>
       <r>    0.2774    1.0000 </r>
       <r>    0.2903    1.0000 </r>
       <r>    0.3131    1.0000 </r>
       <r>    0.3245    1.0000 </r>
       <r>    0.3326    1.0000 </r>
       <r>    0.3459    1.0000 </r>
       <r>    0.3567    1.0000 </r>
       <r>    0.3653    1.0000 </r>
       <r>    0.3988    1.0000 </r>
       <r>    0.4156    1.0000 </r>
       <r>    0.4209    1.0000 </r>
       <r>    0.4448    1.0000 </r>
       <r>    0.4525    1.0000 </r>
       <r>    0.4611    1.0000 </r>
       <r>    0.4800    1.0000 </r>
       <r>    0.5037    1.0000 </r>
       <r>    0.5389    1.0000 </r>
       <r>    0.5535    1.0000 </r>
       <r>    0.5829    1.0000 </r>
       <r>    0.5986    1.0000 </r>
       <r>    0.6068    1.0000 </r>
       <r>    0.6425    1.0000 </r>
       <r>    0.6734    1.0000 </r>
       <r>    0.6822    1.0000 </r>
       <r>    0.7049    1.0000 </r>
       <r>    0.7290    1.0000 </r>
       <r>    0.7373    1.0000 </r>
       <r>    0.7590    1.0000 </r>
       <r>    0.7866    1.0000 </r>
       <r>    0.7935    1.0000 </r>
       <r>    0.8250    1.0000 </r>
       <r>    0.8353    1.0000 </r>
       <r>    0.8629    1.0000 </r>
       <r>    0.8756    1.0000 </r>
       <r>    0.8992    1.0000 </r>
       <r>    0.9241    1.0000 </r>
       <r>    0.9609    1.0000 </r>
       <r>    0.9934    1.0000 </r>
       <r>    1.0227    1.0000 </r>
       <r>    1.0730    1.0000 </r>
       <r>    1.0947    1.0000 </r>
       <r>    1.1191    1.0000 </r>
       <r>    1.1345    1.0000 </r>
       <r>    1.1414    1.0000 </r>
       <r>    1.1807    1.0000 </r>
       <r>    1.2064    1.0000 </r>
       <r>    1.2206    1.0000 </r>
       <r>    1.2581    1.0000 </r>
       <r>    1.3094    1.0000 </r>
       <r>    1.3343    1.0000 </r>
       <r>    1.3470    1.0000 </r>
       <r>    1.3536    1.0000 </r>
       <r>    1.3750    1.0000 </r>
       <r>    1.4124    1.0000 </r>
       <r>    1.4335    1.0000 </r>
       <r>    1.4697    1.0000 </r>
       <r>    1.4923    1.0000 </r>
       <r>    1.5106    1.0000 </r>
       <r>    1.5282    1.0000 </r>
       <r>    1.5393    1.0000 </r>
       <r>    1.5624    1.0000 </r>
       <r>    1.5785    1.0000 </r>
       <r>    1.6000    1.0000 </r>
       <r>    1.6159    1.0000 </r>
       <r>    1.6263    1.0000 </r>
       <r>    1.6669    1.0000 </r>
       <r>    1.6956    1.0000 </r>
       <r>    1.7138    1.0000 </r>
       <r>    1.7414    1.0000 </r>
       <r>    1.7726    1.0000 </r>
       <r>    1.7926    1.0000 </r>
       <r>    1.8307    1.0000 </r>
       <r>    1.8391    1.0000 </r>
       <r>    1.8542    1.0000 </r>
       <r>    1.8861    1.0000 </r>
       <r>    1.9123    1.0000 </r>
       <r>    1.9261    1.0000 </r>
       <r>    1.9333    1.0000 </r>
       <r>    1.9545    1.0000 </r>
       <r>    1.9746    1.0000 </r>
       <r>    1.9926    1.0000 </r>
       <r>    2.0148    1.0000 </r>
       <r>    2.0337    1.0000 </r>
       <r>    2.0784    1.0000 </r>
       <r>    2.1140    1.0000 </r>
       <r>    2.1707    1.0000 </r>
       <r>    2.2068    1.0000 </r>
       <r>    2.2231    1.0000 </r>
       <r>    2.2886    1.0000 </r>
       <r>    2.3042    1.0000 </r>
       <r>    2.3966    1.0000 </r>
       <r>    2.4461    1.0000 </r>
       <r>    2.4594    1.0000 </r>
       <r>    2.5149    1.0000 </r>
       <r>    2.5273    1.0000 </r>
       <r>    2.5614    1.0000 </r>
       <r>    2.6058    1.0000 </r>
       <r>    2.6196    1.0000 </r>
       <r>    2.6905    1.0000 </r>
       <r>    2.7318    1.0000 </r>
       <r>    2.7806    1.0000 </r>
       <r>    2.8317    1.0000 </r>
       <r>    2.8692    1.0000 </r>
       <r>    2.8853    1.0000 </r>
       <r>    2.9204    1.0000 </r>
       <r>    2.9233    1.0000 </r>
       <r>    2.9630    1.0000 </r>
       <r>    2.9848    1.0000 </r>
       <r>    3.0366    1.0000 </r>
       <r>    3.0635    1.0000 </r>
       <r>    3.0692    1.0000 </r>
       <r>    3.0740    1.0000 </r>
       <r>    3.1194    1.0000 </r>
       <r>    3.1450    1.0000 </r>
       <r>    3.1662    1.0000 </r>
       <r>    3.2051    0.9999 </r>
       <r>    3.2251    0.9998 </r>
       <r>    3.2304    0.9997 </r>
       <r>    3.2691    0.9981 </r>
       <r>    3.2961    0.9939 </r>
       <r>    3.3244    0.9824 </r>
       <r>    3.3551    0.9528 </r>
       <r>    3.3799    0.9069 </r>
       <r>    3.4095    0.8169 </r>
       <r>    3.4600    0.5750 </r>
       <r>    3.4853    0.4329 </r>
       <r>    3.5229    0.2418 </r>
       <r>    3.5582    0.1151 </r>
       <r>    3.5778    0.0699 </r>
       <r>    3.6013    0.0352 </r>
       <r>    3.6325    0.0122 </r>
       <r>    3.6572    0.0047 </r>
       <r>    3.6882    0.0012 </r>
       <r>    3.7253    0.0002 </r>
       <r>    3.7779    0.0000 </r>
       <r>    3.8536    0.0000 </r>
       <r>    3.9362    0.0000 </r>
       <r>    3.9652    0.0000 </r>
       <r>    4.0005    0.0000 </r>
       <r>    4.0204    0.0000 </r>
       <r>    4.0468    0.0000 </r>
       <r>    4.0833    0.0000 </r>
       <r>    4.1016    0.0000 </r>
       <r>    4.1220    0.0000 </r>
       <r>    4.1321    0.0000 </r>
       <r>    4.1861    0.0000 </r>
       <r>    4.2263    0.0000 </r>
       <r>    4.2501    0.0000 </r>
       <r>    4.2899    0.0000 </r>
       <r>    4.3216    0.0000 </r>
       <r>    4.3463    0.0000 </r>
       <r>    4.3810    0.0000 </r>
       <r>    4.4094    0.0000 </r>
       <r>    4.4477    0.0000 </r>
       <r>    4.4584    0.0000 </r>
       <r>    4.5161    0.0000 </r>
       <r>    4.5419    0.0000 </r>
       <r>    4.5830    0.0000 </r>
       <r>    4.6129    0.0000 </r>
       <r>    4.6492    0.0000 </r>
       <r>    4.6593    0.0000 </r>
       <r>    4.6684    0.0000 </r>
       <r>    4.6798    0.0000 </r>
       <r>    4.6989    0.0000 </r>
       <r>    4.7068    0.0000 </r>
       <r>    4.7226    0.0000 </r>
       <r>    4.7322    0.0000 </r>
       <r>    4.7460    0.0000 </r>
       <r>    4.7574    0.0000 </r>
       <r>    4.7651    0.0000 </r>
       <r>    4.7839    0.0000 </r>
       <r>    4.8008    0.0000 </r>
       <r>    4.8117    0.0000 </r>
       <r>    4.8158    0.0000 </r>
       <r>    4.8442    0.0000 </r>
       <r>    4.8620    0.0000 </r>
       <r>    4.8719    0.0000 </r>
       <r>    4.8878    0.0000 </r>
       <r>    4.9208    0.0000 </r>
       <r>    4.9286    0.0000 </r>
       <r>    4.9572    0.0000 </r>
       <r>    4.9859    0.0000 </r>
       <r>    5.0105    0.0000 </r>
       <r>    5.0264    0.0000 </r>
       <r>    5.0501    0.0000 </r>
       <r>    5.0645    0.0000 </r>
       <r>    5.0812    0.0000 </r>
       <r>    5.1000    0.0000 </r>
       <r>    5.1085    0.0000 </r>
       <r>    5.1137    0.0000 </r>
       <r>    5.1265    0.0000 </r>
       <r>    5.1449    0.0000 </r>
       <r>    5.1527    0.0000 </r>
       <r>    5.1742    0.0000 </r>
       <r>    5.1961    0.0000 </r>
       <r>    5.2136    0.0000 </r>
       <r>    5.2196    0.0000 </r>
       <r>    5.2350    0.0000 </r>
       <r>    5.2567    0.0000 </r>
       <r>    5.2746    0.0000 </r>
       <r>    5.2916    0.0000 </r>
       <r>    5.3111    0.0000 </r>
       <r>    5.3355    0.0000 </r>
       <r>    5.3484    0.0000 </r>
       <r>    5.3726    0.0000 </r>
       <r>    5.3842    0.0000 </r>
       <r>    5.4154    0.0000 </r>
       <r>    5.4413    0.0000 </r>
       <r>    5.4494    0.0000 </r>
       <r>    5.4758    0.0000 </r>
       <r>    5.4924    0.0000 </r>
       <r>    5.5362    0.0000 </r>
      </set>
      <set comment="kpoint 10">
       <r>  -57.6900    1.0000 </r>
       <r>  -57.6866    1.0000 </r>
       <r>  -57.6824    1.0000 </r>
       <r>  -57.6776    1.0000 </r>
       <r>  -57.6379    1.0000 </r>
       <r>  -57.6347    1.0000 </r>
       <r>  -57.6277    1.0000 </r>
       <r>  -57.6186    1.0000 </r>
       <r>  -57.5880    1.0000 </r>
       <r>  -57.5847    1.0000 </r>
       <r>  -57.5781    1.0000 </r>
       <r>  -57.5751    1.0000 </r>
       <r>  -57.5718    1.0000 </r>
       <r>  -57.5694    1.0000 </r>
       <r>  -57.5662    1.0000 </r>
       <r>  -57.5640    1.0000 </r>
       <r>  -57.5577    1.0000 </r>
       <r>  -57.5487    1.0000 </r>
       <r>  -57.5134    1.0000 </r>
       <r>  -57.5005    1.0000 </r>
       <r>  -57.4944    1.0000 </r>
       <r>  -57.4771    1.0000 </r>
       <r>  -57.4713    1.0000 </r>
       <r>  -57.4682    1.0000 </r>
       <r>  -57.4621    1.0000 </r>
       <r>  -57.4595    1.0000 </r>
       <r>  -57.4591    1.0000 </r>
       <r>  -57.4573    1.0000 </r>
       <r>  -57.4562    1.0000 </r>
       <r>  -57.4538    1.0000 </r>
       <r>  -57.4521    1.0000 </r>
       <r>  -57.4501    1.0000 </r>
       <r>  -57.4451    1.0000 </r>
       <r>  -57.4445    1.0000 </r>
       <r>  -57.4440    1.0000 </r>
       <r>  -57.4406    1.0000 </r>
       <r>  -57.4395    1.0000 </r>
       <r>  -57.4316    1.0000 </r>
       <r>  -57.4294    1.0000 </r>
       <r>  -57.4070    1.0000 </r>
       <r>  -57.3883    1.0000 </r>
       <r>  -57.3867    1.0000 </r>
       <r>  -57.3814    1.0000 </r>
       <r>  -57.3740    1.0000 </r>
       <r>  -57.3324    1.0000 </r>
       <r>  -57.3182    1.0000 </r>
       <r>  -57.2711    1.0000 </r>
       <r>  -57.2551    1.0000 </r>
       <r>  -57.2531    1.0000 </r>
       <r>  -57.2530    1.0000 </r>
       <r>  -57.2518    1.0000 </r>
       <r>  -57.2486    1.0000 </r>
       <r>  -57.2407    1.0000 </r>
       <r>  -57.2372    1.0000 </r>
       <r>  -57.2363    1.0000 </r>
       <r>  -57.2360    1.0000 </r>
       <r>  -57.2333    1.0000 </r>
       <r>  -57.2126    1.0000 </r>
       <r>  -57.2045    1.0000 </r>
       <r>  -57.1949    1.0000 </r>
       <r>  -51.7939    1.0000 </r>
       <r>  -51.7865    1.0000 </r>
       <r>  -32.3537    1.0000 </r>
       <r>  -32.3388    1.0000 </r>
       <r>  -32.2865    1.0000 </r>
       <r>  -32.2850    1.0000 </r>
       <r>  -32.2691    1.0000 </r>
       <r>  -32.2493    1.0000 </r>
       <r>  -32.2420    1.0000 </r>
       <r>  -32.2405    1.0000 </r>
       <r>  -32.2363    1.0000 </r>
       <r>  -32.2280    1.0000 </r>
       <r>  -32.1935    1.0000 </r>
       <r>  -32.1802    1.0000 </r>
       <r>  -32.1466    1.0000 </r>
       <r>  -32.1428    1.0000 </r>
       <r>  -32.1374    1.0000 </r>
       <r>  -32.1254    1.0000 </r>
       <r>  -32.1183    1.0000 </r>
       <r>  -32.1126    1.0000 </r>
       <r>  -32.1090    1.0000 </r>
       <r>  -32.0896    1.0000 </r>
       <r>  -32.0846    1.0000 </r>
       <r>  -32.0766    1.0000 </r>
       <r>  -32.0756    1.0000 </r>
       <r>  -32.0729    1.0000 </r>
       <r>  -32.0619    1.0000 </r>
       <r>  -32.0536    1.0000 </r>
       <r>  -32.0528    1.0000 </r>
       <r>  -32.0448    1.0000 </r>
       <r>  -32.0430    1.0000 </r>
       <r>  -32.0352    1.0000 </r>
       <r>  -32.0335    1.0000 </r>
       <r>  -32.0259    1.0000 </r>
       <r>  -32.0162    1.0000 </r>
       <r>  -32.0067    1.0000 </r>
       <r>  -31.9998    1.0000 </r>
       <r>  -31.9949    1.0000 </r>
       <r>  -31.9857    1.0000 </r>
       <r>  -31.9446    1.0000 </r>
       <r>  -31.9375    1.0000 </r>
       <r>  -31.9304    1.0000 </r>
       <r>  -31.9255    1.0000 </r>
       <r>  -31.9158    1.0000 </r>
       <r>  -31.9138    1.0000 </r>
       <r>  -31.9037    1.0000 </r>
       <r>  -31.8995    1.0000 </r>
       <r>  -31.8781    1.0000 </r>
       <r>  -31.8746    1.0000 </r>
       <r>  -31.8668    1.0000 </r>
       <r>  -31.8557    1.0000 </r>
       <r>  -31.8513    1.0000 </r>
       <r>  -31.8405    1.0000 </r>
       <r>  -31.8308    1.0000 </r>
       <r>  -31.7740    1.0000 </r>
       <r>  -31.7671    1.0000 </r>
       <r>  -31.7658    1.0000 </r>
       <r>  -31.7657    1.0000 </r>
       <r>  -31.7653    1.0000 </r>
       <r>  -31.7558    1.0000 </r>
       <r>  -31.7549    1.0000 </r>
       <r>  -31.7349    1.0000 </r>
       <r>  -31.7049    1.0000 </r>
       <r>  -31.6969    1.0000 </r>
       <r>  -31.6827    1.0000 </r>
       <r>  -31.6786    1.0000 </r>
       <r>  -31.6615    1.0000 </r>
       <r>  -31.6591    1.0000 </r>
       <r>  -31.6528    1.0000 </r>
       <r>  -31.6366    1.0000 </r>
       <r>  -31.6314    1.0000 </r>
       <r>  -31.6268    1.0000 </r>
       <r>  -31.6203    1.0000 </r>
       <r>  -31.6136    1.0000 </r>
       <r>  -31.6100    1.0000 </r>
       <r>  -31.6073    1.0000 </r>
       <r>  -31.6024    1.0000 </r>
       <r>  -31.5864    1.0000 </r>
       <r>  -31.5836    1.0000 </r>
       <r>  -31.5820    1.0000 </r>
       <r>  -31.5687    1.0000 </r>
       <r>  -31.5551    1.0000 </r>
       <r>  -31.5518    1.0000 </r>
       <r>  -31.5500    1.0000 </r>
       <r>  -31.5459    1.0000 </r>
       <r>  -31.5354    1.0000 </r>
       <r>  -31.5240    1.0000 </r>
       <r>  -31.5134    1.0000 </r>
       <r>  -31.5122    1.0000 </r>
       <r>  -31.5106    1.0000 </r>
       <r>  -31.5018    1.0000 </r>
       <r>  -31.4977    1.0000 </r>
       <r>  -31.4952    1.0000 </r>
       <r>  -31.4912    1.0000 </r>
       <r>  -31.4909    1.0000 </r>
       <r>  -31.4898    1.0000 </r>
       <r>  -31.4886    1.0000 </r>
       <r>  -31.4877    1.0000 </r>
       <r>  -31.4848    1.0000 </r>
       <r>  -31.4791    1.0000 </r>
       <r>  -31.4681    1.0000 </r>
       <r>  -31.4640    1.0000 </r>
       <r>  -31.4617    1.0000 </r>
       <r>  -31.4557    1.0000 </r>
       <r>  -31.4488    1.0000 </r>
       <r>  -31.4322    1.0000 </r>
       <r>  -31.4297    1.0000 </r>
       <r>  -31.4125    1.0000 </r>
       <r>  -31.4070    1.0000 </r>
       <r>  -31.3970    1.0000 </r>
       <r>  -31.3884    1.0000 </r>
       <r>  -31.3578    1.0000 </r>
       <r>  -31.3534    1.0000 </r>
       <r>  -31.3359    1.0000 </r>
       <r>  -31.3138    1.0000 </r>
       <r>  -31.3055    1.0000 </r>
       <r>  -31.2989    1.0000 </r>
       <r>  -31.2980    1.0000 </r>
       <r>  -31.2976    1.0000 </r>
       <r>  -31.2941    1.0000 </r>
       <r>  -31.2825    1.0000 </r>
       <r>  -31.2731    1.0000 </r>
       <r>  -31.2682    1.0000 </r>
       <r>  -31.2659    1.0000 </r>
       <r>  -31.2607    1.0000 </r>
       <r>  -31.2563    1.0000 </r>
       <r>  -31.2483    1.0000 </r>
       <r>  -31.2463    1.0000 </r>
       <r>  -31.2441    1.0000 </r>
       <r>  -31.2390    1.0000 </r>
       <r>  -31.2304    1.0000 </r>
       <r>  -31.2284    1.0000 </r>
       <r>  -31.2249    1.0000 </r>
       <r>  -31.2186    1.0000 </r>
       <r>  -31.2142    1.0000 </r>
       <r>  -31.2100    1.0000 </r>
       <r>  -31.2066    1.0000 </r>
       <r>  -31.1972    1.0000 </r>
       <r>  -31.1967    1.0000 </r>
       <r>  -31.1909    1.0000 </r>
       <r>  -31.1876    1.0000 </r>
       <r>  -31.1856    1.0000 </r>
       <r>  -31.1812    1.0000 </r>
       <r>  -31.1774    1.0000 </r>
       <r>  -31.1754    1.0000 </r>
       <r>  -31.1710    1.0000 </r>
       <r>  -31.1644    1.0000 </r>
       <r>  -31.1612    1.0000 </r>
       <r>  -31.1485    1.0000 </r>
       <r>  -31.1390    1.0000 </r>
       <r>  -31.1264    1.0000 </r>
       <r>  -31.1256    1.0000 </r>
       <r>  -31.1183    1.0000 </r>
       <r>  -31.1006    1.0000 </r>
       <r>  -31.0994    1.0000 </r>
       <r>  -31.0981    1.0000 </r>
       <r>  -31.0972    1.0000 </r>
       <r>  -31.0933    1.0000 </r>
       <r>  -31.0882    1.0000 </r>
       <r>  -31.0872    1.0000 </r>
       <r>  -31.0867    1.0000 </r>
       <r>  -31.0860    1.0000 </r>
       <r>  -31.0821    1.0000 </r>
       <r>  -31.0799    1.0000 </r>
       <r>  -31.0543    1.0000 </r>
       <r>  -31.0537    1.0000 </r>
       <r>  -31.0521    1.0000 </r>
       <r>  -31.0504    1.0000 </r>
       <r>  -31.0410    1.0000 </r>
       <r>  -31.0376    1.0000 </r>
       <r>  -31.0362    1.0000 </r>
       <r>  -31.0359    1.0000 </r>
       <r>  -31.0299    1.0000 </r>
       <r>  -31.0276    1.0000 </r>
       <r>  -31.0040    1.0000 </r>
       <r>  -30.9915    1.0000 </r>
       <r>  -30.9681    1.0000 </r>
       <r>  -30.9607    1.0000 </r>
       <r>  -30.9564    1.0000 </r>
       <r>  -30.9368    1.0000 </r>
       <r>  -30.9287    1.0000 </r>
       <r>  -30.9131    1.0000 </r>
       <r>  -27.9821    1.0000 </r>
       <r>  -27.9453    1.0000 </r>
       <r>  -27.8698    1.0000 </r>
       <r>  -27.8447    1.0000 </r>
       <r>  -27.7365    1.0000 </r>
       <r>  -27.7305    1.0000 </r>
       <r>  -16.1865    1.0000 </r>
       <r>   -2.9556    1.0000 </r>
       <r>   -2.5853    1.0000 </r>
       <r>   -2.5200    1.0000 </r>
       <r>   -2.2115    1.0000 </r>
       <r>   -2.2071    1.0000 </r>
       <r>   -2.2037    1.0000 </r>
       <r>   -2.1252    1.0000 </r>
       <r>   -1.4128    1.0000 </r>
       <r>   -1.3929    1.0000 </r>
       <r>   -1.3836    1.0000 </r>
       <r>   -1.3416    1.0000 </r>
       <r>   -1.3014    1.0000 </r>
       <r>   -1.2447    1.0000 </r>
       <r>   -0.9923    1.0000 </r>
       <r>   -0.9776    1.0000 </r>
       <r>   -0.9372    1.0000 </r>
       <r>   -0.9277    1.0000 </r>
       <r>   -0.9220    1.0000 </r>
       <r>   -0.9199    1.0000 </r>
       <r>   -0.9053    1.0000 </r>
       <r>   -0.8935    1.0000 </r>
       <r>   -0.8507    1.0000 </r>
       <r>   -0.8102    1.0000 </r>
       <r>   -0.8027    1.0000 </r>
       <r>   -0.7977    1.0000 </r>
       <r>   -0.7452    1.0000 </r>
       <r>   -0.7077    1.0000 </r>
       <r>   -0.6963    1.0000 </r>
       <r>   -0.6635    1.0000 </r>
       <r>   -0.5567    1.0000 </r>
       <r>   -0.5366    1.0000 </r>
       <r>   -0.5288    1.0000 </r>
       <r>   -0.5212    1.0000 </r>
       <r>   -0.4992    1.0000 </r>
       <r>   -0.4962    1.0000 </r>
       <r>   -0.4914    1.0000 </r>
       <r>   -0.4736    1.0000 </r>
       <r>   -0.4619    1.0000 </r>
       <r>   -0.4570    1.0000 </r>
       <r>   -0.4067    1.0000 </r>
       <r>   -0.3918    1.0000 </r>
       <r>   -0.3789    1.0000 </r>
       <r>   -0.3665    1.0000 </r>
       <r>   -0.3153    1.0000 </r>
       <r>   -0.2945    1.0000 </r>
       <r>   -0.2672    1.0000 </r>
       <r>   -0.2433    1.0000 </r>
       <r>   -0.2156    1.0000 </r>
       <r>   -0.1986    1.0000 </r>
       <r>   -0.1787    1.0000 </r>
       <r>   -0.1501    1.0000 </r>
       <r>   -0.1345    1.0000 </r>
       <r>   -0.1275    1.0000 </r>
       <r>   -0.1015    1.0000 </r>
       <r>   -0.0425    1.0000 </r>
       <r>    0.0153    1.0000 </r>
       <r>    0.0815    1.0000 </r>
       <r>    0.1360    1.0000 </r>
       <r>    0.1409    1.0000 </r>
       <r>    0.1943    1.0000 </r>
       <r>    0.2244    1.0000 </r>
       <r>    0.2249    1.0000 </r>
       <r>    0.2559    1.0000 </r>
       <r>    0.2705    1.0000 </r>
       <r>    0.3138    1.0000 </r>
       <r>    0.3223    1.0000 </r>
       <r>    0.3258    1.0000 </r>
       <r>    0.3481    1.0000 </r>
       <r>    0.3498    1.0000 </r>
       <r>    0.3573    1.0000 </r>
       <r>    0.3864    1.0000 </r>
       <r>    0.3888    1.0000 </r>
       <r>    0.3922    1.0000 </r>
       <r>    0.4035    1.0000 </r>
       <r>    0.4087    1.0000 </r>
       <r>    0.4156    1.0000 </r>
       <r>    0.4265    1.0000 </r>
       <r>    0.4350    1.0000 </r>
       <r>    0.4485    1.0000 </r>
       <r>    0.4525    1.0000 </r>
       <r>    0.4655    1.0000 </r>
       <r>    0.4828    1.0000 </r>
       <r>    0.5081    1.0000 </r>
       <r>    0.5328    1.0000 </r>
       <r>    0.5937    1.0000 </r>
       <r>    0.6253    1.0000 </r>
       <r>    0.6421    1.0000 </r>
       <r>    0.6697    1.0000 </r>
       <r>    0.7168    1.0000 </r>
       <r>    0.7492    1.0000 </r>
       <r>    0.7624    1.0000 </r>
       <r>    0.8132    1.0000 </r>
       <r>    0.8512    1.0000 </r>
       <r>    0.8944    1.0000 </r>
       <r>    0.8969    1.0000 </r>
       <r>    0.9053    1.0000 </r>
       <r>    0.9103    1.0000 </r>
       <r>    0.9328    1.0000 </r>
       <r>    0.9720    1.0000 </r>
       <r>    1.0100    1.0000 </r>
       <r>    1.0216    1.0000 </r>
       <r>    1.0298    1.0000 </r>
       <r>    1.1127    1.0000 </r>
       <r>    1.1217    1.0000 </r>
       <r>    1.1561    1.0000 </r>
       <r>    1.1589    1.0000 </r>
       <r>    1.1808    1.0000 </r>
       <r>    1.1866    1.0000 </r>
       <r>    1.1928    1.0000 </r>
       <r>    1.2017    1.0000 </r>
       <r>    1.2566    1.0000 </r>
       <r>    1.2824    1.0000 </r>
       <r>    1.3155    1.0000 </r>
       <r>    1.3248    1.0000 </r>
       <r>    1.3718    1.0000 </r>
       <r>    1.3809    1.0000 </r>
       <r>    1.4206    1.0000 </r>
       <r>    1.4397    1.0000 </r>
       <r>    1.4689    1.0000 </r>
       <r>    1.4772    1.0000 </r>
       <r>    1.4888    1.0000 </r>
       <r>    1.5060    1.0000 </r>
       <r>    1.5079    1.0000 </r>
       <r>    1.5087    1.0000 </r>
       <r>    1.5199    1.0000 </r>
       <r>    1.5265    1.0000 </r>
       <r>    1.5346    1.0000 </r>
       <r>    1.5588    1.0000 </r>
       <r>    1.5815    1.0000 </r>
       <r>    1.6028    1.0000 </r>
       <r>    1.6369    1.0000 </r>
       <r>    1.7103    1.0000 </r>
       <r>    1.7575    1.0000 </r>
       <r>    1.7679    1.0000 </r>
       <r>    1.8047    1.0000 </r>
       <r>    1.8205    1.0000 </r>
       <r>    1.8280    1.0000 </r>
       <r>    1.8359    1.0000 </r>
       <r>    1.8843    1.0000 </r>
       <r>    1.8963    1.0000 </r>
       <r>    1.9319    1.0000 </r>
       <r>    1.9594    1.0000 </r>
       <r>    2.0038    1.0000 </r>
       <r>    2.0076    1.0000 </r>
       <r>    2.0370    1.0000 </r>
       <r>    2.0682    1.0000 </r>
       <r>    2.0927    1.0000 </r>
       <r>    2.1064    1.0000 </r>
       <r>    2.1962    1.0000 </r>
       <r>    2.3151    1.0000 </r>
       <r>    2.3439    1.0000 </r>
       <r>    2.3618    1.0000 </r>
       <r>    2.3817    1.0000 </r>
       <r>    2.4517    1.0000 </r>
       <r>    2.5505    1.0000 </r>
       <r>    2.5769    1.0000 </r>
       <r>    2.7001    1.0000 </r>
       <r>    2.7085    1.0000 </r>
       <r>    2.7543    1.0000 </r>
       <r>    2.7638    1.0000 </r>
       <r>    2.7953    1.0000 </r>
       <r>    2.8213    1.0000 </r>
       <r>    2.8766    1.0000 </r>
       <r>    2.9161    1.0000 </r>
       <r>    2.9470    1.0000 </r>
       <r>    2.9663    1.0000 </r>
       <r>    2.9929    1.0000 </r>
       <r>    3.0216    1.0000 </r>
       <r>    3.0250    1.0000 </r>
       <r>    3.0261    1.0000 </r>
       <r>    3.0271    1.0000 </r>
       <r>    3.0280    1.0000 </r>
       <r>    3.0592    1.0000 </r>
       <r>    3.0804    1.0000 </r>
       <r>    3.0850    1.0000 </r>
       <r>    3.1089    1.0000 </r>
       <r>    3.1282    1.0000 </r>
       <r>    3.1623    1.0000 </r>
       <r>    3.1896    1.0000 </r>
       <r>    3.2667    0.9983 </r>
       <r>    3.3822    0.9012 </r>
       <r>    3.3927    0.8729 </r>
       <r>    3.4241    0.7571 </r>
       <r>    3.4836    0.4426 </r>
       <r>    3.5316    0.2052 </r>
       <r>    3.5406    0.1708 </r>
       <r>    3.5497    0.1401 </r>
       <r>    3.5617    0.1057 </r>
       <r>    3.5811    0.0639 </r>
       <r>    3.6201    0.0190 </r>
       <r>    3.6471    0.0070 </r>
       <r>    3.6832    0.0015 </r>
       <r>    3.7214    0.0002 </r>
       <r>    3.7270    0.0002 </r>
       <r>    3.7520    0.0000 </r>
       <r>    3.7595    0.0000 </r>
       <r>    3.7775    0.0000 </r>
       <r>    3.9142    0.0000 </r>
       <r>    3.9177    0.0000 </r>
       <r>    3.9860    0.0000 </r>
       <r>    4.0026    0.0000 </r>
       <r>    4.0264    0.0000 </r>
       <r>    4.0656    0.0000 </r>
       <r>    4.1127    0.0000 </r>
       <r>    4.1638    0.0000 </r>
       <r>    4.1796    0.0000 </r>
       <r>    4.1990    0.0000 </r>
       <r>    4.2131    0.0000 </r>
       <r>    4.2215    0.0000 </r>
       <r>    4.2716    0.0000 </r>
       <r>    4.2888    0.0000 </r>
       <r>    4.3182    0.0000 </r>
       <r>    4.3274    0.0000 </r>
       <r>    4.3420    0.0000 </r>
       <r>    4.3581    0.0000 </r>
       <r>    4.3738    0.0000 </r>
       <r>    4.4039    0.0000 </r>
       <r>    4.4242    0.0000 </r>
       <r>    4.4332    0.0000 </r>
       <r>    4.4482    0.0000 </r>
       <r>    4.4844    0.0000 </r>
       <r>    4.5181    0.0000 </r>
       <r>    4.5738    0.0000 </r>
       <r>    4.5849    0.0000 </r>
       <r>    4.6181    0.0000 </r>
       <r>    4.6307    0.0000 </r>
       <r>    4.6386    0.0000 </r>
       <r>    4.6530    0.0000 </r>
       <r>    4.7623    0.0000 </r>
       <r>    4.7803    0.0000 </r>
       <r>    4.8111    0.0000 </r>
       <r>    4.8326    0.0000 </r>
       <r>    4.8659    0.0000 </r>
       <r>    4.8823    0.0000 </r>
       <r>    4.8961    0.0000 </r>
       <r>    4.9108    0.0000 </r>
       <r>    4.9352    0.0000 </r>
       <r>    4.9534    0.0000 </r>
       <r>    4.9698    0.0000 </r>
       <r>    4.9776    0.0000 </r>
       <r>    4.9926    0.0000 </r>
       <r>    4.9979    0.0000 </r>
       <r>    5.0101    0.0000 </r>
       <r>    5.0247    0.0000 </r>
       <r>    5.0407    0.0000 </r>
       <r>    5.0475    0.0000 </r>
       <r>    5.0633    0.0000 </r>
       <r>    5.0757    0.0000 </r>
       <r>    5.0955    0.0000 </r>
       <r>    5.1009    0.0000 </r>
       <r>    5.1172    0.0000 </r>
       <r>    5.1280    0.0000 </r>
       <r>    5.1367    0.0000 </r>
       <r>    5.1653    0.0000 </r>
       <r>    5.1800    0.0000 </r>
       <r>    5.1992    0.0000 </r>
       <r>    5.2087    0.0000 </r>
       <r>    5.2419    0.0000 </r>
       <r>    5.2545    0.0000 </r>
       <r>    5.2713    0.0000 </r>
       <r>    5.2830    0.0000 </r>
       <r>    5.2894    0.0000 </r>
       <r>    5.3402    0.0000 </r>
       <r>    5.3527    0.0000 </r>
       <r>    5.3793    0.0000 </r>
       <r>    5.3855    0.0000 </r>
       <r>    5.3891    0.0000 </r>
       <r>    5.4453    0.0000 </r>
       <r>    5.4813    0.0000 </r>
       <r>    5.5149    0.0000 </r>
       <r>    5.5360    0.0000 </r>
       <r>    5.5764    0.0000 </r>
       <r>    5.5924    0.0000 </r>
       <r>    5.6452    0.0000 </r>
      </set>
     </set>
    </set>
   </array>
  </eigenvalues>
  <separator name="orbital magnetization" >
   <v name="MAGDIPOLOUT">      0.00000000      0.00000000      0.00000000</v>
  </separator>
  <dos>
   <i name="efermi">      3.47336435 </i>
   <total>
    <array>
     <dimension dim="1">gridpoints</dimension>
     <dimension dim="2">spin</dimension>
     <field>energy</field>
     <field>total</field>
     <field>integrated</field>
     <set>
      <set comment="spin 1">
       <r>   -60.9055     0.0000     0.0000 </r>
       <r>   -60.6731     0.0000     0.0000 </r>
       <r>   -60.4407     0.0000     0.0000 </r>
       <r>   -60.2083     0.0000     0.0000 </r>
       <r>   -59.9759     0.0000     0.0000 </r>
       <r>   -59.7435     0.0000     0.0000 </r>
       <r>   -59.5111     0.0000     0.0000 </r>
       <r>   -59.2787     0.0000     0.0000 </r>
       <r>   -59.0463     0.0000     0.0000 </r>
       <r>   -58.8139     0.0000     0.0000 </r>
       <r>   -58.5815     0.0000     0.0000 </r>
       <r>   -58.3491     0.0000     0.0000 </r>
       <r>   -58.1167     0.0000     0.0000 </r>
       <r>   -57.8843     0.1291     0.0300 </r>
       <r>   -57.6519    47.3651    11.0376 </r>
       <r>   -57.4195   249.1893    68.9490 </r>
       <r>   -57.1871   189.5401   112.9980 </r>
       <r>   -56.9547    30.1210   119.9981 </r>
       <r>   -56.7223     0.0082   120.0000 </r>
       <r>   -56.4899     0.0000   120.0000 </r>
       <r>   -56.2575     0.0000   120.0000 </r>
       <r>   -56.0251     0.0000   120.0000 </r>
       <r>   -55.7927     0.0000   120.0000 </r>
       <r>   -55.5603     0.0000   120.0000 </r>
       <r>   -55.3279     0.0000   120.0000 </r>
       <r>   -55.0955     0.0000   120.0000 </r>
       <r>   -54.8631     0.0000   120.0000 </r>
       <r>   -54.6307     0.0000   120.0000 </r>
       <r>   -54.3983     0.0000   120.0000 </r>
       <r>   -54.1659     0.0000   120.0000 </r>
       <r>   -53.9335     0.0000   120.0000 </r>
       <r>   -53.7011     0.0000   120.0000 </r>
       <r>   -53.4687     0.0000   120.0000 </r>
       <r>   -53.2363     0.0000   120.0000 </r>
       <r>   -53.0039     0.0000   120.0000 </r>
       <r>   -52.7715     0.0000   120.0000 </r>
       <r>   -52.5391     0.0000   120.0000 </r>
       <r>   -52.3067     0.0000   120.0000 </r>
       <r>   -52.0744     0.0005   120.0001 </r>
       <r>   -51.8420     3.9999   120.9297 </r>
       <r>   -51.6096    13.1189   123.9785 </r>
       <r>   -51.3772     0.0924   124.0000 </r>
       <r>   -51.1448     0.0000   124.0000 </r>
       <r>   -50.9124     0.0000   124.0000 </r>
       <r>   -50.6800     0.0000   124.0000 </r>
       <r>   -50.4476     0.0000   124.0000 </r>
       <r>   -50.2152     0.0000   124.0000 </r>
       <r>   -49.9828     0.0000   124.0000 </r>
       <r>   -49.7504     0.0000   124.0000 </r>
       <r>   -49.5180     0.0000   124.0000 </r>
       <r>   -49.2856     0.0000   124.0000 </r>
       <r>   -49.0532     0.0000   124.0000 </r>
       <r>   -48.8208     0.0000   124.0000 </r>
       <r>   -48.5884     0.0000   124.0000 </r>
       <r>   -48.3560     0.0000   124.0000 </r>
       <r>   -48.1236     0.0000   124.0000 </r>
       <r>   -47.8912     0.0000   124.0000 </r>
       <r>   -47.6588     0.0000   124.0000 </r>
       <r>   -47.4264     0.0000   124.0000 </r>
       <r>   -47.1940     0.0000   124.0000 </r>
       <r>   -46.9616     0.0000   124.0000 </r>
       <r>   -46.7292     0.0000   124.0000 </r>
       <r>   -46.4968     0.0000   124.0000 </r>
       <r>   -46.2644     0.0000   124.0000 </r>
       <r>   -46.0320     0.0000   124.0000 </r>
       <r>   -45.7996     0.0000   124.0000 </r>
       <r>   -45.5672     0.0000   124.0000 </r>
       <r>   -45.3348     0.0000   124.0000 </r>
       <r>   -45.1024     0.0000   124.0000 </r>
       <r>   -44.8700     0.0000   124.0000 </r>
       <r>   -44.6376     0.0000   124.0000 </r>
       <r>   -44.4052     0.0000   124.0000 </r>
       <r>   -44.1728     0.0000   124.0000 </r>
       <r>   -43.9404     0.0000   124.0000 </r>
       <r>   -43.7080     0.0000   124.0000 </r>
       <r>   -43.4756     0.0000   124.0000 </r>
       <r>   -43.2432     0.0000   124.0000 </r>
       <r>   -43.0108     0.0000   124.0000 </r>
       <r>   -42.7784     0.0000   124.0000 </r>
       <r>   -42.5460     0.0000   124.0000 </r>
       <r>   -42.3136     0.0000   124.0000 </r>
       <r>   -42.0812     0.0000   124.0000 </r>
       <r>   -41.8488     0.0000   124.0000 </r>
       <r>   -41.6164     0.0000   124.0000 </r>
       <r>   -41.3840     0.0000   124.0000 </r>
       <r>   -41.1516     0.0000   124.0000 </r>
       <r>   -40.9192     0.0000   124.0000 </r>
       <r>   -40.6868     0.0000   124.0000 </r>
       <r>   -40.4544     0.0000   124.0000 </r>
       <r>   -40.2220     0.0000   124.0000 </r>
       <r>   -39.9896     0.0000   124.0000 </r>
       <r>   -39.7572     0.0000   124.0000 </r>
       <r>   -39.5248     0.0000   124.0000 </r>
       <r>   -39.2924     0.0000   124.0000 </r>
       <r>   -39.0600     0.0000   124.0000 </r>
       <r>   -38.8276     0.0000   124.0000 </r>
       <r>   -38.5952     0.0000   124.0000 </r>
       <r>   -38.3628     0.0000   124.0000 </r>
       <r>   -38.1304     0.0000   124.0000 </r>
       <r>   -37.8980     0.0000   124.0000 </r>
       <r>   -37.6656     0.0000   124.0000 </r>
       <r>   -37.4332     0.0000   124.0000 </r>
       <r>   -37.2008     0.0000   124.0000 </r>
       <r>   -36.9684     0.0000   124.0000 </r>
       <r>   -36.7360     0.0000   124.0000 </r>
       <r>   -36.5036     0.0000   124.0000 </r>
       <r>   -36.2712     0.0000   124.0000 </r>
       <r>   -36.0388     0.0000   124.0000 </r>
       <r>   -35.8064     0.0000   124.0000 </r>
       <r>   -35.5740     0.0000   124.0000 </r>
       <r>   -35.3416     0.0000   124.0000 </r>
       <r>   -35.1092     0.0000   124.0000 </r>
       <r>   -34.8768     0.0000   124.0000 </r>
       <r>   -34.6444     0.0000   124.0000 </r>
       <r>   -34.4120     0.0000   124.0000 </r>
       <r>   -34.1796     0.0000   124.0000 </r>
       <r>   -33.9472     0.0000   124.0000 </r>
       <r>   -33.7148     0.0000   124.0000 </r>
       <r>   -33.4824     0.0000   124.0000 </r>
       <r>   -33.2500     0.0000   124.0000 </r>
       <r>   -33.0176     0.0000   124.0000 </r>
       <r>   -32.7852     0.0000   124.0000 </r>
       <r>   -32.5528     0.0162   124.0038 </r>
       <r>   -32.3204    20.5528   128.7802 </r>
       <r>   -32.0880   177.6819   170.0734 </r>
       <r>   -31.8556   204.7729   217.6624 </r>
       <r>   -31.6232   224.4230   269.8181 </r>
       <r>   -31.3908   279.8281   334.8500 </r>
       <r>   -31.1584   329.2745   411.3731 </r>
       <r>   -30.9260   283.5820   477.2774 </r>
       <r>   -30.6936    28.9113   483.9963 </r>
       <r>   -30.4612     0.0158   484.0000 </r>
       <r>   -30.2288     0.0000   484.0000 </r>
       <r>   -29.9964     0.0000   484.0000 </r>
       <r>   -29.7640     0.0000   484.0000 </r>
       <r>   -29.5316     0.0000   484.0000 </r>
       <r>   -29.2992     0.0000   484.0000 </r>
       <r>   -29.0668     0.0000   484.0000 </r>
       <r>   -28.8344     0.0000   484.0000 </r>
       <r>   -28.6020     0.0000   484.0000 </r>
       <r>   -28.3696     0.0000   484.0000 </r>
       <r>   -28.1372     0.1512   484.0351 </r>
       <r>   -27.9048    17.9389   488.2041 </r>
       <r>   -27.6724    30.1155   495.2030 </r>
       <r>   -27.4400     3.4293   495.9999 </r>
       <r>   -27.2076     0.0003   496.0000 </r>
       <r>   -26.9752     0.0000   496.0000 </r>
       <r>   -26.7428     0.0000   496.0000 </r>
       <r>   -26.5104     0.0000   496.0000 </r>
       <r>   -26.2780     0.0000   496.0000 </r>
       <r>   -26.0456     0.0000   496.0000 </r>
       <r>   -25.8132     0.0000   496.0000 </r>
       <r>   -25.5808     0.0000   496.0000 </r>
       <r>   -25.3484     0.0000   496.0000 </r>
       <r>   -25.1160     0.0000   496.0000 </r>
       <r>   -24.8836     0.0000   496.0000 </r>
       <r>   -24.6512     0.0000   496.0000 </r>
       <r>   -24.4188     0.0000   496.0000 </r>
       <r>   -24.1864     0.0000   496.0000 </r>
       <r>   -23.9540     0.0000   496.0000 </r>
       <r>   -23.7216     0.0000   496.0000 </r>
       <r>   -23.4892     0.0000   496.0000 </r>
       <r>   -23.2568     0.0000   496.0000 </r>
       <r>   -23.0244     0.0000   496.0000 </r>
       <r>   -22.7920     0.0000   496.0000 </r>
       <r>   -22.5596     0.0000   496.0000 </r>
       <r>   -22.3273     0.0000   496.0000 </r>
       <r>   -22.0949     0.0000   496.0000 </r>
       <r>   -21.8625     0.0000   496.0000 </r>
       <r>   -21.6301     0.0000   496.0000 </r>
       <r>   -21.3977     0.0000   496.0000 </r>
       <r>   -21.1653     0.0000   496.0000 </r>
       <r>   -20.9329     0.0000   496.0000 </r>
       <r>   -20.7005     0.0000   496.0000 </r>
       <r>   -20.4681     0.0000   496.0000 </r>
       <r>   -20.2357     0.0000   496.0000 </r>
       <r>   -20.0033     0.0000   496.0000 </r>
       <r>   -19.7709     0.0000   496.0000 </r>
       <r>   -19.5385     0.0000   496.0000 </r>
       <r>   -19.3061     0.0000   496.0000 </r>
       <r>   -19.0737     0.0000   496.0000 </r>
       <r>   -18.8413     0.0000   496.0000 </r>
       <r>   -18.6089     0.0000   496.0000 </r>
       <r>   -18.3765     0.0000   496.0000 </r>
       <r>   -18.1441     0.0000   496.0000 </r>
       <r>   -17.9117     0.0000   496.0000 </r>
       <r>   -17.6793     0.0000   496.0000 </r>
       <r>   -17.4469     0.0000   496.0000 </r>
       <r>   -17.2145     0.0000   496.0000 </r>
       <r>   -16.9821     0.0000   496.0000 </r>
       <r>   -16.7497     0.0000   496.0000 </r>
       <r>   -16.5173     0.0000   496.0000 </r>
       <r>   -16.2849     0.7075   496.1644 </r>
       <r>   -16.0525     7.6491   497.9421 </r>
       <r>   -15.8201     0.2492   498.0000 </r>
       <r>   -15.5877     0.0000   498.0000 </r>
       <r>   -15.3553     0.0000   498.0000 </r>
       <r>   -15.1229     0.0000   498.0000 </r>
       <r>   -14.8905     0.0000   498.0000 </r>
       <r>   -14.6581     0.0000   498.0000 </r>
       <r>   -14.4257     0.0000   498.0000 </r>
       <r>   -14.1933     0.0000   498.0000 </r>
       <r>   -13.9609     0.0000   498.0000 </r>
       <r>   -13.7285     0.0000   498.0000 </r>
       <r>   -13.4961     0.0000   498.0000 </r>
       <r>   -13.2637     0.0000   498.0000 </r>
       <r>   -13.0313     0.0000   498.0000 </r>
       <r>   -12.7989     0.0000   498.0000 </r>
       <r>   -12.5665     0.0000   498.0000 </r>
       <r>   -12.3341     0.0000   498.0000 </r>
       <r>   -12.1017     0.0000   498.0000 </r>
       <r>   -11.8693     0.0000   498.0000 </r>
       <r>   -11.6369     0.0000   498.0000 </r>
       <r>   -11.4045     0.0000   498.0000 </r>
       <r>   -11.1721     0.0000   498.0000 </r>
       <r>   -10.9397     0.0000   498.0000 </r>
       <r>   -10.7073     0.0000   498.0000 </r>
       <r>   -10.4749     0.0000   498.0000 </r>
       <r>   -10.2425     0.0000   498.0000 </r>
       <r>   -10.0101     0.0000   498.0000 </r>
       <r>    -9.7777     0.0000   498.0000 </r>
       <r>    -9.5453     0.0000   498.0000 </r>
       <r>    -9.3129     0.0000   498.0000 </r>
       <r>    -9.0805     0.0000   498.0000 </r>
       <r>    -8.8481     0.0000   498.0000 </r>
       <r>    -8.6157     0.0000   498.0000 </r>
       <r>    -8.3833     0.0000   498.0000 </r>
       <r>    -8.1509     0.0000   498.0000 </r>
       <r>    -7.9185     0.0000   498.0000 </r>
       <r>    -7.6861     0.0000   498.0000 </r>
       <r>    -7.4537     0.0000   498.0000 </r>
       <r>    -7.2213     0.0000   498.0000 </r>
       <r>    -6.9889     0.0000   498.0000 </r>
       <r>    -6.7565     0.0000   498.0000 </r>
       <r>    -6.5241     0.0000   498.0000 </r>
       <r>    -6.2917     0.0000   498.0000 </r>
       <r>    -6.0593     0.0000   498.0000 </r>
       <r>    -5.8269     0.0000   498.0000 </r>
       <r>    -5.5945     0.0000   498.0000 </r>
       <r>    -5.3621     0.0000   498.0000 </r>
       <r>    -5.1297     0.0000   498.0000 </r>
       <r>    -4.8973     0.0000   498.0000 </r>
       <r>    -4.6649     0.0000   498.0000 </r>
       <r>    -4.4325     0.0000   498.0000 </r>
       <r>    -4.2001     0.0000   498.0000 </r>
       <r>    -3.9677     0.0000   498.0000 </r>
       <r>    -3.7353     0.0000   498.0000 </r>
       <r>    -3.5029     0.0001   498.0000 </r>
       <r>    -3.2705     0.2685   498.0624 </r>
       <r>    -3.0381     3.9718   498.9855 </r>
       <r>    -2.8057     9.3601   501.1607 </r>
       <r>    -2.5733     9.2570   503.3121 </r>
       <r>    -2.3409    14.0026   506.5663 </r>
       <r>    -2.1085     4.8116   507.6845 </r>
       <r>    -1.8761     8.9025   509.7534 </r>
       <r>    -1.6437     8.4779   511.7237 </r>
       <r>    -1.4113    17.6271   515.8202 </r>
       <r>    -1.1789    46.7293   526.6800 </r>
       <r>    -0.9465    50.3044   538.3707 </r>
       <r>    -0.7141    76.2998   556.1028 </r>
       <r>    -0.4817    54.4916   568.7666 </r>
       <r>    -0.2493    71.9177   585.4802 </r>
       <r>    -0.0169    73.2399   602.5011 </r>
       <r>     0.2155    70.6006   618.9086 </r>
       <r>     0.4479    93.8585   640.7213 </r>
       <r>     0.6803   111.7975   666.7029 </r>
       <r>     0.9127    96.5511   689.1413 </r>
       <r>     1.1451    79.5712   707.6336 </r>
       <r>     1.3775    73.6068   724.7398 </r>
       <r>     1.6099    86.6489   744.8769 </r>
       <r>     1.8423    77.7496   762.9458 </r>
       <r>     2.0747    90.9253   784.0768 </r>
       <r>     2.3071    74.2132   801.3239 </r>
       <r>     2.5395    58.7426   814.9756 </r>
       <r>     2.7719    51.2261   826.8805 </r>
       <r>     3.0043    69.2832   842.9819 </r>
       <r>     3.2367    67.2042   858.6001 </r>
       <r>     3.4691    56.7486   871.7884 </r>
       <r>     3.7015    54.6453   884.4880 </r>
       <r>     3.9339    60.9753   898.6586 </r>
       <r>     4.1663    69.0008   914.6943 </r>
       <r>     4.3987    66.3096   930.1046 </r>
       <r>     4.6311    85.6790   950.0163 </r>
       <r>     4.8635   106.3350   974.7285 </r>
       <r>     5.0959   107.3680   999.6808 </r>
       <r>     5.3283   110.2875  1025.3115 </r>
       <r>     5.5607    77.9571  1043.4286 </r>
       <r>     5.7931    11.0485  1045.9963 </r>
       <r>     6.0255     0.0159  1046.0000 </r>
       <r>     6.2579     0.0000  1046.0000 </r>
       <r>     6.4903     0.0000  1046.0000 </r>
       <r>     6.7227     0.0000  1046.0000 </r>
       <r>     6.9551     0.0000  1046.0000 </r>
       <r>     7.1874     0.0000  1046.0000 </r>
       <r>     7.4198     0.0000  1046.0000 </r>
       <r>     7.6522     0.0000  1046.0000 </r>
       <r>     7.8846     0.0000  1046.0000 </r>
       <r>     8.1170     0.0000  1046.0000 </r>
       <r>     8.3494     0.0000  1046.0000 </r>
       <r>     8.5818     0.0000  1046.0000 </r>
       <r>     8.8142     0.0000  1046.0000 </r>
      </set>
     </set>
    </array>
   </total>
  </dos>
 </calculation>
 <structure name="finalpos" >
  <crystal>
   <varray name="basis" >
    <v>       9.49839973       0.00000000       0.00000000 </v>
    <v>       0.00000000       9.49839973       0.00000000 </v>
    <v>       0.00000000       0.00000000      24.50289917 </v>
   </varray>
   <i name="volume">   2210.64170109 </i>
   <varray name="rec_basis" >
    <v>       0.10528089       0.00000000       0.00000000 </v>
    <v>       0.00000000       0.10528089       0.00000000 </v>
    <v>       0.00000000       0.00000000       0.04081150 </v>
   </varray>
  </crystal>
  <varray name="positions" >
   <v>       0.00000000       0.00000000       0.00000000 </v>
   <v>       0.98776334       0.98426798       0.38282674 </v>
   <v>       0.16667000       0.16667000       0.06464000 </v>
   <v>       0.33333000       0.00000000       0.00000000 </v>
   <v>       0.33267472       0.00303599       0.37958259 </v>
   <v>       0.50000000       0.16667000       0.06464000 </v>
   <v>       0.66667000       0.00000000       0.00000000 </v>
   <v>       0.68363848       0.00530160       0.38150678 </v>
   <v>       0.83333000       0.16667000       0.06464000 </v>
   <v>       0.00000000       0.33333000       0.00000000 </v>
   <v>       0.16667000       0.50000000       0.06464000 </v>
   <v>       0.33333000       0.33333000       0.00000000 </v>
   <v>       0.50000000       0.50000000       0.06464000 </v>
   <v>       0.66667000       0.33333000       0.00000000 </v>
   <v>       0.83333000       0.50000000       0.06464000 </v>
   <v>       0.00000000       0.66667000       0.00000000 </v>
   <v>       0.00076358       0.68721792       0.38187749 </v>
   <v>       0.16667000       0.83333000       0.06464000 </v>
   <v>       0.33333000       0.66667000       0.00000000 </v>
   <v>       0.50000000       0.83333000       0.06464000 </v>
   <v>       0.66667000       0.66667000       0.00000000 </v>
   <v>       0.67372575       0.66895550       0.38315481 </v>
   <v>       0.83333000       0.83333000       0.06464000 </v>
   <v>       0.00000000       0.00000000       0.12928000 </v>
   <v>       0.16667000       0.16667000       0.19391000 </v>
   <v>       0.33333000       0.00000000       0.12928000 </v>
   <v>       0.50000000       0.16667000       0.19391000 </v>
   <v>       0.66667000       0.00000000       0.12928000 </v>
   <v>       0.83333000       0.16667000       0.19391000 </v>
   <v>       0.00000000       0.33333000       0.12928000 </v>
   <v>       0.16667000       0.50000000       0.19391000 </v>
   <v>       0.33333000       0.33333000       0.12928000 </v>
   <v>       0.50000000       0.50000000       0.19391000 </v>
   <v>       0.66667000       0.33333000       0.12928000 </v>
   <v>       0.83333000       0.50000000       0.19391000 </v>
   <v>       0.00000000       0.66667000       0.12928000 </v>
   <v>       0.16667000       0.83333000       0.19391000 </v>
   <v>       0.33333000       0.66667000       0.12928000 </v>
   <v>       0.50000000       0.83333000       0.19391000 </v>
   <v>       0.66667000       0.66667000       0.12928000 </v>
   <v>       0.83333000       0.83333000       0.19391000 </v>
   <v>       0.00000000       0.00000000       0.25855000 </v>
   <v>       0.16643962       0.16672480       0.32473393 </v>
   <v>       0.33333000       0.00000000       0.25855000 </v>
   <v>       0.49928972       0.16568780       0.32371993 </v>
   <v>       0.66667000       0.00000000       0.25855000 </v>
   <v>       0.83403838       0.16903971       0.32414627 </v>
   <v>       0.00000000       0.33333000       0.25855000 </v>
   <v>       0.16590622       0.49934286       0.32364385 </v>
   <v>       0.33333000       0.33333000       0.25855000 </v>
   <v>       0.49914595       0.49928910       0.32017626 </v>
   <v>       0.66667000       0.33333000       0.25855000 </v>
   <v>       0.83284062       0.50002296       0.32474974 </v>
   <v>       0.00000000       0.66667000       0.25855000 </v>
   <v>       0.16905108       0.83410788       0.32383535 </v>
   <v>       0.33333000       0.66667000       0.25855000 </v>
   <v>       0.50019483       0.83275230       0.32475979 </v>
   <v>       0.66667000       0.66667000       0.25855000 </v>
   <v>       0.83293452       0.83405423       0.32201160 </v>
   <v>       0.00452595       0.33364015       0.37954653 </v>
   <v>       0.64894031       0.34119214       0.38624941 </v>
   <v>       0.34193167       0.65046606       0.38629642 </v>
   <v>       0.51759285       0.51815069       0.40848110 </v>
  </varray>
  <varray name="selective"  type="logical" >
   <v type="logical" >  F  F  F </v>
   <v type="logical" >  T  T  T </v>
   <v type="logical" >  F  F  F </v>
   <v type="logical" >  F  F  F </v>
   <v type="logical" >  T  T  T </v>
   <v type="logical" >  F  F  F </v>
   <v type="logical" >  F  F  F </v>
   <v type="logical" >  T  T  T </v>
   <v type="logical" >  F  F  F </v>
   <v type="logical" >  F  F  F </v>
   <v type="logical" >  F  F  F </v>
   <v type="logical" >  F  F  F </v>
   <v type="logical" >  F  F  F </v>
   <v type="logical" >  F  F  F </v>
   <v type="logical" >  F  F  F </v>
   <v type="logical" >  F  F  F </v>
   <v type="logical" >  T  T  T </v>
   <v type="logical" >  F  F  F </v>
   <v type="logical" >  F  F  F </v>
   <v type="logical" >  F  F  F </v>
   <v type="logical" >  F  F  F </v>
   <v type="logical" >  T  T  T </v>
   <v type="logical" >  F  F  F </v>
   <v type="logical" >  F  F  F </v>
   <v type="logical" >  F  F  F </v>
   <v type="logical" >  F  F  F </v>
   <v type="logical" >  F  F  F </v>
   <v type="logical" >  F  F  F </v>
   <v type="logical" >  F  F  F </v>
   <v type="logical" >  F  F  F </v>
   <v type="logical" >  F  F  F </v>
   <v type="logical" >  F  F  F </v>
   <v type="logical" >  F  F  F </v>
   <v type="logical" >  F  F  F </v>
   <v type="logical" >  F  F  F </v>
   <v type="logical" >  F  F  F </v>
   <v type="logical" >  F  F  F </v>
   <v type="logical" >  F  F  F </v>
   <v type="logical" >  F  F  F </v>
   <v type="logical" >  F  F  F </v>
   <v type="logical" >  F  F  F </v>
   <v type="logical" >  F  F  F </v>
   <v type="logical" >  T  T  T </v>
   <v type="logical" >  F  F  F </v>
   <v type="logical" >  T  T  T </v>
   <v type="logical" >  F  F  F </v>
   <v type="logical" >  T  T  T </v>
   <v type="logical" >  F  F  F </v>
   <v type="logical" >  T  T  T </v>
   <v type="logical" >  F  F  F </v>
   <v type="logical" >  T  T  T </v>
   <v type="logical" >  F  F  F </v>
   <v type="logical" >  T  T  T </v>
   <v type="logical" >  F  F  F </v>
   <v type="logical" >  T  T  T </v>
   <v type="logical" >  F  F  F </v>
   <v type="logical" >  T  T  T </v>
   <v type="logical" >  F  F  F </v>
   <v type="logical" >  T  T  T </v>
   <v type="logical" >  T  T  T </v>
   <v type="logical" >  T  T  T </v>
   <v type="logical" >  T  T  T </v>
   <v type="logical" >  T  T  T </v>
  </varray>
  <nose>
   <v>      -3.00000000       0.00000000       0.00010000       0.00010000 </v>
  </nose>
 </structure>
</modeling>
