  63  63   0   0
  0.3508955E+02  0.9498400E-09  0.9498400E-09  0.2450290E-08  0.5000000E-15
  1.000000000000000E-004
  CAR 
 ni3al                                   
      8.83110787    -60.89677559  301      3.47424585      1.00000000
    -60.897  0.0000E+00  0.0000E+00
    -60.664  0.0000E+00  0.0000E+00
    -60.432  0.0000E+00  0.0000E+00
    -60.199  0.0000E+00  0.0000E+00
    -59.967  0.0000E+00  0.0000E+00
    -59.735  0.0000E+00  0.0000E+00
    -59.502  0.0000E+00  0.0000E+00
    -59.270  0.0000E+00  0.0000E+00
    -59.037  0.0000E+00  0.0000E+00
    -58.805  0.0000E+00  0.0000E+00
    -58.573 -0.1057E-32 -0.2456E-33
    -58.340 -0.5541E-18 -0.1288E-18
    -58.108 -0.5612E-08 -0.1304E-08
    -57.875 -0.1110E-02 -0.2580E-03
    -57.643  0.1139E+00  0.2621E-01
    -57.410  0.8842E+00  0.2317E+00
    -57.178  0.6678E+00  0.3869E+00
    -56.946  0.8522E-01  0.4068E+00
    -56.713 -0.3852E-03  0.4067E+00
    -56.481 -0.1268E-09  0.4067E+00
    -56.248  0.0000E+00  0.4067E+00
    -56.016  0.0000E+00  0.4067E+00
    -55.783  0.0000E+00  0.4067E+00
    -55.551  0.0000E+00  0.4067E+00
    -55.319  0.0000E+00  0.4067E+00
    -55.086  0.0000E+00  0.4067E+00
    -54.854  0.0000E+00  0.4067E+00
    -54.621  0.0000E+00  0.4067E+00
    -54.389  0.0000E+00  0.4067E+00
    -54.156  0.0000E+00  0.4067E+00
    -53.924  0.0000E+00  0.4067E+00
    -53.692  0.0000E+00  0.4067E+00
    -53.459  0.0000E+00  0.4067E+00
    -53.227  0.0000E+00  0.4067E+00
    -52.994  0.0000E+00  0.4067E+00
    -52.762  0.0000E+00  0.4067E+00
    -52.529  0.0000E+00  0.4067E+00
    -52.297 -0.4517E-31  0.4067E+00
    -52.065 -0.1178E-16  0.4067E+00
    -51.832 -0.5024E-07  0.4067E+00
    -51.600 -0.1798E-02  0.4062E+00
    -51.367  0.5994E-01  0.4202E+00
    -51.135 -0.7721E-03  0.4200E+00
    -50.902 -0.1346E-05  0.4200E+00
    -50.670 -0.3313E-14  0.4200E+00
    -50.438  0.0000E+00  0.4200E+00
    -50.205  0.0000E+00  0.4200E+00
    -49.973  0.0000E+00  0.4200E+00
    -49.740  0.0000E+00  0.4200E+00
    -49.508  0.0000E+00  0.4200E+00
    -49.275  0.0000E+00  0.4200E+00
    -49.043  0.0000E+00  0.4200E+00
    -48.811  0.0000E+00  0.4200E+00
    -48.578  0.0000E+00  0.4200E+00
    -48.346  0.0000E+00  0.4200E+00
    -48.113  0.0000E+00  0.4200E+00
    -47.881  0.0000E+00  0.4200E+00
    -47.648  0.0000E+00  0.4200E+00
    -47.416  0.0000E+00  0.4200E+00
    -47.184  0.0000E+00  0.4200E+00
    -46.951  0.0000E+00  0.4200E+00
    -46.719  0.0000E+00  0.4200E+00
    -46.486  0.0000E+00  0.4200E+00
    -46.254  0.0000E+00  0.4200E+00
    -46.021  0.0000E+00  0.4200E+00
    -45.789  0.0000E+00  0.4200E+00
    -45.557  0.0000E+00  0.4200E+00
    -45.324  0.0000E+00  0.4200E+00
    -45.092  0.0000E+00  0.4200E+00
    -44.859  0.0000E+00  0.4200E+00
    -44.627  0.0000E+00  0.4200E+00
    -44.395  0.0000E+00  0.4200E+00
    -44.162  0.0000E+00  0.4200E+00
    -43.930  0.0000E+00  0.4200E+00
    -43.697  0.0000E+00  0.4200E+00
    -43.465  0.0000E+00  0.4200E+00
    -43.232  0.0000E+00  0.4200E+00
    -43.000  0.0000E+00  0.4200E+00
    -42.768  0.0000E+00  0.4200E+00
    -42.535  0.0000E+00  0.4200E+00
    -42.303  0.0000E+00  0.4200E+00
    -42.070  0.0000E+00  0.4200E+00
    -41.838  0.0000E+00  0.4200E+00
    -41.605  0.0000E+00  0.4200E+00
    -41.373  0.0000E+00  0.4200E+00
    -41.141  0.0000E+00  0.4200E+00
    -40.908  0.0000E+00  0.4200E+00
    -40.676  0.0000E+00  0.4200E+00
    -40.443  0.0000E+00  0.4200E+00
    -40.211  0.0000E+00  0.4200E+00
    -39.978  0.0000E+00  0.4200E+00
    -39.746  0.0000E+00  0.4200E+00
    -39.514  0.0000E+00  0.4200E+00
    -39.281  0.0000E+00  0.4200E+00
    -39.049  0.0000E+00  0.4200E+00
    -38.816  0.0000E+00  0.4200E+00
    -38.584  0.0000E+00  0.4200E+00
    -38.351  0.0000E+00  0.4200E+00
    -38.119  0.0000E+00  0.4200E+00
    -37.887  0.0000E+00  0.4200E+00
    -37.654  0.0000E+00  0.4200E+00
    -37.422  0.0000E+00  0.4200E+00
    -37.189  0.0000E+00  0.4200E+00
    -36.957  0.0000E+00  0.4200E+00
    -36.724  0.0000E+00  0.4200E+00
    -36.492  0.0000E+00  0.4200E+00
    -36.260  0.0000E+00  0.4200E+00
    -36.027  0.0000E+00  0.4200E+00
    -35.795  0.0000E+00  0.4200E+00
    -35.562  0.0000E+00  0.4200E+00
    -35.330  0.0000E+00  0.4200E+00
    -35.097  0.0000E+00  0.4200E+00
    -34.865  0.0000E+00  0.4200E+00
    -34.633  0.0000E+00  0.4200E+00
    -34.400  0.0000E+00  0.4200E+00
    -34.168  0.0000E+00  0.4200E+00
    -33.935  0.0000E+00  0.4200E+00
    -33.703  0.0000E+00  0.4200E+00
    -33.470  0.0000E+00  0.4200E+00
    -33.238 -0.4883E-36  0.4200E+00
    -33.006 -0.2097E-20  0.4200E+00
    -32.773 -0.1913E-09  0.4200E+00
    -32.541 -0.3506E-03  0.4199E+00
    -32.308  0.5211E-01  0.4320E+00
    -32.076  0.6386E+00  0.5805E+00
    -31.843  0.6646E+00  0.7349E+00
    -31.611  0.7487E+00  0.9090E+00
    -31.379  0.9398E+00  0.1127E+01
    -31.146  0.1126E+01  0.1389E+01
    -30.914  0.9714E+00  0.1615E+01
    -30.681  0.1090E+00  0.1640E+01
    -30.449 -0.1157E-02  0.1640E+01
    -30.217 -0.2122E-08  0.1640E+01
    -29.984  0.0000E+00  0.1640E+01
    -29.752  0.0000E+00  0.1640E+01
    -29.519  0.0000E+00  0.1640E+01
    -29.287  0.0000E+00  0.1640E+01
    -29.054  0.0000E+00  0.1640E+01
    -28.822  0.0000E+00  0.1640E+01
    -28.590 -0.7619E-42  0.1640E+01
    -28.357 -0.1092E-24  0.1640E+01
    -28.125 -0.2815E-12  0.1640E+01
    -27.892 -0.1213E-04  0.1640E+01
    -27.660  0.4724E-02  0.1641E+01
    -27.427  0.1429E+00  0.1674E+01
    -27.195  0.2453E-01  0.1680E+01
    -26.963 -0.6071E-04  0.1680E+01
    -26.730 -0.2553E-11  0.1680E+01
    -26.498  0.0000E+00  0.1680E+01
    -26.265  0.0000E+00  0.1680E+01
    -26.033  0.0000E+00  0.1680E+01
    -25.800  0.0000E+00  0.1680E+01
    -25.568  0.0000E+00  0.1680E+01
    -25.336  0.0000E+00  0.1680E+01
    -25.103  0.0000E+00  0.1680E+01
    -24.871  0.0000E+00  0.1680E+01
    -24.638  0.0000E+00  0.1680E+01
    -24.406  0.0000E+00  0.1680E+01
    -24.173  0.0000E+00  0.1680E+01
    -23.941  0.0000E+00  0.1680E+01
    -23.709  0.0000E+00  0.1680E+01
    -23.476  0.0000E+00  0.1680E+01
    -23.244  0.0000E+00  0.1680E+01
    -23.011  0.0000E+00  0.1680E+01
    -22.779  0.0000E+00  0.1680E+01
    -22.546  0.0000E+00  0.1680E+01
    -22.314  0.0000E+00  0.1680E+01
    -22.082  0.0000E+00  0.1680E+01
    -21.849  0.0000E+00  0.1680E+01
    -21.617  0.0000E+00  0.1680E+01
    -21.384  0.0000E+00  0.1680E+01
    -21.152  0.0000E+00  0.1680E+01
    -20.919  0.0000E+00  0.1680E+01
    -20.687  0.0000E+00  0.1680E+01
    -20.455  0.0000E+00  0.1680E+01
    -20.222  0.0000E+00  0.1680E+01
    -19.990  0.0000E+00  0.1680E+01
    -19.757  0.0000E+00  0.1680E+01
    -19.525  0.0000E+00  0.1680E+01
    -19.292  0.0000E+00  0.1680E+01
    -19.060  0.0000E+00  0.1680E+01
    -18.828  0.0000E+00  0.1680E+01
    -18.595  0.0000E+00  0.1680E+01
    -18.363  0.0000E+00  0.1680E+01
    -18.130  0.0000E+00  0.1680E+01
    -17.898  0.0000E+00  0.1680E+01
    -17.665  0.0000E+00  0.1680E+01
    -17.433  0.0000E+00  0.1680E+01
    -17.201  0.0000E+00  0.1680E+01
    -16.968  0.0000E+00  0.1680E+01
    -16.736  0.0000E+00  0.1680E+01
    -16.503  0.0000E+00  0.1680E+01
    -16.271  0.0000E+00  0.1680E+01
    -16.039  0.0000E+00  0.1680E+01
    -15.806  0.0000E+00  0.1680E+01
    -15.574  0.0000E+00  0.1680E+01
    -15.341  0.0000E+00  0.1680E+01
    -15.109  0.0000E+00  0.1680E+01
    -14.876  0.0000E+00  0.1680E+01
    -14.644  0.0000E+00  0.1680E+01
    -14.412  0.0000E+00  0.1680E+01
    -14.179  0.0000E+00  0.1680E+01
    -13.947  0.0000E+00  0.1680E+01
    -13.714  0.0000E+00  0.1680E+01
    -13.482  0.0000E+00  0.1680E+01
    -13.249  0.0000E+00  0.1680E+01
    -13.017  0.0000E+00  0.1680E+01
    -12.785  0.0000E+00  0.1680E+01
    -12.552  0.0000E+00  0.1680E+01
    -12.320  0.0000E+00  0.1680E+01
    -12.087  0.0000E+00  0.1680E+01
    -11.855  0.0000E+00  0.1680E+01
    -11.622  0.0000E+00  0.1680E+01
    -11.390  0.0000E+00  0.1680E+01
    -11.158  0.0000E+00  0.1680E+01
    -10.925  0.0000E+00  0.1680E+01
    -10.693  0.0000E+00  0.1680E+01
    -10.460  0.0000E+00  0.1680E+01
    -10.228  0.0000E+00  0.1680E+01
     -9.995  0.0000E+00  0.1680E+01
     -9.763  0.0000E+00  0.1680E+01
     -9.531  0.0000E+00  0.1680E+01
     -9.298  0.0000E+00  0.1680E+01
     -9.066  0.0000E+00  0.1680E+01
     -8.833  0.0000E+00  0.1680E+01
     -8.601  0.0000E+00  0.1680E+01
     -8.368  0.0000E+00  0.1680E+01
     -8.136  0.0000E+00  0.1680E+01
     -7.904  0.0000E+00  0.1680E+01
     -7.671  0.0000E+00  0.1680E+01
     -7.439  0.0000E+00  0.1680E+01
     -7.206  0.0000E+00  0.1680E+01
     -6.974  0.0000E+00  0.1680E+01
     -6.741  0.0000E+00  0.1680E+01
     -6.509  0.0000E+00  0.1680E+01
     -6.277  0.0000E+00  0.1680E+01
     -6.044  0.0000E+00  0.1680E+01
     -5.812  0.0000E+00  0.1680E+01
     -5.579  0.0000E+00  0.1680E+01
     -5.347  0.0000E+00  0.1680E+01
     -5.114  0.0000E+00  0.1680E+01
     -4.882  0.0000E+00  0.1680E+01
     -4.650  0.0000E+00  0.1680E+01
     -4.417  0.0000E+00  0.1680E+01
     -4.185 -0.6290E-39  0.1680E+01
     -3.952 -0.8463E-23  0.1680E+01
     -3.720 -0.1953E-11  0.1680E+01
     -3.487 -0.6106E-05  0.1680E+01
     -3.255  0.7868E-03  0.1680E+01
     -3.023  0.9542E-02  0.1682E+01
     -2.790  0.5891E-02  0.1684E+01
     -2.558  0.1702E-01  0.1688E+01
     -2.325  0.4316E-02  0.1689E+01
     -2.093  0.2162E-01  0.1694E+01
     -1.861  0.2718E-01  0.1700E+01
     -1.628  0.3114E-01  0.1707E+01
     -1.396  0.6234E-01  0.1722E+01
     -1.163  0.1628E+00  0.1760E+01
     -0.931  0.1832E+00  0.1802E+01
     -0.698  0.2664E+00  0.1864E+01
     -0.466  0.1593E+00  0.1901E+01
     -0.234  0.2745E+00  0.1965E+01
     -0.001  0.2623E+00  0.2026E+01
      0.231  0.2316E+00  0.2080E+01
      0.464  0.3389E+00  0.2159E+01
      0.696  0.3684E+00  0.2244E+01
      0.929  0.3057E+00  0.2315E+01
      1.161  0.2667E+00  0.2377E+01
      1.393  0.2346E+00  0.2432E+01
      1.626  0.3192E+00  0.2506E+01
      1.858  0.2420E+00  0.2562E+01
      2.091  0.3297E+00  0.2639E+01
      2.323  0.2381E+00  0.2694E+01
      2.556  0.1782E+00  0.2736E+01
      2.788  0.1802E+00  0.2777E+01
      3.020  0.2527E+00  0.2836E+01
      3.253  0.2315E+00  0.2890E+01
      3.485  0.1958E+00  0.2935E+01
      3.718  0.1810E+00  0.2978E+01
      3.950  0.2012E+00  0.3024E+01
      4.183  0.2330E+00  0.3078E+01
      4.415  0.2207E+00  0.3130E+01
      4.647  0.2945E+00  0.3198E+01
      4.880  0.3544E+00  0.3281E+01
      5.112  0.3492E+00  0.3362E+01
      5.345  0.3757E+00  0.3449E+01
      5.577  0.2861E+00  0.3516E+01
      5.810  0.1924E-01  0.3520E+01
      6.042 -0.1578E-03  0.3520E+01
      6.274 -0.1110E-08  0.3520E+01
      6.507  0.0000E+00  0.3520E+01
      6.739  0.0000E+00  0.3520E+01
      6.972  0.0000E+00  0.3520E+01
      7.204  0.0000E+00  0.3520E+01
      7.437  0.0000E+00  0.3520E+01
      7.669  0.0000E+00  0.3520E+01
      7.901  0.0000E+00  0.3520E+01
      8.134  0.0000E+00  0.3520E+01
      8.366  0.0000E+00  0.3520E+01
      8.599  0.0000E+00  0.3520E+01
      8.831  0.0000E+00  0.3520E+01
