       N       E                     dE             d eps       ncg     rms          rms(c)
DAV:   1     0.981234134870E+04    0.98123E+04   -0.52900E+05 12992   0.142E+03
DAV:   2    -0.187148545883E+03   -0.99995E+04   -0.96905E+04 11536   0.478E+02
DAV:   3    -0.674791079538E+03   -0.48764E+03   -0.45672E+03 15176   0.979E+01
DAV:   4    -0.707312191609E+03   -0.32521E+02   -0.31067E+02 14640   0.192E+01
DAV:   5    -0.710405825974E+03   -0.30936E+01   -0.30228E+01 20064   0.528E+00    0.103E+02
RMM:   6    -0.700210874887E+03    0.10195E+02   -0.33715E+02 13605   0.185E+01    0.456E+01
RMM:   7    -0.711547058842E+03   -0.11336E+02   -0.12747E+02 12659   0.139E+01    0.422E+01
RMM:   8    -0.658551801245E+03    0.52995E+02   -0.34994E+01 12897   0.745E+00    0.170E+01
RMM:   9    -0.652852731225E+03    0.56991E+01   -0.14325E+01 14329   0.352E+00    0.106E+01
RMM:  10    -0.651448883194E+03    0.14038E+01   -0.41593E+00 14183   0.183E+00    0.774E+00
RMM:  11    -0.651131799876E+03    0.31708E+00   -0.16542E+00 14335   0.112E+00    0.479E+00
RMM:  12    -0.651204570756E+03   -0.72771E-01   -0.20686E+00 14272   0.134E+00    0.378E+00
RMM:  13    -0.650877028541E+03    0.32754E+00   -0.95640E-01 14034   0.967E-01    0.144E+00
RMM:  14    -0.650871923592E+03    0.51049E-02   -0.51390E-01 14491   0.537E-01    0.135E+00
RMM:  15    -0.650841159435E+03    0.30764E-01   -0.26625E-01 14304   0.371E-01    0.103E+00
RMM:  16    -0.650814715543E+03    0.26444E-01   -0.18132E-01 14435   0.268E-01    0.796E-01
RMM:  17    -0.650766524548E+03    0.48191E-01   -0.12203E-01 14209   0.243E-01    0.578E-01
RMM:  18    -0.650725966419E+03    0.40558E-01   -0.96435E-02 14317   0.194E-01    0.410E-01
RMM:  19    -0.650689023167E+03    0.36943E-01   -0.68034E-02 14346   0.146E-01    0.359E-01
RMM:  20    -0.650648517828E+03    0.40505E-01   -0.58446E-02 14162   0.145E-01    0.386E-01
RMM:  21    -0.650591012976E+03    0.57505E-01   -0.51569E-02 14390   0.145E-01    0.370E-01
RMM:  22    -0.650569285079E+03    0.21728E-01   -0.38852E-02 14201   0.113E-01    0.292E-01
RMM:  23    -0.650569748644E+03   -0.46356E-03   -0.32046E-02 14434   0.932E-02    0.249E-01
RMM:  24    -0.650585411942E+03   -0.15663E-01   -0.29398E-02 14209   0.866E-02    0.216E-01
RMM:  25    -0.650599435453E+03   -0.14024E-01   -0.19900E-02 14115   0.650E-02    0.152E-01
RMM:  26    -0.650622198871E+03   -0.22763E-01   -0.13395E-02 14155   0.593E-02    0.110E-01
RMM:  27    -0.650635120524E+03   -0.12922E-01   -0.84014E-03 13929   0.468E-02    0.797E-02
RMM:  28    -0.650643189256E+03   -0.80687E-02   -0.70768E-03 14372   0.352E-02    0.833E-02
RMM:  29    -0.650647202475E+03   -0.40132E-02   -0.36826E-03 14019   0.245E-02    0.375E-02
RMM:  30    -0.650649121454E+03   -0.19190E-02   -0.17217E-03 13978   0.168E-02    0.256E-02
RMM:  31    -0.650650732990E+03   -0.16115E-02   -0.13319E-03 13577   0.142E-02    0.195E-02
RMM:  32    -0.650651320763E+03   -0.58777E-03   -0.83896E-04 11681   0.932E-03    0.118E-02
RMM:  33    -0.650651568017E+03   -0.24725E-03   -0.41961E-04 11158   0.686E-03    0.708E-03
RMM:  34    -0.650651766894E+03   -0.19888E-03   -0.29482E-04 11072   0.560E-03    0.562E-03
RMM:  35    -0.650651876460E+03   -0.10957E-03   -0.20190E-04  9359   0.452E-03    0.502E-03
RMM:  36    -0.650651914701E+03   -0.38242E-04   -0.12122E-04  8186   0.346E-03    0.256E-03
RMM:  37    -0.650651937284E+03   -0.22583E-04   -0.81155E-05  7579   0.285E-03    0.212E-03
RMM:  38    -0.650651958187E+03   -0.20903E-04   -0.54872E-05  7296   0.238E-03    0.148E-03
RMM:  39    -0.650651970890E+03   -0.12703E-04   -0.38320E-05  6968   0.206E-03    0.115E-03
RMM:  40    -0.650651977936E+03   -0.70459E-05   -0.24338E-05  5659   0.172E-03    0.917E-04
RMM:  41    -0.650651984506E+03   -0.65700E-05   -0.17871E-05  5603   0.152E-03    0.782E-04
RMM:  42    -0.650651991225E+03   -0.67192E-05   -0.12355E-05  6126   0.142E-03    0.454E-04
RMM:  43    -0.650651993441E+03   -0.22164E-05   -0.82500E-06  4704   0.123E-03    0.398E-04
RMM:  44    -0.650651994364E+03   -0.92255E-06   -0.59701E-06  4463   0.102E-03
   1 F= -.65065199E+03 E0= -.65065082E+03  d E =-.650652E+03
       N       E                     dE             d eps       ncg     rms          rms(c)
DAV:   1    -0.650358446891E+03    0.29355E+00   -0.97173E+01 11296   0.186E+01    0.226E+00
RMM:   2    -0.650801756857E+03   -0.44331E+00   -0.44483E+00 11009   0.369E+00    0.227E+00
RMM:   3    -0.650819550495E+03   -0.17794E-01   -0.70349E-01 13332   0.160E+00    0.109E+00
RMM:   4    -0.650839495127E+03   -0.19945E-01   -0.19919E-01 15356   0.639E-01    0.108E+00
RMM:   5    -0.650835639338E+03    0.38558E-02   -0.71051E-02 14801   0.312E-01    0.804E-01
RMM:   6    -0.650829685715E+03    0.59536E-02   -0.37185E-02 14661   0.199E-01    0.423E-01
RMM:   7    -0.650829740698E+03   -0.54983E-04   -0.15953E-02 14982   0.136E-01    0.212E-01
RMM:   8    -0.650829660885E+03    0.79812E-04   -0.79081E-03 15759   0.787E-02    0.105E-01
RMM:   9    -0.650829969308E+03   -0.30842E-03   -0.39198E-03 16606   0.513E-02    0.975E-02
RMM:  10    -0.650830089008E+03   -0.11970E-03   -0.22772E-03 16487   0.371E-02    0.716E-02
RMM:  11    -0.650830119469E+03   -0.30461E-04   -0.11991E-03 16527   0.268E-02    0.286E-02
RMM:  12    -0.650830181551E+03   -0.62082E-04   -0.67085E-04 16904   0.184E-02    0.196E-02
RMM:  13    -0.650830218754E+03   -0.37203E-04   -0.36940E-04 15788   0.142E-02    0.127E-02
RMM:  14    -0.650830242818E+03   -0.24064E-04   -0.22179E-04 15003   0.112E-02    0.835E-03
RMM:  15    -0.650830258127E+03   -0.15310E-04   -0.13624E-04 14061   0.903E-03    0.711E-03
RMM:  16    -0.650830266687E+03   -0.85600E-05   -0.87220E-05 12884   0.714E-03    0.331E-03
RMM:  17    -0.650830272922E+03   -0.62349E-05   -0.54696E-05 11721   0.586E-03    0.285E-03
RMM:  18    -0.650830277136E+03   -0.42142E-05   -0.34924E-05 11048   0.489E-03    0.202E-03
RMM:  19    -0.650830279835E+03   -0.26985E-05   -0.22827E-05 10148   0.415E-03    0.174E-03
RMM:  20    -0.650830281771E+03   -0.19365E-05   -0.15142E-05  9822   0.362E-03    0.128E-03
RMM:  21    -0.650830283421E+03   -0.16494E-05   -0.10094E-05  9371   0.316E-03    0.103E-03
RMM:  22    -0.650830284429E+03   -0.10085E-05   -0.68391E-06  8801   0.276E-03    0.636E-04
RMM:  23    -0.650830285118E+03   -0.68845E-06   -0.50075E-06  8420   0.241E-03
   2 F= -.65083029E+03 E0= -.65082899E+03  d E =-.178291E+00
       N       E                     dE             d eps       ncg     rms          rms(c)
DAV:   1    -0.650814859711E+03    0.15425E-01   -0.52970E+00 11712   0.433E+00    0.506E-01
RMM:   2    -0.650836498158E+03   -0.21638E-01   -0.21311E-01 10825   0.801E-01    0.435E-01
RMM:   3    -0.650836615249E+03   -0.11709E-03   -0.28840E-02 13383   0.331E-01    0.249E-01
RMM:   4    -0.650837214141E+03   -0.59889E-03   -0.98367E-03 15285   0.139E-01    0.217E-01
RMM:   5    -0.650836943498E+03    0.27064E-03   -0.37236E-03 14983   0.710E-02    0.148E-01
RMM:   6    -0.650836855923E+03    0.87575E-04   -0.20282E-03 15032   0.435E-02    0.869E-02
RMM:   7    -0.650836790062E+03    0.65861E-04   -0.73492E-04 15179   0.285E-02    0.368E-02
RMM:   8    -0.650836815834E+03   -0.25772E-04   -0.39534E-04 15603   0.180E-02    0.276E-02
RMM:   9    -0.650836823966E+03   -0.81319E-05   -0.20092E-04 15451   0.119E-02    0.180E-02
RMM:  10    -0.650836831479E+03   -0.75130E-05   -0.11827E-04 14332   0.805E-03    0.114E-02
RMM:  11    -0.650836835900E+03   -0.44211E-05   -0.60961E-05 12847   0.581E-03    0.574E-03
RMM:  12    -0.650836839367E+03   -0.34675E-05   -0.35525E-05 11161   0.435E-03    0.339E-03
RMM:  13    -0.650836841646E+03   -0.22781E-05   -0.20287E-05  9737   0.339E-03    0.337E-03
RMM:  14    -0.650836843004E+03   -0.13586E-05   -0.12210E-05  8740   0.280E-03    0.184E-03
RMM:  15    -0.650836843953E+03   -0.94927E-06   -0.78432E-06  7971   0.233E-03
   3 F= -.65083684E+03 E0= -.65083554E+03  d E =-.184850E+00
       N       E                     dE             d eps       ncg     rms          rms(c)
DAV:   1    -0.650819428268E+03    0.17415E-01   -0.98496E+00 10984   0.617E+00    0.501E-01
RMM:   2    -0.650850572014E+03   -0.31144E-01   -0.32660E-01 10640   0.110E+00    0.314E-01
RMM:   3    -0.650854944858E+03   -0.43728E-02   -0.53610E-02 13635   0.465E-01    0.251E-01
RMM:   4    -0.650855833326E+03   -0.88847E-03   -0.18245E-02 15488   0.186E-01    0.201E-01
RMM:   5    -0.650855995973E+03   -0.16265E-03   -0.46338E-03 15219   0.786E-02    0.141E-01
RMM:   6    -0.650856026639E+03   -0.30666E-04   -0.23835E-03 14957   0.411E-02    0.884E-02
RMM:   7    -0.650856114508E+03   -0.87870E-04   -0.11508E-03 14899   0.310E-02    0.594E-02
RMM:   8    -0.650856103099E+03    0.11409E-04   -0.62405E-04 14499   0.207E-02    0.262E-02
RMM:   9    -0.650856129722E+03   -0.26623E-04   -0.31651E-04 15506   0.137E-02    0.243E-02
RMM:  10    -0.650856140221E+03   -0.10499E-04   -0.16953E-04 14491   0.957E-03    0.173E-02
RMM:  11    -0.650856143698E+03   -0.34774E-05   -0.86915E-05 12912   0.663E-03    0.739E-03
RMM:  12    -0.650856148733E+03   -0.50344E-05   -0.52423E-05 11214   0.460E-03    0.528E-03
RMM:  13    -0.650856151392E+03   -0.26597E-05   -0.25869E-05 10423   0.373E-03    0.343E-03
RMM:  14    -0.650856153112E+03   -0.17192E-05   -0.15704E-05  9081   0.283E-03    0.207E-03
RMM:  15    -0.650856154172E+03   -0.10603E-05   -0.87104E-06  8133   0.232E-03    0.161E-03
RMM:  16    -0.650856154839E+03   -0.66670E-06   -0.54226E-06  7355   0.187E-03
   4 F= -.65085615E+03 E0= -.65085486E+03  d E =-.193109E-01
       N       E                     dE             d eps       ncg     rms          rms(c)
DAV:   1    -0.650835297645E+03    0.20857E-01   -0.69755E+00 10880   0.519E+00    0.422E-01
RMM:   2    -0.650857368296E+03   -0.22071E-01   -0.23120E-01 10630   0.926E-01    0.265E-01
RMM:   3    -0.650860501078E+03   -0.31328E-02   -0.38080E-02 13690   0.391E-01    0.215E-01
RMM:   4    -0.650861053543E+03   -0.55246E-03   -0.12795E-02 15481   0.155E-01    0.166E-01
RMM:   5    -0.650861208032E+03   -0.15449E-03   -0.32991E-03 15319   0.647E-02    0.122E-01
RMM:   6    -0.650861208117E+03   -0.84896E-07   -0.16818E-03 14956   0.346E-02    0.739E-02
RMM:   7    -0.650861276289E+03   -0.68172E-04   -0.83002E-04 14951   0.262E-02    0.506E-02
RMM:   8    -0.650861266569E+03    0.97204E-05   -0.44323E-04 14490   0.175E-02    0.213E-02
RMM:   9    -0.650861286867E+03   -0.20298E-04   -0.22960E-04 15228   0.116E-02    0.204E-02
RMM:  10    -0.650861294667E+03   -0.77997E-05   -0.12161E-04 13883   0.816E-03    0.149E-02
RMM:  11    -0.650861297333E+03   -0.26657E-05   -0.63900E-05 12330   0.569E-03    0.641E-03
RMM:  12    -0.650861301039E+03   -0.37063E-05   -0.37410E-05 10586   0.402E-03    0.446E-03
RMM:  13    -0.650861303211E+03   -0.21717E-05   -0.18978E-05  9790   0.325E-03    0.293E-03
RMM:  14    -0.650861304704E+03   -0.14938E-05   -0.11398E-05  8558   0.254E-03    0.189E-03
RMM:  15    -0.650861305708E+03   -0.10033E-05   -0.65915E-06  7767   0.213E-03    0.152E-03
RMM:  16    -0.650861306323E+03   -0.61571E-06   -0.40028E-06  7086   0.172E-03
   5 F= -.65086131E+03 E0= -.65086003E+03  d E =-.244624E-01
       N       E                     dE             d eps       ncg     rms          rms(c)
DAV:   1    -0.650851988913E+03    0.93168E-02   -0.38316E+00 10912   0.383E+00    0.400E-01
RMM:   2    -0.650865861726E+03   -0.13873E-01   -0.12893E-01 10677   0.684E-01    0.345E-01
RMM:   3    -0.650865803113E+03    0.58613E-04   -0.19251E-02 13421   0.277E-01    0.216E-01
RMM:   4    -0.650866076091E+03   -0.27298E-03   -0.64886E-03 15214   0.112E-01    0.168E-01
RMM:   5    -0.650865795815E+03    0.28028E-03   -0.24376E-03 14263   0.584E-02    0.102E-01
RMM:   6    -0.650865803842E+03   -0.80273E-05   -0.91231E-04 14923   0.340E-02    0.523E-02
RMM:   7    -0.650865812909E+03   -0.90665E-05   -0.47395E-04 14326   0.204E-02    0.335E-02
RMM:   8    -0.650865818309E+03   -0.53997E-05   -0.22875E-04 14544   0.130E-02    0.173E-02
RMM:   9    -0.650865826335E+03   -0.80267E-05   -0.12937E-04 13547   0.831E-03    0.110E-02
RMM:  10    -0.650865832290E+03   -0.59547E-05   -0.66257E-05 12002   0.570E-03    0.796E-03
RMM:  11    -0.650865836291E+03   -0.40008E-05   -0.37803E-05 10734   0.418E-03    0.451E-03
RMM:  12    -0.650865838781E+03   -0.24899E-05   -0.20423E-05  9181   0.309E-03    0.296E-03
RMM:  13    -0.650865841003E+03   -0.22224E-05   -0.12553E-05  8229   0.245E-03    0.227E-03
RMM:  14    -0.650865842365E+03   -0.13617E-05   -0.71564E-06  7450   0.202E-03    0.124E-03
RMM:  15    -0.650865843205E+03   -0.84031E-06   -0.43134E-06  6880   0.163E-03
   6 F= -.65086584E+03 E0= -.65086458E+03  d E =-.453688E-02
       N       E                     dE             d eps       ncg     rms          rms(c)
DAV:   1    -0.650865380968E+03    0.46140E-03   -0.17019E-01 11584   0.809E-01    0.856E-02
RMM:   2    -0.650865995940E+03   -0.61497E-03   -0.57506E-03 10665   0.144E-01    0.713E-02
RMM:   3    -0.650866003418E+03   -0.74780E-05   -0.86004E-04 13352   0.586E-02    0.465E-02
RMM:   4    -0.650866012251E+03   -0.88328E-05   -0.31148E-04 15142   0.245E-02    0.348E-02
RMM:   5    -0.650866001187E+03    0.11064E-04   -0.11302E-04 13920   0.125E-02    0.213E-02
RMM:   6    -0.650866002104E+03   -0.91622E-06   -0.42773E-05 12706   0.715E-03    0.108E-02
RMM:   7    -0.650866003475E+03   -0.13716E-05   -0.23584E-05 11435   0.472E-03    0.759E-03
RMM:   8    -0.650866003913E+03   -0.43781E-06   -0.11482E-05  9764   0.304E-03    0.385E-03
RMM:   9    -0.650866004441E+03   -0.52781E-06   -0.61133E-06  8076   0.215E-03
   7 F= -.65086600E+03 E0= -.65086474E+03  d E =-.469812E-02
       N       E                     dE             d eps       ncg     rms          rms(c)
DAV:   1    -0.650864669896E+03    0.13340E-02   -0.65368E-01 10904   0.160E+00    0.140E-01
RMM:   2    -0.650866653775E+03   -0.19839E-02   -0.20494E-02 10532   0.277E-01    0.857E-02
RMM:   3    -0.650866837755E+03   -0.18398E-03   -0.27552E-03 13776   0.105E-01    0.645E-02
RMM:   4    -0.650866866557E+03   -0.28802E-04   -0.10343E-03 15732   0.466E-02    0.482E-02
RMM:   5    -0.650866883342E+03   -0.16784E-04   -0.27191E-04 14630   0.180E-02    0.381E-02
RMM:   6    -0.650866876170E+03    0.71715E-05   -0.13190E-04 13953   0.954E-03    0.192E-02
RMM:   7    -0.650866883015E+03   -0.68450E-05   -0.66889E-05 13243   0.736E-03    0.169E-02
RMM:   8    -0.650866881793E+03    0.12216E-05   -0.30467E-05 11861   0.508E-03    0.804E-03
RMM:   9    -0.650866881800E+03   -0.61118E-08   -0.14285E-05 10503   0.320E-03    0.441E-03
RMM:  10    -0.650866882262E+03   -0.46223E-06   -0.74569E-06  8374   0.228E-03
   8 F= -.65086688E+03 E0= -.65086565E+03  d E =-.877821E-03
       N       E                     dE             d eps       ncg     rms          rms(c)
DAV:   1    -0.650866283490E+03    0.59831E-03   -0.23170E-01 10968   0.952E-01    0.835E-02
RMM:   2    -0.650866988156E+03   -0.70467E-03   -0.72782E-03 10528   0.165E-01    0.508E-02
RMM:   3    -0.650867056388E+03   -0.68233E-04   -0.99707E-04 13799   0.627E-02    0.386E-02
RMM:   4    -0.650867067854E+03   -0.11465E-04   -0.37803E-04 15547   0.277E-02    0.289E-02
RMM:   5    -0.650867074576E+03   -0.67226E-05   -0.10505E-04 14104   0.108E-02    0.229E-02
RMM:   6    -0.650867072720E+03    0.18562E-05   -0.52133E-05 12357   0.584E-03    0.117E-02
RMM:   7    -0.650867075299E+03   -0.25789E-05   -0.25484E-05 11798   0.460E-03    0.101E-02
RMM:   8    -0.650867074942E+03    0.35681E-06   -0.11730E-05 10385   0.319E-03    0.448E-03
RMM:   9    -0.650867074992E+03   -0.49753E-07   -0.53475E-06  8049   0.206E-03
   9 F= -.65086707E+03 E0= -.65086587E+03  d E =-.107055E-02
       N       E                     dE             d eps       ncg     rms          rms(c)
DAV:   1    -0.650867032258E+03    0.42684E-04   -0.15550E-02 11888   0.247E-01    0.216E-02
RMM:   2    -0.650867080211E+03   -0.47952E-04   -0.49198E-04 10477   0.427E-02    0.140E-02
RMM:   3    -0.650867086010E+03   -0.57989E-05   -0.73064E-05 13578   0.164E-02    0.129E-02
RMM:   4    -0.650867086627E+03   -0.61734E-06   -0.30965E-05 13187   0.752E-03    0.917E-03
RMM:   5    -0.650867086763E+03   -0.13573E-06   -0.10398E-05 10112   0.413E-03    0.639E-03
RMM:   6    -0.650867086675E+03    0.87544E-07   -0.41651E-06  7886   0.233E-03
  10 F= -.65086709E+03 E0= -.65086588E+03  d E =-.108223E-02
       N       E                     dE             d eps       ncg     rms          rms(c)
DAV:   1    -0.650866132510E+03    0.95425E-03   -0.37951E-01 10752   0.121E+00    0.941E-02
RMM:   2    -0.650867292712E+03   -0.11602E-02   -0.12060E-02 10532   0.213E-01    0.527E-02
RMM:   3    -0.650867428604E+03   -0.13589E-03   -0.16855E-03 13803   0.836E-02    0.467E-02
RMM:   4    -0.650867450044E+03   -0.21440E-04   -0.54899E-04 15291   0.306E-02    0.327E-02
RMM:   5    -0.650867459977E+03   -0.99332E-05   -0.13528E-04 14135   0.126E-02    0.250E-02
RMM:   6    -0.650867461036E+03   -0.10588E-05   -0.72744E-05 12973   0.737E-03    0.162E-02
RMM:   7    -0.650867464418E+03   -0.33813E-05   -0.34965E-05 12252   0.568E-03    0.110E-02
RMM:   8    -0.650867463739E+03    0.67902E-06   -0.18430E-05 10810   0.381E-03    0.610E-03
RMM:   9    -0.650867463920E+03   -0.18119E-06   -0.88467E-06  8911   0.247E-03
  11 F= -.65086746E+03 E0= -.65086623E+03  d E =-.377245E-03
       N       E                     dE             d eps       ncg     rms          rms(c)
DAV:   1    -0.650867211412E+03    0.25233E-03   -0.94746E-02 10800   0.607E-01    0.472E-02
RMM:   2    -0.650867501555E+03   -0.29014E-03   -0.30226E-03 10518   0.106E-01    0.259E-02
RMM:   3    -0.650867535224E+03   -0.33669E-04   -0.43709E-04 13806   0.418E-02    0.212E-02
RMM:   4    -0.650867545857E+03   -0.10633E-04   -0.15141E-04 14716   0.153E-02    0.182E-02
RMM:   5    -0.650867547010E+03   -0.11533E-05   -0.38601E-05 12530   0.678E-03    0.119E-02
RMM:   6    -0.650867548226E+03   -0.12160E-05   -0.23305E-05 10964   0.386E-03    0.824E-03
RMM:   7    -0.650867549509E+03   -0.12826E-05   -0.97376E-06  9707   0.303E-03    0.680E-03
RMM:   8    -0.650867549096E+03    0.41303E-06   -0.51443E-06  8130   0.224E-03
  12 F= -.65086755E+03 E0= -.65086630E+03  d E =-.462421E-03
       N       E                     dE             d eps       ncg     rms          rms(c)
DAV:   1    -0.650866189518E+03    0.13600E-02   -0.37887E-01 10720   0.121E+00    0.939E-02
RMM:   2    -0.650867345866E+03   -0.11563E-02   -0.12050E-02 10532   0.213E-01    0.515E-02
RMM:   3    -0.650867471703E+03   -0.12584E-03   -0.16923E-03 13858   0.833E-02    0.396E-02
RMM:   4    -0.650867512643E+03   -0.40940E-04   -0.55495E-04 15240   0.301E-02    0.345E-02
RMM:   5    -0.650867517141E+03   -0.44975E-05   -0.13381E-04 14250   0.125E-02    0.237E-02
RMM:   6    -0.650867520336E+03   -0.31950E-05   -0.80019E-05 12963   0.719E-03    0.162E-02
RMM:   7    -0.650867522965E+03   -0.26295E-05   -0.33668E-05 12085   0.554E-03    0.970E-03
RMM:   8    -0.650867522452E+03    0.51336E-06   -0.17202E-05 10728   0.365E-03    0.444E-03
RMM:   9    -0.650867523042E+03   -0.58986E-06   -0.87502E-06  8736   0.239E-03
  13 F= -.65086752E+03 E0= -.65086624E+03  d E =-.436367E-03
       N       E                     dE             d eps       ncg     rms          rms(c)
DAV:   1    -0.650866994877E+03    0.52758E-03   -0.16673E-01 10720   0.805E-01    0.620E-02
RMM:   2    -0.650867501500E+03   -0.50662E-03   -0.52799E-03 10516   0.141E-01    0.341E-02
RMM:   3    -0.650867554021E+03   -0.52521E-04   -0.70674E-04 13429   0.551E-02    0.274E-02
RMM:   4    -0.650867567555E+03   -0.13535E-04   -0.22555E-04 15090   0.204E-02    0.223E-02
RMM:   5    -0.650867569736E+03   -0.21807E-05   -0.51610E-05 13291   0.810E-03    0.161E-02
RMM:   6    -0.650867569934E+03   -0.19807E-06   -0.27623E-05 11455   0.471E-03    0.107E-02
RMM:   7    -0.650867571267E+03   -0.13334E-05   -0.13449E-05 10856   0.373E-03    0.736E-03
RMM:   8    -0.650867570832E+03    0.43510E-06   -0.65967E-06  8859   0.257E-03
  14 F= -.65086757E+03 E0= -.65086631E+03  d E =-.484157E-03
       N       E                     dE             d eps       ncg     rms          rms(c)
DAV:   1    -0.650866748130E+03    0.82314E-03   -0.29397E-01 10768   0.106E+00    0.950E-02
RMM:   2    -0.650867683058E+03   -0.93493E-03   -0.93493E-03 10543   0.186E-01    0.714E-02
RMM:   3    -0.650867761406E+03   -0.78348E-04   -0.14081E-03 13592   0.757E-02    0.507E-02
RMM:   4    -0.650867750427E+03    0.10979E-04   -0.41798E-04 15326   0.301E-02    0.318E-02
RMM:   5    -0.650867759065E+03   -0.86376E-05   -0.10895E-04 14214   0.119E-02    0.280E-02
RMM:   6    -0.650867753211E+03    0.58540E-05   -0.47476E-05 12696   0.651E-03    0.140E-02
RMM:   7    -0.650867756318E+03   -0.31076E-05   -0.31475E-05 11966   0.489E-03    0.118E-02
RMM:   8    -0.650867755304E+03    0.10145E-05   -0.13040E-05 10891   0.357E-03    0.639E-03
RMM:   9    -0.650867755178E+03    0.12535E-06   -0.65651E-06  8901   0.231E-03
  15 F= -.65086776E+03 E0= -.65086647E+03  d E =-.184346E-03
       N       E                     dE             d eps       ncg     rms          rms(c)
DAV:   1    -0.650867727344E+03    0.27960E-04   -0.10295E-02 11088   0.198E-01    0.178E-02
RMM:   2    -0.650867760903E+03   -0.33559E-04   -0.33338E-04 10468   0.349E-02    0.141E-02
RMM:   3    -0.650867764131E+03   -0.32279E-05   -0.55380E-05 13350   0.144E-02    0.108E-02
RMM:   4    -0.650867764341E+03   -0.21036E-06   -0.20644E-05 12427   0.615E-03    0.742E-03
RMM:   5    -0.650867764454E+03   -0.11273E-06   -0.67158E-06  9101   0.357E-03
  16 F= -.65086776E+03 E0= -.65086647E+03  d E =-.193621E-03
       N       E                     dE             d eps       ncg     rms          rms(c)
DAV:   1    -0.650867464357E+03    0.29998E-03   -0.97806E-02 10880   0.606E-01    0.501E-02
RMM:   2    -0.650867784350E+03   -0.31999E-03   -0.33439E-03 10538   0.109E-01    0.333E-02
RMM:   3    -0.650867828503E+03   -0.44152E-04   -0.55796E-04 13657   0.472E-02    0.237E-02
RMM:   4    -0.650867838950E+03   -0.10447E-04   -0.16168E-04 14670   0.166E-02    0.208E-02
RMM:   5    -0.650867838412E+03    0.53838E-06   -0.42933E-05 12946   0.775E-03    0.130E-02
RMM:   6    -0.650867841339E+03   -0.29269E-05   -0.25405E-05 11539   0.438E-03    0.119E-02
RMM:   7    -0.650867840873E+03    0.46565E-06   -0.10942E-05 10581   0.334E-03    0.623E-03
RMM:   8    -0.650867840573E+03    0.29978E-06   -0.57253E-06  9011   0.231E-03
  17 F= -.65086784E+03 E0= -.65086657E+03  d E =-.761195E-04
       N       E                     dE             d eps       ncg     rms          rms(c)
DAV:   1    -0.650867836919E+03    0.39534E-05   -0.22642E-03 12072   0.921E-02    0.820E-03
RMM:   2    -0.650867845553E+03   -0.86336E-05   -0.81524E-05 10430   0.169E-02    0.881E-03
RMM:   3    -0.650867845955E+03   -0.40169E-06   -0.16076E-05 11679   0.739E-03    0.554E-03
RMM:   4    -0.650867846100E+03   -0.14517E-06   -0.61571E-06  8754   0.333E-03
  18 F= -.65086785E+03 E0= -.65086657E+03  d E =-.816464E-04
       N       E                     dE             d eps       ncg     rms          rms(c)
DAV:   1    -0.650867747255E+03    0.98699E-04   -0.29140E-02 10800   0.301E-01    0.303E-02
RMM:   2    -0.650867860571E+03   -0.11332E-03   -0.11300E-03 10616   0.557E-02    0.245E-02
RMM:   3    -0.650867870554E+03   -0.99826E-05   -0.17717E-04 13132   0.238E-02    0.188E-02
RMM:   4    -0.650867871078E+03   -0.52396E-06   -0.52375E-05 13622   0.913E-03    0.121E-02
RMM:   5    -0.650867871496E+03   -0.41761E-06   -0.18292E-05 11392   0.526E-03    0.918E-03
RMM:   6    -0.650867871730E+03   -0.23478E-06   -0.85831E-06  9707   0.339E-03
  19 F= -.65086787E+03 E0= -.65086661E+03  d E =-.256303E-04
