Generated by VASPKIT code
 1.000000
    9.4983997344999995    0.0000000000000000    0.0000000000000000
    0.0000000000000000    9.4983997344999995    0.0000000000000000
    0.0000000000000000    0.0000000000000000   24.5028991699000009
   Mo   Nb
    61     2
Selective Dynamics
Direct
    0.0000000000000000    0.0000000000000000    0.0000000000000000    F  F  F            Mo1
    0.0201626400000000    0.9789535310000000    0.3832296520000000    T  T  T            Mo2
    0.1666700000000000    0.1666700000000000    0.0646400000000000    F  F  F            Mo3
    0.3333300000000000    0.0000000000000000    0.0000000000000000    F  F  F            Mo4
    0.3128361030000000    0.0205497800000000    0.3832035200000000    T  T  T            Mo5
    0.5000000000000000    0.1666700000000000    0.0646400000000000    F  F  F            Mo6
    0.6666700000000000    0.0000000000000000    0.0000000000000000    F  F  F            Mo7
    0.6671121660000000    0.0004358440000000    0.3809758530000000    T  T  T            Mo8
    0.8333300000000000    0.1666700000000000    0.0646400000000000    F  F  F            Mo9
    0.0000000000000000    0.3333300000000000    0.0000000000000000    F  F  F           Mo10
    0.1666700000000000    0.5000000000000000    0.0646400000000000    F  F  F           Mo11
    0.3333300000000000    0.3333300000000000    0.0000000000000000    F  F  F           Mo12
    0.3542834760000000    0.3122900890000000    0.3828480470000000    T  T  T           Mo13
    0.5000000000000000    0.5000000000000000    0.0646400000000000    F  F  F           Mo14
    0.6666700000000000    0.3333300000000000    0.0000000000000000    F  F  F           Mo15
    0.8333300000000000    0.5000000000000000    0.0646400000000000    F  F  F           Mo16
    0.0000000000000000    0.6666700000000000    0.0000000000000000    F  F  F           Mo17
    0.9789448460000000    0.6876031070000000    0.3828534400000000    T  T  T           Mo18
    0.1666700000000000    0.8333300000000000    0.0646400000000000    F  F  F           Mo19
    0.3333300000000000    0.6666700000000000    0.0000000000000000    F  F  F           Mo20
    0.5000000000000000    0.8333300000000000    0.0646400000000000    F  F  F           Mo21
    0.6666700000000000    0.6666700000000000    0.0000000000000000    F  F  F           Mo22
    0.6871947670000000    0.6461738430000000    0.3832013680000000    T  T  T           Mo23
    0.8333300000000000    0.8333300000000000    0.0646400000000000    F  F  F           Mo24
    0.0000000000000000    0.0000000000000000    0.1292800000000000    F  F  F           Mo25
    0.1666700000000000    0.1666700000000000    0.1939100000000000    F  F  F           Mo26
    0.3333300000000000    0.0000000000000000    0.1292800000000000    F  F  F           Mo27
    0.5000000000000000    0.1666700000000000    0.1939100000000000    F  F  F           Mo28
    0.6666700000000000    0.0000000000000000    0.1292800000000000    F  F  F           Mo29
    0.8333300000000000    0.1666700000000000    0.1939100000000000    F  F  F           Mo30
    0.0000000000000000    0.3333300000000000    0.1292800000000000    F  F  F           Mo31
    0.1666700000000000    0.5000000000000000    0.1939100000000000    F  F  F           Mo32
    0.3333300000000000    0.3333300000000000    0.1292800000000000    F  F  F           Mo33
    0.5000000000000000    0.5000000000000000    0.1939100000000000    F  F  F           Mo34
    0.6666700000000000    0.3333300000000000    0.1292800000000000    F  F  F           Mo35
    0.8333300000000000    0.5000000000000000    0.1939100000000000    F  F  F           Mo36
    0.0000000000000000    0.6666700000000000    0.1292800000000000    F  F  F           Mo37
    0.1666700000000000    0.8333300000000000    0.1939100000000000    F  F  F           Mo38
    0.3333300000000000    0.6666700000000000    0.1292800000000000    F  F  F           Mo39
    0.5000000000000000    0.8333300000000000    0.1939100000000000    F  F  F           Mo40
    0.6666700000000000    0.6666700000000000    0.1292800000000000    F  F  F           Mo41
    0.8333300000000000    0.8333300000000000    0.1939100000000000    F  F  F           Mo42
    0.0000000000000000    0.0000000000000000    0.2585500000000000    F  F  F           Mo43
    0.1641810130000000    0.1688518700000000    0.3229513790000000    T  T  T           Mo44
    0.3333300000000000    0.0000000000000000    0.2585500000000000    F  F  F           Mo45
    0.5034524710000000    0.1631729150000000    0.3235815720000000    T  T  T           Mo46
    0.6666700000000000    0.0000000000000000    0.2585500000000000    F  F  F           Mo47
    0.8325585280000000    0.1658895680000000    0.3246153250000000    T  T  T           Mo48
    0.0000000000000000    0.3333300000000000    0.2585500000000000    F  F  F           Mo49
    0.1666686930000000    0.5000062790000001    0.3237155170000000    T  T  T           Mo50
    0.3333300000000000    0.3333300000000000    0.2585500000000000    F  F  F           Mo51
    0.4977231240000000    0.5024455740000000    0.3229275610000000    T  T  T           Mo52
    0.6666700000000000    0.3333300000000000    0.2585500000000000    F  F  F           Mo53
    0.8355170280000001    0.4975189470000000    0.3229507140000000    T  T  T           Mo54
    0.0000000000000000    0.6666700000000000    0.2585500000000000    F  F  F           Mo55
    0.1691079100000000    0.8310664440000000    0.3229282510000000    T  T  T           Mo56
    0.3333300000000000    0.6666700000000000    0.2585500000000000    F  F  F           Mo57
    0.5008276200000000    0.8341515380000000    0.3246430070000000    T  T  T           Mo58
    0.6666700000000000    0.6666700000000000    0.2585500000000000    F  F  F           Mo59
    0.8298439490000000    0.8367880910000000    0.3235812010000000    T  T  T           Mo60
    0.0005407430000000    0.3338729920000000    0.3851130670000000    T  T  T           Mo61
    0.6456335730000000    0.3535208680000000    0.3832277850000000    T  T  T            Nb1
    0.3330706440000000    0.6664278740000000    0.3851195220000000    T  T  T            Nb2
