ni3al                                   
           1
     9.498400    0.000000    0.000000
     0.000000    9.498400    0.000000
     0.000000    0.000000   24.502899
   Mo   Nb
    61     2
Direct configuration=     1
   0.00000000  0.00000000  0.00000000
   0.02016264  0.97895353  0.38322965
   0.16667000  0.16667000  0.06464000
   0.33333000  0.00000000  0.00000000
   0.31283610  0.02054978  0.38320352
   0.50000000  0.16667000  0.06464000
   0.66667000  0.00000000  0.00000000
   0.66711217  0.00043584  0.38097585
   0.83333000  0.16667000  0.06464000
   0.00000000  0.33333000  0.00000000
   0.16667000  0.50000000  0.06464000
   0.33333000  0.33333000  0.00000000
   0.35428348  0.31229009  0.38284805
   0.50000000  0.50000000  0.06464000
   0.66667000  0.33333000  0.00000000
   0.83333000  0.50000000  0.06464000
   0.00000000  0.66667000  0.00000000
   0.97894485  0.68760311  0.38285344
   0.16667000  0.83333000  0.06464000
   0.33333000  0.66667000  0.00000000
   0.50000000  0.83333000  0.06464000
   0.66667000  0.66667000  0.00000000
   0.68719477  0.64617384  0.38320137
   0.83333000  0.83333000  0.06464000
   0.00000000  0.00000000  0.12928000
   0.16667000  0.16667000  0.19391000
   0.33333000  0.00000000  0.12928000
   0.50000000  0.16667000  0.19391000
   0.66667000  0.00000000  0.12928000
   0.83333000  0.16667000  0.19391000
   0.00000000  0.33333000  0.12928000
   0.16667000  0.50000000  0.19391000
   0.33333000  0.33333000  0.12928000
   0.50000000  0.50000000  0.19391000
   0.66667000  0.33333000  0.12928000
   0.83333000  0.50000000  0.19391000
   0.00000000  0.66667000  0.12928000
   0.16667000  0.83333000  0.19391000
   0.33333000  0.66667000  0.12928000
   0.50000000  0.83333000  0.19391000
   0.66667000  0.66667000  0.12928000
   0.83333000  0.83333000  0.19391000
   0.00000000  0.00000000  0.25855000
   0.16418101  0.16885187  0.32295138
   0.33333000  0.00000000  0.25855000
   0.50345247  0.16317291  0.32358157
   0.66667000  0.00000000  0.25855000
   0.83255853  0.16588957  0.32461533
   0.00000000  0.33333000  0.25855000
   0.16666869  0.50000628  0.32371552
   0.33333000  0.33333000  0.25855000
   0.49772312  0.50244557  0.32292756
   0.66667000  0.33333000  0.25855000
   0.83551703  0.49751895  0.32295071
   0.00000000  0.66667000  0.25855000
   0.16910791  0.83106644  0.32292825
   0.33333000  0.66667000  0.25855000
   0.50082762  0.83415154  0.32464301
   0.66667000  0.66667000  0.25855000
   0.82984395  0.83678809  0.32358120
   0.00054074  0.33387299  0.38511307
   0.64563357  0.35352087  0.38322779
   0.33307064  0.66642787  0.38511952
Direct configuration=     2
   0.00000000  0.00000000  0.00000000
   0.02029813  0.97933804  0.38335341
   0.16667000  0.16667000  0.06464000
   0.33333000  0.00000000  0.00000000
   0.31252198  0.02031357  0.38313974
   0.50000000  0.16667000  0.06464000
   0.66667000  0.00000000  0.00000000
   0.66761373  0.00022304  0.38080303
   0.83333000  0.16667000  0.06464000
   0.00000000  0.33333000  0.00000000
   0.16667000  0.50000000  0.06464000
   0.33333000  0.33333000  0.00000000
   0.35185118  0.31207427  0.38268518
   0.50000000  0.50000000  0.06464000
   0.66667000  0.33333000  0.00000000
   0.83333000  0.50000000  0.06464000
   0.00000000  0.66667000  0.00000000
   0.97947911  0.68714559  0.38299901
   0.16667000  0.83333000  0.06464000
   0.33333000  0.66667000  0.00000000
   0.50000000  0.83333000  0.06464000
   0.66667000  0.66667000  0.00000000
   0.68764229  0.64780391  0.38284739
   0.83333000  0.83333000  0.06464000
   0.00000000  0.00000000  0.12928000
   0.16667000  0.16667000  0.19391000
   0.33333000  0.00000000  0.12928000
   0.50000000  0.16667000  0.19391000
   0.66667000  0.00000000  0.12928000
   0.83333000  0.16667000  0.19391000
   0.00000000  0.33333000  0.12928000
   0.16667000  0.50000000  0.19391000
   0.33333000  0.33333000  0.12928000
   0.50000000  0.50000000  0.19391000
   0.66667000  0.33333000  0.12928000
   0.83333000  0.50000000  0.19391000
   0.00000000  0.66667000  0.12928000
   0.16667000  0.83333000  0.19391000
   0.33333000  0.66667000  0.12928000
   0.50000000  0.83333000  0.19391000
   0.66667000  0.66667000  0.12928000
   0.83333000  0.83333000  0.19391000
   0.00000000  0.00000000  0.25855000
   0.16307140  0.16990101  0.32388788
   0.33333000  0.00000000  0.25855000
   0.50247240  0.16269798  0.32302554
   0.66667000  0.00000000  0.25855000
   0.83412003  0.16659137  0.32513837
   0.00000000  0.33333000  0.25855000
   0.16524640  0.49914965  0.32459145
   0.33333000  0.33333000  0.25855000
   0.49596243  0.50401531  0.32180231
   0.66667000  0.33333000  0.25855000
   0.83717465  0.49738145  0.32334340
   0.00000000  0.66667000  0.25855000
   0.16890611  0.83107493  0.32283346
   0.33333000  0.66667000  0.25855000
   0.50049708  0.83437328  0.32466777
   0.66667000  0.66667000  0.25855000
   0.82998568  0.83688273  0.32359241
   0.00084421  0.33354714  0.38233946
   0.64844404  0.35144401  0.38581444
   0.33276838  0.66652855  0.38511178
Direct configuration=     3
   0.00000000  0.00000000  0.00000000
   0.02032989  0.97942817  0.38338241
   0.16667000  0.16667000  0.06464000
   0.33333000  0.00000000  0.00000000
   0.31244836  0.02025821  0.38312479
   0.50000000  0.16667000  0.06464000
   0.66667000  0.00000000  0.00000000
   0.66773129  0.00017317  0.38076252
   0.83333000  0.16667000  0.06464000
   0.00000000  0.33333000  0.00000000
   0.16667000  0.50000000  0.06464000
   0.33333000  0.33333000  0.00000000
   0.35128110  0.31202369  0.38264701
   0.50000000  0.50000000  0.06464000
   0.66667000  0.33333000  0.00000000
   0.83333000  0.50000000  0.06464000
   0.00000000  0.66667000  0.00000000
   0.97960433  0.68703836  0.38303313
   0.16667000  0.83333000  0.06464000
   0.33333000  0.66667000  0.00000000
   0.50000000  0.83333000  0.06464000
   0.66667000  0.66667000  0.00000000
   0.68774719  0.64818597  0.38276443
   0.83333000  0.83333000  0.06464000
   0.00000000  0.00000000  0.12928000
   0.16667000  0.16667000  0.19391000
   0.33333000  0.00000000  0.12928000
   0.50000000  0.16667000  0.19391000
   0.66667000  0.00000000  0.12928000
   0.83333000  0.16667000  0.19391000
   0.00000000  0.33333000  0.12928000
   0.16667000  0.50000000  0.19391000
   0.33333000  0.33333000  0.12928000
   0.50000000  0.50000000  0.19391000
   0.66667000  0.33333000  0.12928000
   0.83333000  0.50000000  0.19391000
   0.00000000  0.66667000  0.12928000
   0.16667000  0.83333000  0.19391000
   0.33333000  0.66667000  0.12928000
   0.50000000  0.83333000  0.19391000
   0.66667000  0.66667000  0.12928000
   0.83333000  0.83333000  0.19391000
   0.00000000  0.00000000  0.25855000
   0.16281133  0.17014691  0.32410738
   0.33333000  0.00000000  0.25855000
   0.50224270  0.16258667  0.32289522
   0.66667000  0.00000000  0.25855000
   0.83448601  0.16675586  0.32526096
   0.00000000  0.33333000  0.25855000
   0.16491305  0.49894887  0.32479675
   0.33333000  0.33333000  0.25855000
   0.49554976  0.50438322  0.32153858
   0.66667000  0.33333000  0.25855000
   0.83756317  0.49734923  0.32343544
   0.00000000  0.66667000  0.25855000
   0.16885881  0.83107692  0.32281125
   0.33333000  0.66667000  0.25855000
   0.50041961  0.83442525  0.32467357
   0.66667000  0.66667000  0.25855000
   0.83001890  0.83690492  0.32359504
   0.00091534  0.33347076  0.38168939
   0.64910275  0.35095724  0.38642070
   0.33269753  0.66655215  0.38510997
Direct configuration=     4
   0.00000000  0.00000000  0.00000000
   0.02040486  0.97928597  0.38356175
   0.16667000  0.16667000  0.06464000
   0.33333000  0.00000000  0.00000000
   0.31264622  0.01994550  0.38317224
   0.50000000  0.16667000  0.06464000
   0.66667000  0.00000000  0.00000000
   0.66770675  0.00021504  0.38066357
   0.83333000  0.16667000  0.06464000
   0.00000000  0.33333000  0.00000000
   0.16667000  0.50000000  0.06464000
   0.33333000  0.33333000  0.00000000
   0.35071336  0.31198572  0.38242863
   0.50000000  0.50000000  0.06464000
   0.66667000  0.33333000  0.00000000
   0.83333000  0.50000000  0.06464000
   0.00000000  0.66667000  0.00000000
   0.97987894  0.68698391  0.38315422
   0.16667000  0.83333000  0.06464000
   0.33333000  0.66667000  0.00000000
   0.50000000  0.83333000  0.06464000
   0.66667000  0.66667000  0.00000000
   0.68777624  0.64887801  0.38246021
   0.83333000  0.83333000  0.06464000
   0.00000000  0.00000000  0.12928000
   0.16667000  0.16667000  0.19391000
   0.33333000  0.00000000  0.12928000
   0.50000000  0.16667000  0.19391000
   0.66667000  0.00000000  0.12928000
   0.83333000  0.16667000  0.19391000
   0.00000000  0.33333000  0.12928000
   0.16667000  0.50000000  0.19391000
   0.33333000  0.33333000  0.12928000
   0.50000000  0.50000000  0.19391000
   0.66667000  0.33333000  0.12928000
   0.83333000  0.50000000  0.19391000
   0.00000000  0.66667000  0.12928000
   0.16667000  0.83333000  0.19391000
   0.33333000  0.66667000  0.12928000
   0.50000000  0.83333000  0.19391000
   0.66667000  0.66667000  0.12928000
   0.83333000  0.83333000  0.19391000
   0.00000000  0.00000000  0.25855000
   0.16280072  0.17004105  0.32391869
   0.33333000  0.00000000  0.25855000
   0.50220508  0.16352645  0.32311611
   0.66667000  0.00000000  0.25855000
   0.83398025  0.16692317  0.32523638
   0.00000000  0.33333000  0.25855000
   0.16495102  0.49927442  0.32480519
   0.33333000  0.33333000  0.25855000
   0.49671401  0.50313751  0.32214394
   0.66667000  0.33333000  0.25855000
   0.83667519  0.49749909  0.32345316
   0.00000000  0.66667000  0.25855000
   0.16876530  0.83109875  0.32278220
   0.33333000  0.66667000  0.25855000
   0.50028380  0.83459552  0.32465471
   0.66667000  0.66667000  0.25855000
   0.83017631  0.83690735  0.32357771
   0.00081202  0.33337823  0.38109261
   0.64925259  0.35070627  0.38709804
   0.33279219  0.66657927  0.38501904
Direct configuration=     5
   0.00000000  0.00000000  0.00000000
   0.02046801  0.97916620  0.38371280
   0.16667000  0.16667000  0.06464000
   0.33333000  0.00000000  0.00000000
   0.31281287  0.01968213  0.38321221
   0.50000000  0.16667000  0.06464000
   0.66667000  0.00000000  0.00000000
   0.66768609  0.00025031  0.38058024
   0.83333000  0.16667000  0.06464000
   0.00000000  0.33333000  0.00000000
   0.16667000  0.50000000  0.06464000
   0.33333000  0.33333000  0.00000000
   0.35023520  0.31195375  0.38224471
   0.50000000  0.50000000  0.06464000
   0.66667000  0.33333000  0.00000000
   0.83333000  0.50000000  0.06464000
   0.00000000  0.66667000  0.00000000
   0.98011022  0.68693805  0.38325620
   0.16667000  0.83333000  0.06464000
   0.33333000  0.66667000  0.00000000
   0.50000000  0.83333000  0.06464000
   0.66667000  0.66667000  0.00000000
   0.68780071  0.64946086  0.38220400
   0.83333000  0.83333000  0.06464000
   0.00000000  0.00000000  0.12928000
   0.16667000  0.16667000  0.19391000
   0.33333000  0.00000000  0.12928000
   0.50000000  0.16667000  0.19391000
   0.66667000  0.00000000  0.12928000
   0.83333000  0.16667000  0.19391000
   0.00000000  0.33333000  0.12928000
   0.16667000  0.50000000  0.19391000
   0.33333000  0.33333000  0.12928000
   0.50000000  0.50000000  0.19391000
   0.66667000  0.33333000  0.12928000
   0.83333000  0.50000000  0.19391000
   0.00000000  0.66667000  0.12928000
   0.16667000  0.83333000  0.19391000
   0.33333000  0.66667000  0.12928000
   0.50000000  0.83333000  0.19391000
   0.66667000  0.66667000  0.12928000
   0.83333000  0.83333000  0.19391000
   0.00000000  0.00000000  0.25855000
   0.16279179  0.16995188  0.32375978
   0.33333000  0.00000000  0.25855000
   0.50217340  0.16431795  0.32330215
   0.66667000  0.00000000  0.25855000
   0.83355429  0.16706408  0.32521568
   0.00000000  0.33333000  0.25855000
   0.16498299  0.49954860  0.32481230
   0.33333000  0.33333000  0.25855000
   0.49769455  0.50208835  0.32265379
   0.66667000  0.33333000  0.25855000
   0.83592733  0.49762530  0.32346809
   0.00000000  0.66667000  0.25855000
   0.16868655  0.83111713  0.32275774
   0.33333000  0.66667000  0.25855000
   0.50016942  0.83473893  0.32463883
   0.66667000  0.66667000  0.25855000
   0.83030888  0.83690940  0.32356312
   0.00072500  0.33330029  0.38059000
   0.64937879  0.35049491  0.38766851
   0.33287191  0.66660211  0.38494247
Direct configuration=     6
   0.00000000  0.00000000  0.00000000
   0.02068966  0.97885784  0.38375142
   0.16667000  0.16667000  0.06464000
   0.33333000  0.00000000  0.00000000
   0.31280305  0.01940599  0.38315205
   0.50000000  0.16667000  0.06464000
   0.66667000  0.00000000  0.00000000
   0.66762755  0.00040540  0.38062522
   0.83333000  0.16667000  0.06464000
   0.00000000  0.33333000  0.00000000
   0.16667000  0.50000000  0.06464000
   0.33333000  0.33333000  0.00000000
   0.34949076  0.31206837  0.38237354
   0.50000000  0.50000000  0.06464000
   0.66667000  0.33333000  0.00000000
   0.83333000  0.50000000  0.06464000
   0.00000000  0.66667000  0.00000000
   0.98034467  0.68709995  0.38323118
   0.16667000  0.83333000  0.06464000
   0.33333000  0.66667000  0.00000000
   0.50000000  0.83333000  0.06464000
   0.66667000  0.66667000  0.00000000
   0.68765892  0.65036374  0.38229564
   0.83333000  0.83333000  0.06464000
   0.00000000  0.00000000  0.12928000
   0.16667000  0.16667000  0.19391000
   0.33333000  0.00000000  0.12928000
   0.50000000  0.16667000  0.19391000
   0.66667000  0.00000000  0.12928000
   0.83333000  0.16667000  0.19391000
   0.00000000  0.33333000  0.12928000
   0.16667000  0.50000000  0.19391000
   0.33333000  0.33333000  0.12928000
   0.50000000  0.50000000  0.19391000
   0.66667000  0.33333000  0.12928000
   0.83333000  0.50000000  0.19391000
   0.00000000  0.66667000  0.12928000
   0.16667000  0.83333000  0.19391000
   0.33333000  0.66667000  0.12928000
   0.50000000  0.83333000  0.19391000
   0.66667000  0.66667000  0.12928000
   0.83333000  0.83333000  0.19391000
   0.00000000  0.00000000  0.25855000
   0.16293911  0.16937962  0.32350952
   0.33333000  0.00000000  0.25855000
   0.50240909  0.16419360  0.32337004
   0.66667000  0.00000000  0.25855000
   0.83307783  0.16695787  0.32504915
   0.00000000  0.33333000  0.25855000
   0.16530587  0.49994046  0.32452228
   0.33333000  0.33333000  0.25855000
   0.49787332  0.50198873  0.32279589
   0.66667000  0.33333000  0.25855000
   0.83579115  0.49761953  0.32333661
   0.00000000  0.66667000  0.25855000
   0.16861589  0.83125522  0.32279845
   0.33333000  0.66667000  0.25855000
   0.50007304  0.83471938  0.32450941
   0.66667000  0.66667000  0.25855000
   0.83060743  0.83700943  0.32351513
   0.00041573  0.33321446  0.38067618
   0.64961753  0.35014484  0.38808574
   0.33289322  0.66679145  0.38496856
Direct configuration=     7
   0.00000000  0.00000000  0.00000000
   0.02073639  0.97879283  0.38375956
   0.16667000  0.16667000  0.06464000
   0.33333000  0.00000000  0.00000000
   0.31280098  0.01934777  0.38313937
   0.50000000  0.16667000  0.06464000
   0.66667000  0.00000000  0.00000000
   0.66761521  0.00043810  0.38063470
   0.83333000  0.16667000  0.06464000
   0.00000000  0.33333000  0.00000000
   0.16667000  0.50000000  0.06464000
   0.33333000  0.33333000  0.00000000
   0.34933381  0.31209254  0.38240070
   0.50000000  0.50000000  0.06464000
   0.66667000  0.33333000  0.00000000
   0.83333000  0.50000000  0.06464000
   0.00000000  0.66667000  0.00000000
   0.98039409  0.68713409  0.38322591
   0.16667000  0.83333000  0.06464000
   0.33333000  0.66667000  0.00000000
   0.50000000  0.83333000  0.06464000
   0.66667000  0.66667000  0.00000000
   0.68762903  0.65055410  0.38231496
   0.83333000  0.83333000  0.06464000
   0.00000000  0.00000000  0.12928000
   0.16667000  0.16667000  0.19391000
   0.33333000  0.00000000  0.12928000
   0.50000000  0.16667000  0.19391000
   0.66667000  0.00000000  0.12928000
   0.83333000  0.16667000  0.19391000
   0.00000000  0.33333000  0.12928000
   0.16667000  0.50000000  0.19391000
   0.33333000  0.33333000  0.12928000
   0.50000000  0.50000000  0.19391000
   0.66667000  0.33333000  0.12928000
   0.83333000  0.50000000  0.19391000
   0.00000000  0.66667000  0.12928000
   0.16667000  0.83333000  0.19391000
   0.33333000  0.66667000  0.12928000
   0.50000000  0.83333000  0.19391000
   0.66667000  0.66667000  0.12928000
   0.83333000  0.83333000  0.19391000
   0.00000000  0.00000000  0.25855000
   0.16297017  0.16925897  0.32345675
   0.33333000  0.00000000  0.25855000
   0.50245878  0.16416738  0.32338435
   0.66667000  0.00000000  0.25855000
   0.83297738  0.16693548  0.32501404
   0.00000000  0.33333000  0.25855000
   0.16537394  0.50002308  0.32446113
   0.33333000  0.33333000  0.25855000
   0.49791101  0.50196773  0.32282585
   0.66667000  0.33333000  0.25855000
   0.83576244  0.49761831  0.32330888
   0.00000000  0.66667000  0.25855000
   0.16860099  0.83128433  0.32280704
   0.33333000  0.66667000  0.25855000
   0.50005272  0.83471526  0.32448212
   0.66667000  0.66667000  0.25855000
   0.83067037  0.83703052  0.32350501
   0.00035052  0.33319637  0.38069434
   0.64966786  0.35007104  0.38817371
   0.33289771  0.66683137  0.38497406
Direct configuration=     8
   0.00000000  0.00000000  0.00000000
   0.02086862  0.97868123  0.38377188
   0.16667000  0.16667000  0.06464000
   0.33333000  0.00000000  0.00000000
   0.31274393  0.01930076  0.38309192
   0.50000000  0.16667000  0.06464000
   0.66667000  0.00000000  0.00000000
   0.66757922  0.00061138  0.38064627
   0.83333000  0.16667000  0.06464000
   0.00000000  0.33333000  0.00000000
   0.16667000  0.50000000  0.06464000
   0.33333000  0.33333000  0.00000000
   0.34894771  0.31199173  0.38241939
   0.50000000  0.50000000  0.06464000
   0.66667000  0.33333000  0.00000000
   0.83333000  0.50000000  0.06464000
   0.00000000  0.66667000  0.00000000
   0.98044620  0.68719940  0.38315688
   0.16667000  0.83333000  0.06464000
   0.33333000  0.66667000  0.00000000
   0.50000000  0.83333000  0.06464000
   0.66667000  0.66667000  0.00000000
   0.68771498  0.65096167  0.38236119
   0.83333000  0.83333000  0.06464000
   0.00000000  0.00000000  0.12928000
   0.16667000  0.16667000  0.19391000
   0.33333000  0.00000000  0.12928000
   0.50000000  0.16667000  0.19391000
   0.66667000  0.00000000  0.12928000
   0.83333000  0.16667000  0.19391000
   0.00000000  0.33333000  0.12928000
   0.16667000  0.50000000  0.19391000
   0.33333000  0.33333000  0.12928000
   0.50000000  0.50000000  0.19391000
   0.66667000  0.33333000  0.12928000
   0.83333000  0.50000000  0.19391000
   0.00000000  0.66667000  0.12928000
   0.16667000  0.83333000  0.19391000
   0.33333000  0.66667000  0.12928000
   0.50000000  0.83333000  0.19391000
   0.66667000  0.66667000  0.12928000
   0.83333000  0.83333000  0.19391000
   0.00000000  0.00000000  0.25855000
   0.16296604  0.16924041  0.32347598
   0.33333000  0.00000000  0.25855000
   0.50234323  0.16413647  0.32348641
   0.66667000  0.00000000  0.25855000
   0.83302310  0.16697814  0.32503233
   0.00000000  0.33333000  0.25855000
   0.16545041  0.49991957  0.32440828
   0.33333000  0.33333000  0.25855000
   0.49782079  0.50209684  0.32285975
   0.66667000  0.33333000  0.25855000
   0.83582483  0.49766649  0.32345464
   0.00000000  0.66667000  0.25855000
   0.16870013  0.83122161  0.32274616
   0.33333000  0.66667000  0.25855000
   0.50010479  0.83458681  0.32445075
   0.66667000  0.66667000  0.25855000
   0.83070214  0.83701998  0.32349034
   0.00007003  0.33314914  0.38063472
   0.64974708  0.35000046  0.38821898
   0.33292756  0.66691868  0.38496557
Direct configuration=     9
   0.00000000  0.00000000  0.00000000
   0.02094735  0.97861479  0.38377922
   0.16667000  0.16667000  0.06464000
   0.33333000  0.00000000  0.00000000
   0.31270996  0.01927277  0.38306367
   0.50000000  0.16667000  0.06464000
   0.66667000  0.00000000  0.00000000
   0.66755779  0.00071455  0.38065316
   0.83333000  0.16667000  0.06464000
   0.00000000  0.33333000  0.00000000
   0.16667000  0.50000000  0.06464000
   0.33333000  0.33333000  0.00000000
   0.34871785  0.31193171  0.38243051
   0.50000000  0.50000000  0.06464000
   0.66667000  0.33333000  0.00000000
   0.83333000  0.50000000  0.06464000
   0.00000000  0.66667000  0.00000000
   0.98047722  0.68723829  0.38311578
   0.16667000  0.83333000  0.06464000
   0.33333000  0.66667000  0.00000000
   0.50000000  0.83333000  0.06464000
   0.66667000  0.66667000  0.00000000
   0.68776616  0.65120432  0.38238872
   0.83333000  0.83333000  0.06464000
   0.00000000  0.00000000  0.12928000
   0.16667000  0.16667000  0.19391000
   0.33333000  0.00000000  0.12928000
   0.50000000  0.16667000  0.19391000
   0.66667000  0.00000000  0.12928000
   0.83333000  0.16667000  0.19391000
   0.00000000  0.33333000  0.12928000
   0.16667000  0.50000000  0.19391000
   0.33333000  0.33333000  0.12928000
   0.50000000  0.50000000  0.19391000
   0.66667000  0.33333000  0.12928000
   0.83333000  0.50000000  0.19391000
   0.00000000  0.66667000  0.12928000
   0.16667000  0.83333000  0.19391000
   0.33333000  0.66667000  0.12928000
   0.50000000  0.83333000  0.19391000
   0.66667000  0.66667000  0.12928000
   0.83333000  0.83333000  0.19391000
   0.00000000  0.00000000  0.25855000
   0.16296358  0.16922936  0.32348743
   0.33333000  0.00000000  0.25855000
   0.50227444  0.16411807  0.32354718
   0.66667000  0.00000000  0.25855000
   0.83305032  0.16700354  0.32504323
   0.00000000  0.33333000  0.25855000
   0.16549593  0.49985795  0.32437681
   0.33333000  0.33333000  0.25855000
   0.49776708  0.50217371  0.32287993
   0.66667000  0.33333000  0.25855000
   0.83586198  0.49769517  0.32354142
   0.00000000  0.66667000  0.25855000
   0.16875916  0.83118426  0.32270991
   0.33333000  0.66667000  0.25855000
   0.50013579  0.83451033  0.32443207
   0.66667000  0.66667000  0.25855000
   0.83072105  0.83701370  0.32348161
  -0.00009696  0.33312102  0.38059923
   0.64979424  0.34995844  0.38824593
   0.33294533  0.66697066  0.38496051
Direct configuration=    10
   0.00000000  0.00000000  0.00000000
   0.02096774  0.97859758  0.38378112
   0.16667000  0.16667000  0.06464000
   0.33333000  0.00000000  0.00000000
   0.31270117  0.01926552  0.38305636
   0.50000000  0.16667000  0.06464000
   0.66667000  0.00000000  0.00000000
   0.66755224  0.00074127  0.38065495
   0.83333000  0.16667000  0.06464000
   0.00000000  0.33333000  0.00000000
   0.16667000  0.50000000  0.06464000
   0.33333000  0.33333000  0.00000000
   0.34865831  0.31191617  0.38243339
   0.50000000  0.50000000  0.06464000
   0.66667000  0.33333000  0.00000000
   0.83333000  0.50000000  0.06464000
   0.00000000  0.66667000  0.00000000
   0.98048525  0.68724836  0.38310514
   0.16667000  0.83333000  0.06464000
   0.33333000  0.66667000  0.00000000
   0.50000000  0.83333000  0.06464000
   0.66667000  0.66667000  0.00000000
   0.68777942  0.65126717  0.38239585
   0.83333000  0.83333000  0.06464000
   0.00000000  0.00000000  0.12928000
   0.16667000  0.16667000  0.19391000
   0.33333000  0.00000000  0.12928000
   0.50000000  0.16667000  0.19391000
   0.66667000  0.00000000  0.12928000
   0.83333000  0.16667000  0.19391000
   0.00000000  0.33333000  0.12928000
   0.16667000  0.50000000  0.19391000
   0.33333000  0.33333000  0.12928000
   0.50000000  0.50000000  0.19391000
   0.66667000  0.33333000  0.12928000
   0.83333000  0.50000000  0.19391000
   0.00000000  0.66667000  0.12928000
   0.16667000  0.83333000  0.19391000
   0.33333000  0.66667000  0.12928000
   0.50000000  0.83333000  0.19391000
   0.66667000  0.66667000  0.12928000
   0.83333000  0.83333000  0.19391000
   0.00000000  0.00000000  0.25855000
   0.16296295  0.16922650  0.32349039
   0.33333000  0.00000000  0.25855000
   0.50225662  0.16411330  0.32356291
   0.66667000  0.00000000  0.25855000
   0.83305737  0.16701012  0.32504605
   0.00000000  0.33333000  0.25855000
   0.16550773  0.49984198  0.32436866
   0.33333000  0.33333000  0.25855000
   0.49775317  0.50219362  0.32288515
   0.66667000  0.33333000  0.25855000
   0.83587160  0.49770260  0.32356389
   0.00000000  0.66667000  0.25855000
   0.16877445  0.83117459  0.32270052
   0.33333000  0.66667000  0.25855000
   0.50014382  0.83449052  0.32442723
   0.66667000  0.66667000  0.25855000
   0.83072595  0.83701208  0.32347935
  -0.00014022  0.33311374  0.38059003
   0.64980645  0.34994756  0.38825291
   0.33294993  0.66698412  0.38495920
Direct configuration=    11
   0.00000000  0.00000000  0.00000000
   0.02112490  0.97846349  0.38377004
   0.16667000  0.16667000  0.06464000
   0.33333000  0.00000000  0.00000000
   0.31263480  0.01914372  0.38308238
   0.50000000  0.16667000  0.06464000
   0.66667000  0.00000000  0.00000000
   0.66751639  0.00085402  0.38066217
   0.83333000  0.16667000  0.06464000
   0.00000000  0.33333000  0.00000000
   0.16667000  0.50000000  0.06464000
   0.33333000  0.33333000  0.00000000
   0.34833738  0.31184443  0.38243859
   0.50000000  0.50000000  0.06464000
   0.66667000  0.33333000  0.00000000
   0.83333000  0.50000000  0.06464000
   0.00000000  0.66667000  0.00000000
   0.98063114  0.68732661  0.38309943
   0.16667000  0.83333000  0.06464000
   0.33333000  0.66667000  0.00000000
   0.50000000  0.83333000  0.06464000
   0.66667000  0.66667000  0.00000000
   0.68788048  0.65159406  0.38242477
   0.83333000  0.83333000  0.06464000
   0.00000000  0.00000000  0.12928000
   0.16667000  0.16667000  0.19391000
   0.33333000  0.00000000  0.12928000
   0.50000000  0.16667000  0.19391000
   0.66667000  0.00000000  0.12928000
   0.83333000  0.16667000  0.19391000
   0.00000000  0.33333000  0.12928000
   0.16667000  0.50000000  0.19391000
   0.33333000  0.33333000  0.12928000
   0.50000000  0.50000000  0.19391000
   0.66667000  0.33333000  0.12928000
   0.83333000  0.50000000  0.19391000
   0.00000000  0.66667000  0.12928000
   0.16667000  0.83333000  0.19391000
   0.33333000  0.66667000  0.12928000
   0.50000000  0.83333000  0.19391000
   0.66667000  0.66667000  0.12928000
   0.83333000  0.83333000  0.19391000
   0.00000000  0.00000000  0.25855000
   0.16286399  0.16926278  0.32347401
   0.33333000  0.00000000  0.25855000
   0.50226161  0.16420967  0.32356834
   0.66667000  0.00000000  0.25855000
   0.83302107  0.16704297  0.32506079
   0.00000000  0.33333000  0.25855000
   0.16548559  0.49975651  0.32439342
   0.33333000  0.33333000  0.25855000
   0.49783905  0.50211436  0.32294563
   0.66667000  0.33333000  0.25855000
   0.83574508  0.49773068  0.32358912
   0.00000000  0.66667000  0.25855000
   0.16882526  0.83112557  0.32263325
   0.33333000  0.66667000  0.25855000
   0.50022905  0.83450549  0.32444559
   0.66667000  0.66667000  0.25855000
   0.83067168  0.83710862  0.32345406
  -0.00034374  0.33306221  0.38061578
   0.64971673  0.35004572  0.38821641
   0.33300236  0.66702279  0.38492683
Direct configuration=    12
   0.00000000  0.00000000  0.00000000
   0.02120340  0.97839651  0.38376451
   0.16667000  0.16667000  0.06464000
   0.33333000  0.00000000  0.00000000
   0.31260164  0.01908287  0.38309538
   0.50000000  0.16667000  0.06464000
   0.66667000  0.00000000  0.00000000
   0.66749848  0.00091035  0.38066577
   0.83333000  0.16667000  0.06464000
   0.00000000  0.33333000  0.00000000
   0.16667000  0.50000000  0.06464000
   0.33333000  0.33333000  0.00000000
   0.34817705  0.31180860  0.38244119
   0.50000000  0.50000000  0.06464000
   0.66667000  0.33333000  0.00000000
   0.83333000  0.50000000  0.06464000
   0.00000000  0.66667000  0.00000000
   0.98070402  0.68736570  0.38309658
   0.16667000  0.83333000  0.06464000
   0.33333000  0.66667000  0.00000000
   0.50000000  0.83333000  0.06464000
   0.66667000  0.66667000  0.00000000
   0.68793097  0.65175736  0.38243922
   0.83333000  0.83333000  0.06464000
   0.00000000  0.00000000  0.12928000
   0.16667000  0.16667000  0.19391000
   0.33333000  0.00000000  0.12928000
   0.50000000  0.16667000  0.19391000
   0.66667000  0.00000000  0.12928000
   0.83333000  0.16667000  0.19391000
   0.00000000  0.33333000  0.12928000
   0.16667000  0.50000000  0.19391000
   0.33333000  0.33333000  0.12928000
   0.50000000  0.50000000  0.19391000
   0.66667000  0.33333000  0.12928000
   0.83333000  0.50000000  0.19391000
   0.00000000  0.66667000  0.12928000
   0.16667000  0.83333000  0.19391000
   0.33333000  0.66667000  0.12928000
   0.50000000  0.83333000  0.19391000
   0.66667000  0.66667000  0.12928000
   0.83333000  0.83333000  0.19391000
   0.00000000  0.00000000  0.25855000
   0.16281455  0.16928091  0.32346582
   0.33333000  0.00000000  0.25855000
   0.50226411  0.16425781  0.32357104
   0.66667000  0.00000000  0.25855000
   0.83300294  0.16705938  0.32506816
   0.00000000  0.33333000  0.25855000
   0.16547454  0.49971382  0.32440579
   0.33333000  0.33333000  0.25855000
   0.49788196  0.50207476  0.32297584
   0.66667000  0.33333000  0.25855000
   0.83568188  0.49774471  0.32360173
   0.00000000  0.66667000  0.25855000
   0.16885064  0.83110109  0.32259964
   0.33333000  0.66667000  0.25855000
   0.50027163  0.83451297  0.32445476
   0.66667000  0.66667000  0.25855000
   0.83064457  0.83715684  0.32344142
  -0.00044541  0.33303646  0.38062864
   0.64967191  0.35009476  0.38819817
   0.33302856  0.66704210  0.38491066
Direct configuration=    13
   0.00000000  0.00000000  0.00000000
   0.02136042  0.97826253  0.38375345
   0.16667000  0.16667000  0.06464000
   0.33333000  0.00000000  0.00000000
   0.31253533  0.01896117  0.38312139
   0.50000000  0.16667000  0.06464000
   0.66667000  0.00000000  0.00000000
   0.66746266  0.00102301  0.38067299
   0.83333000  0.16667000  0.06464000
   0.00000000  0.33333000  0.00000000
   0.16667000  0.50000000  0.06464000
   0.33333000  0.33333000  0.00000000
   0.34785640  0.31173693  0.38244638
   0.50000000  0.50000000  0.06464000
   0.66667000  0.33333000  0.00000000
   0.83333000  0.50000000  0.06464000
   0.00000000  0.66667000  0.00000000
   0.98084978  0.68744389  0.38309089
   0.16667000  0.83333000  0.06464000
   0.33333000  0.66667000  0.00000000
   0.50000000  0.83333000  0.06464000
   0.66667000  0.66667000  0.00000000
   0.68803195  0.65208396  0.38246812
   0.83333000  0.83333000  0.06464000
   0.00000000  0.00000000  0.12928000
   0.16667000  0.16667000  0.19391000
   0.33333000  0.00000000  0.12928000
   0.50000000  0.16667000  0.19391000
   0.66667000  0.00000000  0.12928000
   0.83333000  0.16667000  0.19391000
   0.00000000  0.33333000  0.12928000
   0.16667000  0.50000000  0.19391000
   0.33333000  0.33333000  0.12928000
   0.50000000  0.50000000  0.19391000
   0.66667000  0.33333000  0.12928000
   0.83333000  0.50000000  0.19391000
   0.00000000  0.66667000  0.12928000
   0.16667000  0.83333000  0.19391000
   0.33333000  0.66667000  0.12928000
   0.50000000  0.83333000  0.19391000
   0.66667000  0.66667000  0.12928000
   0.83333000  0.83333000  0.19391000
   0.00000000  0.00000000  0.25855000
   0.16271568  0.16931717  0.32344944
   0.33333000  0.00000000  0.25855000
   0.50226910  0.16435409  0.32357646
   0.66667000  0.00000000  0.25855000
   0.83296667  0.16709220  0.32508290
   0.00000000  0.33333000  0.25855000
   0.16545242  0.49962842  0.32443053
   0.33333000  0.33333000  0.25855000
   0.49796777  0.50199556  0.32303627
   0.66667000  0.33333000  0.25855000
   0.83555548  0.49777278  0.32362694
   0.00000000  0.66667000  0.25855000
   0.16890141  0.83105211  0.32253243
   0.33333000  0.66667000  0.25855000
   0.50035678  0.83452793  0.32447311
   0.66667000  0.66667000  0.25855000
   0.83059034  0.83725329  0.32341616
  -0.00064875  0.33298498  0.38065436
   0.64958226  0.35019284  0.38816170
   0.33308094  0.66708074  0.38487832
Direct configuration=    14
   0.00000000  0.00000000  0.00000000
   0.02125622  0.97835144  0.38376079
   0.16667000  0.16667000  0.06464000
   0.33333000  0.00000000  0.00000000
   0.31257934  0.01904194  0.38310413
   0.50000000  0.16667000  0.06464000
   0.66667000  0.00000000  0.00000000
   0.66748644  0.00094824  0.38066820
   0.83333000  0.16667000  0.06464000
   0.00000000  0.33333000  0.00000000
   0.16667000  0.50000000  0.06464000
   0.33333000  0.33333000  0.00000000
   0.34806920  0.31178449  0.38244293
   0.50000000  0.50000000  0.06464000
   0.66667000  0.33333000  0.00000000
   0.83333000  0.50000000  0.06464000
   0.00000000  0.66667000  0.00000000
   0.98075305  0.68739200  0.38309467
   0.16667000  0.83333000  0.06464000
   0.33333000  0.66667000  0.00000000
   0.50000000  0.83333000  0.06464000
   0.66667000  0.66667000  0.00000000
   0.68796494  0.65186721  0.38244894
   0.83333000  0.83333000  0.06464000
   0.00000000  0.00000000  0.12928000
   0.16667000  0.16667000  0.19391000
   0.33333000  0.00000000  0.12928000
   0.50000000  0.16667000  0.19391000
   0.66667000  0.00000000  0.12928000
   0.83333000  0.16667000  0.19391000
   0.00000000  0.33333000  0.12928000
   0.16667000  0.50000000  0.19391000
   0.33333000  0.33333000  0.12928000
   0.50000000  0.50000000  0.19391000
   0.66667000  0.33333000  0.12928000
   0.83333000  0.50000000  0.19391000
   0.00000000  0.66667000  0.12928000
   0.16667000  0.83333000  0.19391000
   0.33333000  0.66667000  0.12928000
   0.50000000  0.83333000  0.19391000
   0.66667000  0.66667000  0.12928000
   0.83333000  0.83333000  0.19391000
   0.00000000  0.00000000  0.25855000
   0.16278129  0.16929311  0.32346031
   0.33333000  0.00000000  0.25855000
   0.50226579  0.16429019  0.32357286
   0.66667000  0.00000000  0.25855000
   0.83299074  0.16707042  0.32507312
   0.00000000  0.33333000  0.25855000
   0.16546710  0.49968509  0.32441411
   0.33333000  0.33333000  0.25855000
   0.49791083  0.50204812  0.32299617
   0.66667000  0.33333000  0.25855000
   0.83563936  0.49775415  0.32361021
   0.00000000  0.66667000  0.25855000
   0.16886772  0.83108461  0.32257704
   0.33333000  0.66667000  0.25855000
   0.50030027  0.83451801  0.32446093
   0.66667000  0.66667000  0.25855000
   0.83062633  0.83718928  0.32343292
  -0.00051380  0.33301915  0.38063729
   0.64964175  0.35012775  0.38818591
   0.33304618  0.66705510  0.38489978
Direct configuration=    15
   0.00000000  0.00000000  0.00000000
   0.02140301  0.97824666  0.38375566
   0.16667000  0.16667000  0.06464000
   0.33333000  0.00000000  0.00000000
   0.31244989  0.01897939  0.38309111
   0.50000000  0.16667000  0.06464000
   0.66667000  0.00000000  0.00000000
   0.66746479  0.00099005  0.38067751
   0.83333000  0.16667000  0.06464000
   0.00000000  0.33333000  0.00000000
   0.16667000  0.50000000  0.06464000
   0.33333000  0.33333000  0.00000000
   0.34781010  0.31163147  0.38243103
   0.50000000  0.50000000  0.06464000
   0.66667000  0.33333000  0.00000000
   0.83333000  0.50000000  0.06464000
   0.00000000  0.66667000  0.00000000
   0.98086725  0.68751929  0.38308407
   0.16667000  0.83333000  0.06464000
   0.33333000  0.66667000  0.00000000
   0.50000000  0.83333000  0.06464000
   0.66667000  0.66667000  0.00000000
   0.68814673  0.65213298  0.38244674
   0.83333000  0.83333000  0.06464000
   0.00000000  0.00000000  0.12928000
   0.16667000  0.16667000  0.19391000
   0.33333000  0.00000000  0.12928000
   0.50000000  0.16667000  0.19391000
   0.66667000  0.00000000  0.12928000
   0.83333000  0.16667000  0.19391000
   0.00000000  0.33333000  0.12928000
   0.16667000  0.50000000  0.19391000
   0.33333000  0.33333000  0.12928000
   0.50000000  0.50000000  0.19391000
   0.66667000  0.33333000  0.12928000
   0.83333000  0.50000000  0.19391000
   0.00000000  0.66667000  0.12928000
   0.16667000  0.83333000  0.19391000
   0.33333000  0.66667000  0.12928000
   0.50000000  0.83333000  0.19391000
   0.66667000  0.66667000  0.12928000
   0.83333000  0.83333000  0.19391000
   0.00000000  0.00000000  0.25855000
   0.16277627  0.16920160  0.32347290
   0.33333000  0.00000000  0.25855000
   0.50219204  0.16433601  0.32355569
   0.66667000  0.00000000  0.25855000
   0.83291936  0.16711563  0.32505669
   0.00000000  0.33333000  0.25855000
   0.16539298  0.49971235  0.32445035
   0.33333000  0.33333000  0.25855000
   0.49785057  0.50210775  0.32295792
   0.66667000  0.33333000  0.25855000
   0.83558368  0.49782692  0.32356879
   0.00000000  0.66667000  0.25855000
   0.16889881  0.83107410  0.32255392
   0.33333000  0.66667000  0.25855000
   0.50028368  0.83460826  0.32447245
   0.66667000  0.66667000  0.25855000
   0.83070152  0.83720960  0.32345194
  -0.00062134  0.33295048  0.38068082
   0.64950685  0.35026594  0.38818742
   0.33307326  0.66707198  0.38490810
Direct configuration=    16
   0.00000000  0.00000000  0.00000000
   0.02143046  0.97822707  0.38375470
   0.16667000  0.16667000  0.06464000
   0.33333000  0.00000000  0.00000000
   0.31242568  0.01896770  0.38308868
   0.50000000  0.16667000  0.06464000
   0.66667000  0.00000000  0.00000000
   0.66746075  0.00099787  0.38067925
   0.83333000  0.16667000  0.06464000
   0.00000000  0.33333000  0.00000000
   0.16667000  0.50000000  0.06464000
   0.33333000  0.33333000  0.00000000
   0.34776165  0.31160286  0.38242880
   0.50000000  0.50000000  0.06464000
   0.66667000  0.33333000  0.00000000
   0.83333000  0.50000000  0.06464000
   0.00000000  0.66667000  0.00000000
   0.98088860  0.68754309  0.38308209
   0.16667000  0.83333000  0.06464000
   0.33333000  0.66667000  0.00000000
   0.50000000  0.83333000  0.06464000
   0.66667000  0.66667000  0.00000000
   0.68818072  0.65218267  0.38244633
   0.83333000  0.83333000  0.06464000
   0.00000000  0.00000000  0.12928000
   0.16667000  0.16667000  0.19391000
   0.33333000  0.00000000  0.12928000
   0.50000000  0.16667000  0.19391000
   0.66667000  0.00000000  0.12928000
   0.83333000  0.16667000  0.19391000
   0.00000000  0.33333000  0.12928000
   0.16667000  0.50000000  0.19391000
   0.33333000  0.33333000  0.12928000
   0.50000000  0.50000000  0.19391000
   0.66667000  0.33333000  0.12928000
   0.83333000  0.50000000  0.19391000
   0.00000000  0.66667000  0.12928000
   0.16667000  0.83333000  0.19391000
   0.33333000  0.66667000  0.12928000
   0.50000000  0.83333000  0.19391000
   0.66667000  0.66667000  0.12928000
   0.83333000  0.83333000  0.19391000
   0.00000000  0.00000000  0.25855000
   0.16277533  0.16918449  0.32347526
   0.33333000  0.00000000  0.25855000
   0.50217825  0.16434457  0.32355248
   0.66667000  0.00000000  0.25855000
   0.83290602  0.16712408  0.32505362
   0.00000000  0.33333000  0.25855000
   0.16537912  0.49971744  0.32445712
   0.33333000  0.33333000  0.25855000
   0.49783930  0.50211890  0.32295076
   0.66667000  0.33333000  0.25855000
   0.83557327  0.49784052  0.32356105
   0.00000000  0.66667000  0.25855000
   0.16890462  0.83107213  0.32254960
   0.33333000  0.66667000  0.25855000
   0.50028058  0.83462514  0.32447461
   0.66667000  0.66667000  0.25855000
   0.83071558  0.83721340  0.32345549
  -0.00064145  0.33293764  0.38068895
   0.64948163  0.35029178  0.38818771
   0.33307833  0.66707514  0.38490965
Direct configuration=    17
   0.00000000  0.00000000  0.00000000
   0.02144937  0.97825138  0.38378914
   0.16667000  0.16667000  0.06464000
   0.33333000  0.00000000  0.00000000
   0.31240405  0.01892034  0.38309425
   0.50000000  0.16667000  0.06464000
   0.66667000  0.00000000  0.00000000
   0.66743369  0.00100853  0.38067303
   0.83333000  0.16667000  0.06464000
   0.00000000  0.33333000  0.00000000
   0.16667000  0.50000000  0.06464000
   0.33333000  0.33333000  0.00000000
   0.34765713  0.31151522  0.38241883
   0.50000000  0.50000000  0.06464000
   0.66667000  0.33333000  0.00000000
   0.83333000  0.50000000  0.06464000
   0.00000000  0.66667000  0.00000000
   0.98095740  0.68755089  0.38309719
   0.16667000  0.83333000  0.06464000
   0.33333000  0.66667000  0.00000000
   0.50000000  0.83333000  0.06464000
   0.66667000  0.66667000  0.00000000
   0.68831136  0.65226536  0.38241839
   0.83333000  0.83333000  0.06464000
   0.00000000  0.00000000  0.12928000
   0.16667000  0.16667000  0.19391000
   0.33333000  0.00000000  0.12928000
   0.50000000  0.16667000  0.19391000
   0.66667000  0.00000000  0.12928000
   0.83333000  0.16667000  0.19391000
   0.00000000  0.33333000  0.12928000
   0.16667000  0.50000000  0.19391000
   0.33333000  0.33333000  0.12928000
   0.50000000  0.50000000  0.19391000
   0.66667000  0.33333000  0.12928000
   0.83333000  0.50000000  0.19391000
   0.00000000  0.66667000  0.12928000
   0.16667000  0.83333000  0.19391000
   0.33333000  0.66667000  0.12928000
   0.50000000  0.83333000  0.19391000
   0.66667000  0.66667000  0.12928000
   0.83333000  0.83333000  0.19391000
   0.00000000  0.00000000  0.25855000
   0.16270151  0.16920886  0.32345824
   0.33333000  0.00000000  0.25855000
   0.50214836  0.16436139  0.32355922
   0.66667000  0.00000000  0.25855000
   0.83286997  0.16717312  0.32505244
   0.00000000  0.33333000  0.25855000
   0.16533876  0.49971442  0.32446905
   0.33333000  0.33333000  0.25855000
   0.49775500  0.50221477  0.32292743
   0.66667000  0.33333000  0.25855000
   0.83558861  0.49784899  0.32357209
   0.00000000  0.66667000  0.25855000
   0.16895338  0.83102596  0.32254463
   0.33333000  0.66667000  0.25855000
   0.50028102  0.83465469  0.32446952
   0.66667000  0.66667000  0.25855000
   0.83073562  0.83726175  0.32344424
  -0.00069936  0.33291205  0.38066993
   0.64935601  0.35044455  0.38817010
   0.33308838  0.66706472  0.38492861
Direct configuration=    18
   0.00000000  0.00000000  0.00000000
   0.02145224  0.97825506  0.38379436
   0.16667000  0.16667000  0.06464000
   0.33333000  0.00000000  0.00000000
   0.31240077  0.01891316  0.38309509
   0.50000000  0.16667000  0.06464000
   0.66667000  0.00000000  0.00000000
   0.66742959  0.00101015  0.38067209
   0.83333000  0.16667000  0.06464000
   0.00000000  0.33333000  0.00000000
   0.16667000  0.50000000  0.06464000
   0.33333000  0.33333000  0.00000000
   0.34764128  0.31150193  0.38241732
   0.50000000  0.50000000  0.06464000
   0.66667000  0.33333000  0.00000000
   0.83333000  0.50000000  0.06464000
   0.00000000  0.66667000  0.00000000
   0.98096784  0.68755208  0.38309947
   0.16667000  0.83333000  0.06464000
   0.33333000  0.66667000  0.00000000
   0.50000000  0.83333000  0.06464000
   0.66667000  0.66667000  0.00000000
   0.68833118  0.65227791  0.38241415
   0.83333000  0.83333000  0.06464000
   0.00000000  0.00000000  0.12928000
   0.16667000  0.16667000  0.19391000
   0.33333000  0.00000000  0.12928000
   0.50000000  0.16667000  0.19391000
   0.66667000  0.00000000  0.12928000
   0.83333000  0.16667000  0.19391000
   0.00000000  0.33333000  0.12928000
   0.16667000  0.50000000  0.19391000
   0.33333000  0.33333000  0.12928000
   0.50000000  0.50000000  0.19391000
   0.66667000  0.33333000  0.12928000
   0.83333000  0.50000000  0.19391000
   0.00000000  0.66667000  0.12928000
   0.16667000  0.83333000  0.19391000
   0.33333000  0.66667000  0.12928000
   0.50000000  0.83333000  0.19391000
   0.66667000  0.66667000  0.12928000
   0.83333000  0.83333000  0.19391000
   0.00000000  0.00000000  0.25855000
   0.16269032  0.16921255  0.32345566
   0.33333000  0.00000000  0.25855000
   0.50214382  0.16436394  0.32356024
   0.66667000  0.00000000  0.25855000
   0.83286451  0.16718056  0.32505226
   0.00000000  0.33333000  0.25855000
   0.16533264  0.49971396  0.32447086
   0.33333000  0.33333000  0.25855000
   0.49774221  0.50222931  0.32292389
   0.66667000  0.33333000  0.25855000
   0.83559093  0.49785028  0.32357377
   0.00000000  0.66667000  0.25855000
   0.16896077  0.83101896  0.32254387
   0.33333000  0.66667000  0.25855000
   0.50028109  0.83465918  0.32446875
   0.66667000  0.66667000  0.25855000
   0.83073866  0.83726909  0.32344253
  -0.00070814  0.33290817  0.38066705
   0.64933696  0.35046772  0.38816743
   0.33308990  0.66706314  0.38493148
Direct configuration=    19
   0.00000000  0.00000000  0.00000000
   0.02146959  0.97827698  0.38379719
   0.16667000  0.16667000  0.06464000
   0.33333000  0.00000000  0.00000000
   0.31237946  0.01890559  0.38309280
   0.50000000  0.16667000  0.06464000
   0.66667000  0.00000000  0.00000000
   0.66740492  0.00100001  0.38066698
   0.83333000  0.16667000  0.06464000
   0.00000000  0.33333000  0.00000000
   0.16667000  0.50000000  0.06464000
   0.33333000  0.33333000  0.00000000
   0.34759230  0.31147687  0.38241656
   0.50000000  0.50000000  0.06464000
   0.66667000  0.33333000  0.00000000
   0.83333000  0.50000000  0.06464000
   0.00000000  0.66667000  0.00000000
   0.98099460  0.68756029  0.38310374
   0.16667000  0.83333000  0.06464000
   0.33333000  0.66667000  0.00000000
   0.50000000  0.83333000  0.06464000
   0.66667000  0.66667000  0.00000000
   0.68837987  0.65231544  0.38240942
   0.83333000  0.83333000  0.06464000
   0.00000000  0.00000000  0.12928000
   0.16667000  0.16667000  0.19391000
   0.33333000  0.00000000  0.12928000
   0.50000000  0.16667000  0.19391000
   0.66667000  0.00000000  0.12928000
   0.83333000  0.16667000  0.19391000
   0.00000000  0.33333000  0.12928000
   0.16667000  0.50000000  0.19391000
   0.33333000  0.33333000  0.12928000
   0.50000000  0.50000000  0.19391000
   0.66667000  0.33333000  0.12928000
   0.83333000  0.50000000  0.19391000
   0.00000000  0.66667000  0.12928000
   0.16667000  0.83333000  0.19391000
   0.33333000  0.66667000  0.12928000
   0.50000000  0.83333000  0.19391000
   0.66667000  0.66667000  0.12928000
   0.83333000  0.83333000  0.19391000
   0.00000000  0.00000000  0.25855000
   0.16267870  0.16918925  0.32345380
   0.33333000  0.00000000  0.25855000
   0.50215176  0.16437876  0.32356126
   0.66667000  0.00000000  0.25855000
   0.83283747  0.16718418  0.32505336
   0.00000000  0.33333000  0.25855000
   0.16534601  0.49970790  0.32446317
   0.33333000  0.33333000  0.25855000
   0.49772888  0.50224292  0.32293302
   0.66667000  0.33333000  0.25855000
   0.83559260  0.49783341  0.32356927
   0.00000000  0.66667000  0.25855000
   0.16893166  0.83104774  0.32257206
   0.33333000  0.66667000  0.25855000
   0.50029887  0.83465970  0.32446544
   0.66667000  0.66667000  0.25855000
   0.83077444  0.83728811  0.32344315
  -0.00072706  0.33289664  0.38066437
   0.64922955  0.35059851  0.38814708
   0.33308006  0.66706247  0.38493495
