Generated by VASPKIT code               
   1.00000000000000     
     9.4983997344999995    0.0000000000000000    0.0000000000000000
     0.0000000000000000    9.4983997344999995    0.0000000000000000
     0.0000000000000000    0.0000000000000000   24.5028991699000009
  Mo/           
              63
Selective dynamics
Direct
  0.0000000000000000  0.0000000000000000  0.0000000000000000   F   F   F
  0.0000000000000000  0.0000000000000000  0.3811777835723348   T   T   T
  0.1666700000000034  0.1666700000000034  0.0646399999999971   F   F   F
  0.3333299999999966  0.0000000000000000  0.0000000000000000   F   F   F
  0.3333250305886649  0.0000000000000000  0.3811779372820054   T   T   T
  0.5000000000000000  0.1666700000000034  0.0646399999999971   F   F   F
  0.6666700000000034  0.0000000000000000  0.0000000000000000   F   F   F
  0.6666749694113352  0.0000000000000000  0.3811779372820054   T   T   T
  0.8333299999999966  0.1666700000000034  0.0646399999999971   F   F   F
  0.0000000000000000  0.3333299999999966  0.0000000000000000   F   F   F
  0.0000000000000000  0.3333250305886649  0.3811779372820054   T   T   T
  0.1666700000000034  0.5000000000000000  0.0646399999999971   F   F   F
  0.3333299999999966  0.3333299999999966  0.0000000000000000   F   F   F
  0.3333243534030809  0.3333243534030809  0.3811742922337681   T   T   T
  0.5000000000000000  0.5000000000000000  0.0646399999999971   F   F   F
  0.6666700000000034  0.3333299999999966  0.0000000000000000   F   F   F
  0.6666756465969189  0.3333243534030809  0.3811742922337681   T   T   T
  0.8333299999999966  0.5000000000000000  0.0646399999999971   F   F   F
  0.0000000000000000  0.6666700000000034  0.0000000000000000   F   F   F
  0.0000000000000000  0.6666749694113352  0.3811779372820054   T   T   T
  0.1666700000000034  0.8333299999999966  0.0646399999999971   F   F   F
  0.3333299999999966  0.6666700000000034  0.0000000000000000   F   F   F
  0.3333243534030809  0.6666756465969189  0.3811742922337681   T   T   T
  0.5000000000000000  0.8333299999999966  0.0646399999999971   F   F   F
  0.6666700000000034  0.6666700000000034  0.0000000000000000   F   F   F
  0.6666756465969189  0.6666756465969189  0.3811742922337681   T   T   T
  0.8333299999999966  0.8333299999999966  0.0646399999999971   F   F   F
  0.0000000000000000  0.0000000000000000  0.1292800000000014   F   F   F
  0.1666700000000034  0.1666700000000034  0.1939100000000025   F   F   F
  0.3333299999999966  0.0000000000000000  0.1292800000000014   F   F   F
  0.5000000000000000  0.1666700000000034  0.1939100000000025   F   F   F
  0.6666700000000034  0.0000000000000000  0.1292800000000014   F   F   F
  0.8333299999999966  0.1666700000000034  0.1939100000000025   F   F   F
  0.0000000000000000  0.3333299999999966  0.1292800000000014   F   F   F
  0.1666700000000034  0.5000000000000000  0.1939100000000025   F   F   F
  0.3333299999999966  0.3333299999999966  0.1292800000000014   F   F   F
  0.5000000000000000  0.5000000000000000  0.1939100000000025   F   F   F
  0.6666700000000034  0.3333299999999966  0.1292800000000014   F   F   F
  0.8333299999999966  0.5000000000000000  0.1939100000000025   F   F   F
  0.0000000000000000  0.6666700000000034  0.1292800000000014   F   F   F
  0.1666700000000034  0.8333299999999966  0.1939100000000025   F   F   F
  0.3333299999999966  0.6666700000000034  0.1292800000000014   F   F   F
  0.5000000000000000  0.8333299999999966  0.1939100000000025   F   F   F
  0.6666700000000034  0.6666700000000034  0.1292800000000014   F   F   F
  0.8333299999999966  0.8333299999999966  0.1939100000000025   F   F   F
  0.0000000000000000  0.0000000000000000  0.2585499999999996   F   F   F
  0.1666671516108164  0.1666671516108164  0.3245319605968139   T   T   T
  0.3333299999999966  0.0000000000000000  0.2585499999999996   F   F   F
  0.5000000000000000  0.1666673177744844  0.3245293757307109   T   T   T
  0.6666700000000034  0.0000000000000000  0.2585499999999996   F   F   F
  0.8333328483891836  0.1666671516108164  0.3245319605968139   T   T   T
  0.0000000000000000  0.3333299999999966  0.2585499999999996   F   F   F
  0.1666673177744844  0.5000000000000000  0.3245293757307109   T   T   T
  0.3333299999999966  0.3333299999999966  0.2585499999999996   F   F   F
  0.5000000000000000  0.5000000000000000  0.3245277027719423   T   T   T
  0.6666700000000034  0.3333299999999966  0.2585499999999996   F   F   F
  0.8333326822255156  0.5000000000000000  0.3245293757307109   T   T   T
  0.0000000000000000  0.6666700000000034  0.2585499999999996   F   F   F
  0.1666671516108164  0.8333328483891836  0.3245319605968139   T   T   T
  0.3333299999999966  0.6666700000000034  0.2585499999999996   F   F   F
  0.5000000000000000  0.8333326822255156  0.3245293757307109   T   T   T
  0.6666700000000034  0.6666700000000034  0.2585499999999996   F   F   F
  0.8333328483891836  0.8333328483891836  0.3245319605968139   T   T   T
 
  0.00000000E+00  0.00000000E+00  0.00000000E+00
  0.00000000E+00  0.00000000E+00  0.00000000E+00
  0.00000000E+00  0.00000000E+00  0.00000000E+00
  0.00000000E+00  0.00000000E+00  0.00000000E+00
  0.00000000E+00  0.00000000E+00  0.00000000E+00
  0.00000000E+00  0.00000000E+00  0.00000000E+00
  0.00000000E+00  0.00000000E+00  0.00000000E+00
  0.00000000E+00  0.00000000E+00  0.00000000E+00
  0.00000000E+00  0.00000000E+00  0.00000000E+00
  0.00000000E+00  0.00000000E+00  0.00000000E+00
  0.00000000E+00  0.00000000E+00  0.00000000E+00
  0.00000000E+00  0.00000000E+00  0.00000000E+00
  0.00000000E+00  0.00000000E+00  0.00000000E+00
  0.00000000E+00  0.00000000E+00  0.00000000E+00
  0.00000000E+00  0.00000000E+00  0.00000000E+00
  0.00000000E+00  0.00000000E+00  0.00000000E+00
  0.00000000E+00  0.00000000E+00  0.00000000E+00
  0.00000000E+00  0.00000000E+00  0.00000000E+00
  0.00000000E+00  0.00000000E+00  0.00000000E+00
  0.00000000E+00  0.00000000E+00  0.00000000E+00
  0.00000000E+00  0.00000000E+00  0.00000000E+00
  0.00000000E+00  0.00000000E+00  0.00000000E+00
  0.00000000E+00  0.00000000E+00  0.00000000E+00
  0.00000000E+00  0.00000000E+00  0.00000000E+00
  0.00000000E+00  0.00000000E+00  0.00000000E+00
  0.00000000E+00  0.00000000E+00  0.00000000E+00
  0.00000000E+00  0.00000000E+00  0.00000000E+00
  0.00000000E+00  0.00000000E+00  0.00000000E+00
  0.00000000E+00  0.00000000E+00  0.00000000E+00
  0.00000000E+00  0.00000000E+00  0.00000000E+00
  0.00000000E+00  0.00000000E+00  0.00000000E+00
  0.00000000E+00  0.00000000E+00  0.00000000E+00
  0.00000000E+00  0.00000000E+00  0.00000000E+00
  0.00000000E+00  0.00000000E+00  0.00000000E+00
  0.00000000E+00  0.00000000E+00  0.00000000E+00
  0.00000000E+00  0.00000000E+00  0.00000000E+00
  0.00000000E+00  0.00000000E+00  0.00000000E+00
  0.00000000E+00  0.00000000E+00  0.00000000E+00
  0.00000000E+00  0.00000000E+00  0.00000000E+00
  0.00000000E+00  0.00000000E+00  0.00000000E+00
  0.00000000E+00  0.00000000E+00  0.00000000E+00
  0.00000000E+00  0.00000000E+00  0.00000000E+00
  0.00000000E+00  0.00000000E+00  0.00000000E+00
  0.00000000E+00  0.00000000E+00  0.00000000E+00
  0.00000000E+00  0.00000000E+00  0.00000000E+00
  0.00000000E+00  0.00000000E+00  0.00000000E+00
  0.00000000E+00  0.00000000E+00  0.00000000E+00
  0.00000000E+00  0.00000000E+00  0.00000000E+00
  0.00000000E+00  0.00000000E+00  0.00000000E+00
  0.00000000E+00  0.00000000E+00  0.00000000E+00
  0.00000000E+00  0.00000000E+00  0.00000000E+00
  0.00000000E+00  0.00000000E+00  0.00000000E+00
  0.00000000E+00  0.00000000E+00  0.00000000E+00
  0.00000000E+00  0.00000000E+00  0.00000000E+00
  0.00000000E+00  0.00000000E+00  0.00000000E+00
  0.00000000E+00  0.00000000E+00  0.00000000E+00
  0.00000000E+00  0.00000000E+00  0.00000000E+00
  0.00000000E+00  0.00000000E+00  0.00000000E+00
  0.00000000E+00  0.00000000E+00  0.00000000E+00
  0.00000000E+00  0.00000000E+00  0.00000000E+00
  0.00000000E+00  0.00000000E+00  0.00000000E+00
  0.00000000E+00  0.00000000E+00  0.00000000E+00
  0.00000000E+00  0.00000000E+00  0.00000000E+00
