srun: ROUTE: split_hostlist: hl=b05r1n14 tree_width 0
 running on    4 total cores
 distrk:  each k-point on    1 cores,    4 groups
 distr:  one band on    1 cores,    1 groups
 HIP runtime initialized ...    4 DCUs will be used
 Created    4 streams on each DCU
 vasp.6.3.2 27Jun22 (build Mar 15 2023 15:45:48) complex                        
  
 POSCAR found type information on POSCAR Mo
 POSCAR found :  1 types and      63 ions
 Reading from existing POTCAR
 scaLAPACK will be used selectively (only on CPU)
 Reading from existing POTCAR
 LDA part: xc-table for Pade appr. of Perdew
 POSCAR found type information on POSCAR Mo
 POSCAR found :  1 types and      63 ions
 Optimize memory usage for KPAR
 POSCAR, INCAR and KPOINTS ok, starting setup
 FFT: planning ... GRIDC
 FFT: planning ... GRID_SOFT
 FFT: planning ... GRID
 WAVECAR not read
 entering main loop
       N       E                     dE             d eps       ncg     rms          rms(c)
DAV:   1     0.992775010713E+04    0.99278E+04   -0.52215E+05 19336   0.110E+03
DAV:   2    -0.194506934293E+03   -0.10122E+05   -0.97463E+04 18620   0.389E+02
DAV:   3    -0.498304808548E+03   -0.30380E+03   -0.28869E+03 18624   0.665E+01
DAV:   4    -0.502446588273E+03   -0.41418E+01   -0.41161E+01 18264   0.743E+00
DAV:   5    -0.502526946457E+03   -0.80358E-01   -0.80281E-01 18176   0.946E-01    0.184E+02
RMM:   6     0.127552448190E+01    0.50380E+03   -0.13966E+03 16510   0.301E+01    0.138E+02
RMM:   7    -0.465904889571E+03   -0.46718E+03   -0.23088E+02 16499   0.164E+01    0.117E+02
RMM:   8    -0.285625820211E+03    0.18028E+03   -0.68999E+01 16491   0.943E+00    0.675E+01
RMM:   9    -0.303588603218E+03   -0.17963E+02   -0.13798E+01 16490   0.434E+00    0.572E+01
RMM:  10    -0.319920301150E+03   -0.16332E+02   -0.67105E+00 16497   0.312E+00    0.545E+01
RMM:  11    -0.342594377972E+03   -0.22674E+02   -0.77603E+00 16693   0.287E+00    0.516E+01
RMM:  12    -0.367031801566E+03   -0.24437E+02   -0.13822E+01 17686   0.369E+00    0.456E+01
RMM:  13    -0.396199409412E+03   -0.29168E+02   -0.19825E+01 19500   0.498E+00    0.349E+01
RMM:  14    -0.430580990558E+03   -0.34382E+02   -0.93199E+00 17635   0.309E+00    0.251E+01
RMM:  15    -0.477254616791E+03   -0.46674E+02   -0.17290E+01 18978   0.420E+00    0.215E+01
RMM:  16    -0.499496628321E+03   -0.22242E+02   -0.82231E+00 18431   0.312E+00    0.176E+01
RMM:  17    -0.526360758636E+03   -0.26864E+02   -0.84739E+00 18211   0.300E+00    0.127E+01
RMM:  18    -0.562678702166E+03   -0.36318E+02   -0.17036E+01 18928   0.361E+00    0.976E+00
RMM:  19    -0.590079268583E+03   -0.27401E+02   -0.13105E+01 18740   0.295E+00    0.770E+00
RMM:  20    -0.603529932500E+03   -0.13451E+02   -0.53168E+00 17954   0.181E+00    0.452E+00
RMM:  21    -0.613167029108E+03   -0.96371E+01   -0.38423E+00 18031   0.147E+00    0.431E+00
RMM:  22    -0.619102497747E+03   -0.59355E+01   -0.20042E+00 17964   0.106E+00    0.340E+00
RMM:  23    -0.624182658045E+03   -0.50802E+01   -0.20199E+00 18208   0.100E+00    0.291E+00
RMM:  24    -0.628521618594E+03   -0.43390E+01   -0.18049E+00 18351   0.920E-01    0.290E+00
RMM:  25    -0.633594504637E+03   -0.50729E+01   -0.21027E+00 18774   0.956E-01    0.226E+00
RMM:  26    -0.637005891071E+03   -0.34114E+01   -0.13938E+00 18245   0.673E-01    0.203E+00
RMM:  27    -0.639033515134E+03   -0.20276E+01   -0.74452E-01 18131   0.485E-01    0.196E+00
RMM:  28    -0.640946109246E+03   -0.19126E+01   -0.72891E-01 18629   0.491E-01    0.185E+00
RMM:  29    -0.642905498062E+03   -0.19594E+01   -0.91223E-01 19375   0.539E-01    0.163E+00
RMM:  30    -0.644325311423E+03   -0.14198E+01   -0.66184E-01 18648   0.412E-01    0.146E+00
RMM:  31    -0.646287433502E+03   -0.19621E+01   -0.11016E+00 20157   0.512E-01    0.116E+00
RMM:  32    -0.647845227917E+03   -0.15578E+01   -0.10787E+00 20009   0.485E-01    0.982E-01
RMM:  33    -0.648763551349E+03   -0.91832E+00   -0.36578E-01 18526   0.274E-01    0.770E-01
RMM:  34    -0.649666854261E+03   -0.90330E+00   -0.40942E-01 19770   0.305E-01    0.765E-01
RMM:  35    -0.650017133516E+03   -0.35028E+00   -0.11636E-01 18455   0.169E-01    0.675E-01
RMM:  36    -0.650325627220E+03   -0.30849E+00   -0.50396E-02 18139   0.131E-01    0.534E-01
RMM:  37    -0.650652441500E+03   -0.32681E+00   -0.87184E-02 19119   0.149E-01    0.401E-01
RMM:  38    -0.650713707658E+03   -0.61266E-01   -0.14724E-02 17581   0.652E-02    0.378E-01
RMM:  39    -0.650748589518E+03   -0.34882E-01   -0.36538E-03 17033   0.393E-02    0.329E-01
RMM:  40    -0.650782220179E+03   -0.33631E-01   -0.24343E-03 17176   0.332E-02    0.316E-01
RMM:  41    -0.650816306728E+03   -0.34087E-01   -0.36388E-03 17893   0.357E-02    0.308E-01
RMM:  42    -0.650843087451E+03   -0.26781E-01   -0.33732E-03 18237   0.323E-02    0.282E-01
RMM:  43    -0.650879281034E+03   -0.36194E-01   -0.35446E-03 18618   0.333E-02    0.252E-01
RMM:  44    -0.650976656698E+03   -0.97376E-01   -0.74093E-03 19794   0.453E-02    0.221E-01
RMM:  45    -0.651141717776E+03   -0.16506E+00   -0.13926E-02 20665   0.582E-02    0.174E-01
RMM:  46    -0.651162436665E+03   -0.20719E-01   -0.22801E-03 18670   0.278E-02    0.129E-01
RMM:  47    -0.651174814905E+03   -0.12378E-01   -0.14978E-03 18563   0.239E-02    0.112E-01
RMM:  48    -0.651180103701E+03   -0.52888E-02   -0.66843E-04 18039   0.180E-02    0.819E-02
RMM:  49    -0.651183036924E+03   -0.29332E-02   -0.50381E-04 17835   0.162E-02    0.622E-02
RMM:  50    -0.651183959922E+03   -0.92300E-03   -0.24794E-04 17573   0.123E-02    0.438E-02
RMM:  51    -0.651184070315E+03   -0.11039E-03   -0.90969E-05 16883   0.801E-03    0.337E-02
RMM:  52    -0.651183993789E+03    0.76526E-04   -0.68827E-05 16926   0.719E-03    0.179E-02
RMM:  53    -0.651183819011E+03    0.17478E-03   -0.14734E-05 14277   0.356E-03    0.129E-02
RMM:  54    -0.651183861881E+03   -0.42870E-04   -0.10264E-05 13356   0.245E-03    0.126E-02
RMM:  55    -0.651183952710E+03   -0.90829E-04   -0.14184E-05 14860   0.326E-03    0.123E-02
RMM:  56    -0.651183989328E+03   -0.36618E-04   -0.80717E-06 12886   0.198E-03    0.966E-03
RMM:  57    -0.651184196197E+03   -0.20687E-03   -0.10566E-05 12721   0.184E-03    0.870E-03
RMM:  58    -0.651184354727E+03   -0.15853E-03   -0.10299E-05 12288   0.168E-03    0.657E-03
RMM:  59    -0.651184568739E+03   -0.21401E-03   -0.20289E-05 12893   0.183E-03    0.498E-03
RMM:  60    -0.651184652023E+03   -0.83284E-04   -0.44600E-06 11992   0.113E-03    0.384E-03
RMM:  61    -0.651184689894E+03   -0.37871E-04   -0.61424E-06 11977   0.115E-03    0.336E-03
RMM:  62    -0.651184739723E+03   -0.49829E-04   -0.39910E-06 11680   0.979E-04    0.215E-03
RMM:  63    -0.651184782866E+03   -0.43143E-04   -0.11350E-06 10769   0.546E-04    0.194E-03
RMM:  64    -0.651184822993E+03   -0.40128E-04   -0.10739E-06  8119   0.377E-04    0.159E-03
RMM:  65    -0.651184846314E+03   -0.23321E-04   -0.55699E-07  7818   0.330E-04    0.121E-03
RMM:  66    -0.651184856018E+03   -0.97039E-05   -0.22018E-07  6715   0.264E-04    0.949E-04
RMM:  67    -0.651184867394E+03   -0.11376E-04   -0.48235E-07  8546   0.339E-04    0.909E-04
RMM:  68    -0.651184870884E+03   -0.34909E-05   -0.10931E-07  5923   0.236E-04    0.667E-04
RMM:  69    -0.651184875878E+03   -0.49930E-05   -0.12830E-07  6301   0.247E-04    0.507E-04
RMM:  70    -0.651184875914E+03   -0.36234E-07   -0.57240E-08  5289   0.218E-04
   1 F= -.65118488E+03 E0= -.65119283E+03  d E =-.651185E+03  mag=     0.0001
 curvature:   0.00 expect dE= 0.000E+00 dE for cont linesearch  0.000E+00
 trial: gam= 0.00000 g(F)=  0.259E-06 g(S)=  0.000E+00 ort = 0.000E+00 (trialstep = 0.100E+01)
 search vector abs. value=  0.260E-06
 reached required accuracy - stopping structural energy minimisation
 PROFILE, used timers:     290
