ni3al                                   
           1
     9.498400    0.000000    0.000000
     0.000000    9.498400    0.000000
     0.000000    0.000000   24.502899
   Mo
    63
Direct configuration=     1
   0.00000000  0.00000000  0.00000000
   0.00000000  0.00000000  0.38117778
   0.16667000  0.16667000  0.06464000
   0.33333000  0.00000000  0.00000000
   0.33332503  0.00000000  0.38117794
   0.50000000  0.16667000  0.06464000
   0.66667000  0.00000000  0.00000000
   0.66667497  0.00000000  0.38117794
   0.83333000  0.16667000  0.06464000
   0.00000000  0.33333000  0.00000000
   0.00000000  0.33332503  0.38117794
   0.16667000  0.50000000  0.06464000
   0.33333000  0.33333000  0.00000000
   0.33332435  0.33332435  0.38117429
   0.50000000  0.50000000  0.06464000
   0.66667000  0.33333000  0.00000000
   0.66667565  0.33332435  0.38117429
   0.83333000  0.50000000  0.06464000
   0.00000000  0.66667000  0.00000000
   0.00000000  0.66667497  0.38117794
   0.16667000  0.83333000  0.06464000
   0.33333000  0.66667000  0.00000000
   0.33332435  0.66667565  0.38117429
   0.50000000  0.83333000  0.06464000
   0.66667000  0.66667000  0.00000000
   0.66667565  0.66667565  0.38117429
   0.83333000  0.83333000  0.06464000
   0.00000000  0.00000000  0.12928000
   0.16667000  0.16667000  0.19391000
   0.33333000  0.00000000  0.12928000
   0.50000000  0.16667000  0.19391000
   0.66667000  0.00000000  0.12928000
   0.83333000  0.16667000  0.19391000
   0.00000000  0.33333000  0.12928000
   0.16667000  0.50000000  0.19391000
   0.33333000  0.33333000  0.12928000
   0.50000000  0.50000000  0.19391000
   0.66667000  0.33333000  0.12928000
   0.83333000  0.50000000  0.19391000
   0.00000000  0.66667000  0.12928000
   0.16667000  0.83333000  0.19391000
   0.33333000  0.66667000  0.12928000
   0.50000000  0.83333000  0.19391000
   0.66667000  0.66667000  0.12928000
   0.83333000  0.83333000  0.19391000
   0.00000000  0.00000000  0.25855000
   0.16666715  0.16666715  0.32453196
   0.33333000  0.00000000  0.25855000
   0.50000000  0.16666732  0.32452938
   0.66667000  0.00000000  0.25855000
   0.83333285  0.16666715  0.32453196
   0.00000000  0.33333000  0.25855000
   0.16666732  0.50000000  0.32452938
   0.33333000  0.33333000  0.25855000
   0.50000000  0.50000000  0.32452770
   0.66667000  0.33333000  0.25855000
   0.83333268  0.50000000  0.32452938
   0.00000000  0.66667000  0.25855000
   0.16666715  0.83333285  0.32453196
   0.33333000  0.66667000  0.25855000
   0.50000000  0.83333268  0.32452938
   0.66667000  0.66667000  0.25855000
   0.83333285  0.83333285  0.32453196
