Nb2                                     
   1.00000000000000     
     3.2855404530109937    0.0000000000000000    0.0000000000000002
    -0.0000000000000002    3.2855404530109937    0.0000000000000002
     0.0000000000000000    0.0000000000000000    3.3176323792962288
   Nb
     2
Direct
 -0.0000000000000000 -0.0000000000000000 -0.0000000000000000
  0.5000000000000000  0.5000000000000000  0.5000000000000000
 
  0.00000000E+00  0.00000000E+00  0.00000000E+00
  0.00000000E+00  0.00000000E+00  0.00000000E+00
