   2   2   0   0
  0.1825807E+02  0.3317632E-09  0.3317632E-09  0.3317632E-09  0.5000000E-15
  1.000000000000000E-004
  CAR 
 ni3al                                   
     19.65362112    -46.08963209  301     11.21595523      1.00000000
    -46.090  0.0000E+00  0.0000E+00
    -45.870  0.0000E+00  0.0000E+00
    -45.651  0.0000E+00  0.0000E+00
    -45.432  0.0000E+00  0.0000E+00
    -45.213  0.0000E+00  0.0000E+00
    -44.994  0.0000E+00  0.0000E+00
    -44.775  0.0000E+00  0.0000E+00
    -44.556  0.0000E+00  0.0000E+00
    -44.336  0.0000E+00  0.0000E+00
    -44.117 -0.1024E-47 -0.2245E-48
    -43.898 -0.1549E-30 -0.3395E-31
    -43.679 -0.1501E-17 -0.3289E-18
    -43.460 -0.1024E-08 -0.2244E-09
    -43.241 -0.4818E-04 -0.1056E-04
    -43.022  0.2718E-02  0.5851E-03
    -42.802  0.4536E-01  0.1053E-01
    -42.583  0.1299E-01  0.1337E-01
    -42.364 -0.1856E-03  0.1333E-01
    -42.145 -0.1344E-07  0.1333E-01
    -41.926 -0.7014E-16  0.1333E-01
    -41.707  0.0000E+00  0.1333E-01
    -41.488  0.0000E+00  0.1333E-01
    -41.268  0.0000E+00  0.1333E-01
    -41.049  0.0000E+00  0.1333E-01
    -40.830  0.0000E+00  0.1333E-01
    -40.611  0.0000E+00  0.1333E-01
    -40.392  0.0000E+00  0.1333E-01
    -40.173  0.0000E+00  0.1333E-01
    -39.954  0.0000E+00  0.1333E-01
    -39.734  0.0000E+00  0.1333E-01
    -39.515  0.0000E+00  0.1333E-01
    -39.296  0.0000E+00  0.1333E-01
    -39.077  0.0000E+00  0.1333E-01
    -38.858  0.0000E+00  0.1333E-01
    -38.639  0.0000E+00  0.1333E-01
    -38.420  0.0000E+00  0.1333E-01
    -38.200  0.0000E+00  0.1333E-01
    -37.981  0.0000E+00  0.1333E-01
    -37.762  0.0000E+00  0.1333E-01
    -37.543  0.0000E+00  0.1333E-01
    -37.324  0.0000E+00  0.1333E-01
    -37.105  0.0000E+00  0.1333E-01
    -36.886  0.0000E+00  0.1333E-01
    -36.666  0.0000E+00  0.1333E-01
    -36.447  0.0000E+00  0.1333E-01
    -36.228  0.0000E+00  0.1333E-01
    -36.009  0.0000E+00  0.1333E-01
    -35.790  0.0000E+00  0.1333E-01
    -35.571  0.0000E+00  0.1333E-01
    -35.352  0.0000E+00  0.1333E-01
    -35.132  0.0000E+00  0.1333E-01
    -34.913  0.0000E+00  0.1333E-01
    -34.694  0.0000E+00  0.1333E-01
    -34.475  0.0000E+00  0.1333E-01
    -34.256  0.0000E+00  0.1333E-01
    -34.037  0.0000E+00  0.1333E-01
    -33.818  0.0000E+00  0.1333E-01
    -33.598  0.0000E+00  0.1333E-01
    -33.379  0.0000E+00  0.1333E-01
    -33.160  0.0000E+00  0.1333E-01
    -32.941  0.0000E+00  0.1333E-01
    -32.722  0.0000E+00  0.1333E-01
    -32.503  0.0000E+00  0.1333E-01
    -32.284  0.0000E+00  0.1333E-01
    -32.064  0.0000E+00  0.1333E-01
    -31.845  0.0000E+00  0.1333E-01
    -31.626  0.0000E+00  0.1333E-01
    -31.407  0.0000E+00  0.1333E-01
    -31.188  0.0000E+00  0.1333E-01
    -30.969  0.0000E+00  0.1333E-01
    -30.750  0.0000E+00  0.1333E-01
    -30.530  0.0000E+00  0.1333E-01
    -30.311  0.0000E+00  0.1333E-01
    -30.092  0.0000E+00  0.1333E-01
    -29.873  0.0000E+00  0.1333E-01
    -29.654  0.0000E+00  0.1333E-01
    -29.435  0.0000E+00  0.1333E-01
    -29.216  0.0000E+00  0.1333E-01
    -28.996  0.0000E+00  0.1333E-01
    -28.777  0.0000E+00  0.1333E-01
    -28.558  0.0000E+00  0.1333E-01
    -28.339  0.0000E+00  0.1333E-01
    -28.120  0.0000E+00  0.1333E-01
    -27.901  0.0000E+00  0.1333E-01
    -27.682  0.0000E+00  0.1333E-01
    -27.462  0.0000E+00  0.1333E-01
    -27.243  0.0000E+00  0.1333E-01
    -27.024  0.0000E+00  0.1333E-01
    -26.805  0.0000E+00  0.1333E-01
    -26.586  0.0000E+00  0.1333E-01
    -26.367  0.0000E+00  0.1333E-01
    -26.148  0.0000E+00  0.1333E-01
    -25.928  0.0000E+00  0.1333E-01
    -25.709  0.0000E+00  0.1333E-01
    -25.490  0.0000E+00  0.1333E-01
    -25.271  0.0000E+00  0.1333E-01
    -25.052  0.0000E+00  0.1333E-01
    -24.833  0.0000E+00  0.1333E-01
    -24.614  0.0000E+00  0.1333E-01
    -24.394  0.0000E+00  0.1333E-01
    -24.175  0.0000E+00  0.1333E-01
    -23.956  0.0000E+00  0.1333E-01
    -23.737  0.0000E+00  0.1333E-01
    -23.518  0.0000E+00  0.1333E-01
    -23.299  0.0000E+00  0.1333E-01
    -23.079  0.0000E+00  0.1333E-01
    -22.860  0.0000E+00  0.1333E-01
    -22.641  0.0000E+00  0.1333E-01
    -22.422  0.0000E+00  0.1333E-01
    -22.203  0.0000E+00  0.1333E-01
    -21.984  0.0000E+00  0.1333E-01
    -21.765  0.0000E+00  0.1333E-01
    -21.545  0.0000E+00  0.1333E-01
    -21.326  0.0000E+00  0.1333E-01
    -21.107  0.0000E+00  0.1333E-01
    -20.888  0.0000E+00  0.1333E-01
    -20.669 -0.1236E-35  0.1333E-01
    -20.450 -0.3427E-21  0.1333E-01
    -20.231 -0.5748E-11  0.1333E-01
    -20.011 -0.5713E-05  0.1333E-01
    -19.792  0.5945E-03  0.1346E-01
    -19.573  0.1840E-01  0.1749E-01
    -19.354  0.2846E-01  0.2373E-01
    -19.135  0.1619E-01  0.2728E-01
    -18.916  0.2357E-01  0.3244E-01
    -18.697  0.3515E-01  0.4015E-01
    -18.477  0.4975E-01  0.5105E-01
    -18.258  0.1055E-01  0.5336E-01
    -18.039 -0.1301E-03  0.5333E-01
    -17.820 -0.5747E-07  0.5333E-01
    -17.601 -0.1982E-14  0.5333E-01
    -17.382  0.0000E+00  0.5333E-01
    -17.163  0.0000E+00  0.5333E-01
    -16.943  0.0000E+00  0.5333E-01
    -16.724  0.0000E+00  0.5333E-01
    -16.505  0.0000E+00  0.5333E-01
    -16.286  0.0000E+00  0.5333E-01
    -16.067  0.0000E+00  0.5333E-01
    -15.848  0.0000E+00  0.5333E-01
    -15.629  0.0000E+00  0.5333E-01
    -15.409  0.0000E+00  0.5333E-01
    -15.190  0.0000E+00  0.5333E-01
    -14.971  0.0000E+00  0.5333E-01
    -14.752  0.0000E+00  0.5333E-01
    -14.533  0.0000E+00  0.5333E-01
    -14.314  0.0000E+00  0.5333E-01
    -14.095  0.0000E+00  0.5333E-01
    -13.875  0.0000E+00  0.5333E-01
    -13.656  0.0000E+00  0.5333E-01
    -13.437  0.0000E+00  0.5333E-01
    -13.218  0.0000E+00  0.5333E-01
    -12.999  0.0000E+00  0.5333E-01
    -12.780  0.0000E+00  0.5333E-01
    -12.561  0.0000E+00  0.5333E-01
    -12.341  0.0000E+00  0.5333E-01
    -12.122  0.0000E+00  0.5333E-01
    -11.903  0.0000E+00  0.5333E-01
    -11.684  0.0000E+00  0.5333E-01
    -11.465  0.0000E+00  0.5333E-01
    -11.246  0.0000E+00  0.5333E-01
    -11.027  0.0000E+00  0.5333E-01
    -10.807  0.0000E+00  0.5333E-01
    -10.588  0.0000E+00  0.5333E-01
    -10.369  0.0000E+00  0.5333E-01
    -10.150  0.0000E+00  0.5333E-01
     -9.931  0.0000E+00  0.5333E-01
     -9.712  0.0000E+00  0.5333E-01
     -9.493  0.0000E+00  0.5333E-01
     -9.273  0.0000E+00  0.5333E-01
     -9.054  0.0000E+00  0.5333E-01
     -8.835  0.0000E+00  0.5333E-01
     -8.616  0.0000E+00  0.5333E-01
     -8.397  0.0000E+00  0.5333E-01
     -8.178  0.0000E+00  0.5333E-01
     -7.959  0.0000E+00  0.5333E-01
     -7.739  0.0000E+00  0.5333E-01
     -7.520  0.0000E+00  0.5333E-01
     -7.301  0.0000E+00  0.5333E-01
     -7.082  0.0000E+00  0.5333E-01
     -6.863  0.0000E+00  0.5333E-01
     -6.644  0.0000E+00  0.5333E-01
     -6.425  0.0000E+00  0.5333E-01
     -6.205  0.0000E+00  0.5333E-01
     -5.986  0.0000E+00  0.5333E-01
     -5.767  0.0000E+00  0.5333E-01
     -5.548  0.0000E+00  0.5333E-01
     -5.329  0.0000E+00  0.5333E-01
     -5.110  0.0000E+00  0.5333E-01
     -4.891  0.0000E+00  0.5333E-01
     -4.671  0.0000E+00  0.5333E-01
     -4.452  0.0000E+00  0.5333E-01
     -4.233  0.0000E+00  0.5333E-01
     -4.014  0.0000E+00  0.5333E-01
     -3.795  0.0000E+00  0.5333E-01
     -3.576  0.0000E+00  0.5333E-01
     -3.357  0.0000E+00  0.5333E-01
     -3.137  0.0000E+00  0.5333E-01
     -2.918  0.0000E+00  0.5333E-01
     -2.699  0.0000E+00  0.5333E-01
     -2.480  0.0000E+00  0.5333E-01
     -2.261  0.0000E+00  0.5333E-01
     -2.042  0.0000E+00  0.5333E-01
     -1.823  0.0000E+00  0.5333E-01
     -1.603  0.0000E+00  0.5333E-01
     -1.384  0.0000E+00  0.5333E-01
     -1.165  0.0000E+00  0.5333E-01
     -0.946  0.0000E+00  0.5333E-01
     -0.727  0.0000E+00  0.5333E-01
     -0.508  0.0000E+00  0.5333E-01
     -0.288  0.0000E+00  0.5333E-01
     -0.069  0.0000E+00  0.5333E-01
      0.150  0.0000E+00  0.5333E-01
      0.369  0.0000E+00  0.5333E-01
      0.588  0.0000E+00  0.5333E-01
      0.807  0.0000E+00  0.5333E-01
      1.026  0.0000E+00  0.5333E-01
      1.246  0.0000E+00  0.5333E-01
      1.465  0.0000E+00  0.5333E-01
      1.684  0.0000E+00  0.5333E-01
      1.903  0.0000E+00  0.5333E-01
      2.122  0.0000E+00  0.5333E-01
      2.341  0.0000E+00  0.5333E-01
      2.560  0.0000E+00  0.5333E-01
      2.780  0.0000E+00  0.5333E-01
      2.999  0.0000E+00  0.5333E-01
      3.218  0.0000E+00  0.5333E-01
      3.437  0.0000E+00  0.5333E-01
      3.656  0.0000E+00  0.5333E-01
      3.875  0.0000E+00  0.5333E-01
      4.094  0.0000E+00  0.5333E-01
      4.314  0.0000E+00  0.5333E-01
      4.533 -0.4170E-41  0.5333E-01
      4.752 -0.1854E-25  0.5333E-01
      4.971 -0.4840E-14  0.5333E-01
      5.190 -0.6556E-07  0.5333E-01
      5.409  0.1830E-04  0.5334E-01
      5.628  0.2299E-03  0.5339E-01
      5.848  0.2108E-03  0.5343E-01
      6.067  0.5085E-03  0.5355E-01
      6.286  0.6314E-03  0.5368E-01
      6.505  0.9001E-04  0.5370E-01
      6.724  0.9891E-03  0.5392E-01
      6.943  0.1323E-02  0.5421E-01
      7.162  0.3092E-03  0.5428E-01
      7.382  0.1196E-02  0.5454E-01
      7.601  0.1420E-02  0.5485E-01
      7.820  0.7155E-02  0.5642E-01
      8.039  0.4804E-02  0.5747E-01
      8.258  0.8197E-02  0.5927E-01
      8.477  0.8688E-02  0.6117E-01
      8.696  0.7101E-02  0.6273E-01
      8.916  0.1206E-01  0.6537E-01
      9.135  0.6946E-02  0.6689E-01
      9.354  0.4061E-02  0.6778E-01
      9.573  0.4756E-02  0.6883E-01
      9.792  0.1167E-01  0.7138E-01
     10.011  0.1569E-01  0.7482E-01
     10.230  0.9589E-02  0.7692E-01
     10.450  0.5854E-02  0.7821E-01
     10.669  0.7284E-02  0.7980E-01
     10.888  0.9968E-02  0.8199E-01
     11.107  0.1421E-01  0.8510E-01
     11.326  0.1171E-01  0.8767E-01
     11.545  0.5330E-02  0.8884E-01
     11.764  0.5059E-02  0.8994E-01
     11.984  0.5457E-02  0.9114E-01
     12.203  0.2530E-02  0.9169E-01
     12.422  0.2102E-02  0.9215E-01
     12.641  0.3836E-02  0.9300E-01
     12.860  0.2506E-02  0.9354E-01
     13.079  0.4653E-02  0.9456E-01
     13.298  0.8873E-02  0.9651E-01
     13.518  0.3851E-02  0.9735E-01
     13.737  0.3512E-02  0.9812E-01
     13.956  0.1137E-01  0.1006E+00
     14.175  0.7455E-02  0.1022E+00
     14.394  0.6316E-02  0.1036E+00
     14.613  0.1007E-01  0.1058E+00
     14.832  0.1136E-01  0.1083E+00
     15.052  0.1138E-01  0.1108E+00
     15.271  0.8867E-02  0.1128E+00
     15.490  0.2065E-01  0.1173E+00
     15.709  0.4199E-02  0.1182E+00
     15.928  0.3295E-02  0.1189E+00
     16.147  0.3184E-02  0.1196E+00
     16.366  0.8161E-03  0.1198E+00
     16.586  0.6417E-03  0.1199E+00
     16.805  0.2441E-03  0.1200E+00
     17.024 -0.7780E-05  0.1200E+00
     17.243 -0.5924E-09  0.1200E+00
     17.462 -0.1189E-17  0.1200E+00
     17.681  0.0000E+00  0.1200E+00
     17.900  0.0000E+00  0.1200E+00
     18.120  0.0000E+00  0.1200E+00
     18.339  0.0000E+00  0.1200E+00
     18.558  0.0000E+00  0.1200E+00
     18.777  0.0000E+00  0.1200E+00
     18.996  0.0000E+00  0.1200E+00
     19.215  0.0000E+00  0.1200E+00
     19.434  0.0000E+00  0.1200E+00
     19.654  0.0000E+00  0.1200E+00
