    2    2  300    1
  0.1825807E+02  0.3317632E-09  0.3317632E-09  0.3317632E-09  0.5000000E-15
  1.000000000000000E-004
  CAR 
 ni3al                                   
     26     35     18
 
  0.5000000E-01  0.5000000E-01  0.5000000E-01  0.8000000E-02
      1        -43.101302   1.000000
      2        -42.690291   1.000000
      3        -19.375503   1.000000
      4        -19.349641   1.000000
      5        -19.257651   1.000000
      6        -18.483948   1.000000
      7        -18.444237   1.000000
      8        -18.329383   1.000000
      9          5.470396   1.000000
     10          7.584395   1.000000
     11          7.645521   1.000000
     12         11.533578  -0.000034
     13         11.565765  -0.000004
     14         11.803257  -0.000000
     15         14.347476   0.000000
     16         14.601472   0.000000
     17         15.999685   0.000000
     18         16.665291   0.000000
 
  0.1500000E+00  0.5000000E-01  0.5000000E-01  0.2400000E-01
      1        -43.078058   1.000000
      2        -42.707020   1.000000
      3        -19.399218   1.000000
      4        -19.300523   1.000000
      5        -19.196209   1.000000
      6        -18.601963   1.000000
      7        -18.474763   1.000000
      8        -18.363418   1.000000
      9          5.872582   1.000000
     10          7.840239   1.000000
     11          7.955409   1.000000
     12         11.393150  -0.015533
     13         11.496636  -0.000264
     14         12.095878  -0.000000
     15         13.979969   0.000000
     16         14.663011   0.000000
     17         14.852977   0.000000
     18         15.568025   0.000000
 
  0.2500000E+00  0.5000000E-01  0.5000000E-01  0.2400000E-01
      1        -43.034651   1.000000
      2        -42.739871   1.000000
      3        -19.408705   1.000000
      4        -19.211278   1.000000
      5        -19.097381   1.000000
      6        -18.780702   1.000000
      7        -18.552935   1.000000
      8        -18.437996   1.000000
      9          6.605927   1.000000
     10          8.273398   1.000000
     11          8.516280   1.000000
     12         11.331286  -0.034593
     13         11.412394  -0.008954
     14         12.524207  -0.000000
     15         13.122077  -0.000000
     16         13.719510  -0.000000
     17         14.358910   0.000000
     18         15.059666   0.000000
 
  0.3500000E+00  0.5000000E-01  0.5000000E-01  0.2400000E-01
      1        -42.976726   1.000000
      2        -42.787244   1.000000
      3        -19.382158   1.000000
      4        -19.089795   1.000000
      5        -18.981744   1.000000
      6        -18.971447   1.000000
      7        -18.666102   1.000000
      8        -18.548325   1.000000
      9          7.528077   1.000000
     10          8.890150   1.000000
     11          9.009121   1.000000
     12         11.241399   0.292210
     13         11.430370  -0.004882
     14         12.298177  -0.000000
     15         12.807746  -0.000000
     16         13.094175  -0.000000
     17         13.340814  -0.000000
     18         15.361779   0.000000
 
  0.4500000E+00  0.5000000E-01  0.5000000E-01  0.2400000E-01
      1        -42.911390   1.000000
      2        -42.846037   1.000000
      3        -19.302735   1.000000
      4        -19.165377   1.000000
      5        -18.948640   1.000000
      6        -18.828938   1.000000
      7        -18.802499   1.000000
      8        -18.683177   1.000000
      9          8.422104   1.000000
     10          8.994768   1.000000
     11          9.705492   1.000000
     12         10.587923   1.000000
     13         11.714486  -0.000000
     14         12.159823  -0.000000
     15         12.168429  -0.000000
     16         12.588730  -0.000000
     17         13.789489  -0.000000
     18         14.563056   0.000000
 
  0.1500000E+00  0.1500000E+00  0.5000000E-01  0.2400000E-01
      1        -43.056618   1.000000
      2        -42.721669   1.000000
      3        -19.458153   1.000000
      4        -19.241904   1.000000
      5        -19.119428   1.000000
      6        -18.754372   1.000000
      7        -18.448462   1.000000
      8        -18.402919   1.000000
      9          6.238223   1.000000
     10          8.109323   1.000000
     11          8.228717   1.000000
     12         11.060099   1.024984
     13         11.349332  -0.033886
     14         12.609227  -0.000000
     15         13.720570  -0.000000
     16         14.154768   0.000000
     17         14.433596   0.000000
     18         14.904364   0.000000
 
  0.2500000E+00  0.1500000E+00  0.5000000E-01  0.4800000E-01
      1        -43.016714   1.000000
      2        -42.750571   1.000000
      3        -19.502398   1.000000
      4        -19.149577   1.000000
      5        -19.009111   1.000000
      6        -18.951324   1.000000
      7        -18.495025   1.000000
      8        -18.460169   1.000000
      9          6.886027   1.000000
     10          8.463462   1.000000
     11          8.800715   1.000000
     12         10.826044   1.000000
     13         11.175600   0.812636
     14         12.691122  -0.000000
     15         13.235968  -0.000000
     16         13.648307  -0.000000
     17         13.917031  -0.000000
     18         14.840225   0.000000
 
  0.3500000E+00  0.1500000E+00  0.5000000E-01  0.4800000E-01
      1        -42.963679   1.000000
      2        -42.792600   1.000000
      3        -19.505018   1.000000
      4        -19.154443   1.000000
      5        -19.027248   1.000000
      6        -18.884274   1.000000
      7        -18.604882   1.000000
      8        -18.532025   1.000000
      9          7.660770   1.000000
     10          8.844516   1.000000
     11          9.359569   1.000000
     12         10.743081   1.000000
     13         11.014178   1.007545
     14         11.933646  -0.000000
     15         13.093639  -0.000000
     16         13.212669  -0.000000
     17         13.962388   0.000000
     18         15.361185   0.000000
 
  0.4500000E+00  0.1500000E+00  0.5000000E-01  0.4800000E-01
      1        -42.904237   1.000000
      2        -42.845231   1.000000
      3        -19.448935   1.000000
      4        -19.328762   1.000000
      5        -18.886073   1.000000
      6        -18.755431   1.000000
      7        -18.740370   1.000000
      8        -18.633942   1.000000
      9          8.375867   1.000000
     10          8.852229   1.000000
     11          9.896608   1.000000
     12         10.466491   1.000000
     13         11.066587   1.027932
     14         11.419299  -0.007165
     15         12.893726  -0.000000
     16         12.950160  -0.000000
     17         14.714021   0.000000
     18         15.402132   0.000000
 
  0.2500000E+00  0.2500000E+00  0.5000000E-01  0.2400000E-01
      1        -42.983517   1.000000
      2        -42.772046   1.000000
      3        -19.589253   1.000000
      4        -19.159927   1.000000
      5        -19.066981   1.000000
      6        -18.886272   1.000000
      7        -18.535437   1.000000
      8        -18.455406   1.000000
      9          7.325999   1.000000
     10          8.580994   1.000000
     11          9.451074   1.000000
     12         10.413613   1.000000
     13         11.077219   1.032224
     14         11.771851  -0.000000
     15         13.283690  -0.000000
     16         14.041784   0.000000
     17         14.206904   0.000000
     18         14.626300   0.000000
 
  0.3500000E+00  0.2500000E+00  0.5000000E-01  0.4800000E-01
      1        -42.939888   1.000000
      2        -42.803938   1.000000
      3        -19.632199   1.000000
      4        -19.359913   1.000000
      5        -18.962695   1.000000
      6        -18.760196   1.000000
      7        -18.620804   1.000000
      8        -18.481273   1.000000
      9          7.752982   1.000000
     10          8.565407   1.000000
     11         10.158793   1.000000
     12         10.208734   1.000000
     13         11.094068   1.035453
     14         11.184495   0.752192
     15         13.115133  -0.000000
     16         13.956767   0.000000
     17         14.976465   0.000000
     18         15.096147   0.000000
 
  0.4500000E+00  0.2500000E+00  0.5000000E-01  0.4800000E-01
      1        -42.891725   1.000000
      2        -42.844835   1.000000
      3        -19.610891   1.000000
      4        -19.517680   1.000000
      5        -18.845481   1.000000
      6        -18.727552   1.000000
      7        -18.643751   1.000000
      8        -18.547283   1.000000
      9          8.095819   1.000000
     10          8.378848   1.000000
     11         10.234282   1.000000
     12         10.435065   1.000000
     13         10.911717   1.000074
     14         11.187406   0.731034
     15         13.457024  -0.000000
     16         13.772497  -0.000000
     17         15.533104   0.000000
     18         16.018347   0.000000
 
  0.3500000E+00  0.3500000E+00  0.5000000E-01  0.2400000E-01
      1        -42.909377   1.000000
      2        -42.821985   1.000000
      3        -19.717272   1.000000
      4        -19.544886   1.000000
      5        -18.888317   1.000000
      6        -18.668121   1.000000
      7        -18.643520   1.000000
      8        -18.462541   1.000000
      9          7.747447   1.000000
     10          8.220557   1.000000
     11          9.863179   1.000000
     12         10.405969   1.000000
     13         11.124229   1.014274
     14         11.819944  -0.000000
     15         13.400912  -0.000000
     16         14.529229   0.000000
     17         14.936261   0.000000
     18         15.986283   0.000000
 
  0.4500000E+00  0.3500000E+00  0.5000000E-01  0.4800000E-01
      1        -42.876882   1.000000
      2        -42.846752   1.000000
      3        -19.735664   1.000000
      4        -19.676654   1.000000
      5        -18.808810   1.000000
      6        -18.732822   1.000000
      7        -18.549506   1.000000
      8        -18.486799   1.000000
      9          7.774810   1.000000
     10          7.931538   1.000000
     11          9.774895   1.000000
     12          9.960114   1.000000
     13         11.916640  -0.000000
     14         12.235612  -0.000000
     15         14.001530   0.000000
     16         14.470735   0.000000
     17         15.400044   0.000000
     18         16.358725   0.000000
 
  0.4500000E+00  0.4500000E+00  0.5000000E-01  0.2400000E-01
      1        -42.863022   1.000000
      2        -42.852623   1.000000
      3        -19.794892   1.000000
      4        -19.774737   1.000000
      5        -18.775341   1.000000
      6        -18.749121   1.000000
      7        -18.488742   1.000000
      8        -18.467013   1.000000
      9          7.606236   1.000000
     10          7.657594   1.000000
     11          9.557217   1.000000
     12          9.620996   1.000000
     13         12.976696  -0.000000
     14         13.204041  -0.000000
     15         14.498536   0.000000
     16         14.735383   0.000000
     17         15.220895   0.000000
     18         15.765633   0.000000
 
  0.1500000E+00  0.1500000E+00  0.1500000E+00  0.8000000E-02
      1        -43.037294   1.000000
      2        -42.734934   1.000000
      3        -19.408068   1.000000
      4        -19.347572   1.000000
      5        -18.993898   1.000000
      6        -18.856584   1.000000
      7        -18.496806   1.000000
      8        -18.400699   1.000000
      9          6.582599   1.000000
     10          8.396926   1.000000
     11          8.455425   1.000000
     12         10.926528   1.000167
     13         10.967577   1.001245
     14         12.584757  -0.000000
     15         13.219475  -0.000000
     16         14.204546   0.000000
     17         14.404873   0.000000
     18         15.717395   0.000000
 
  0.2500000E+00  0.1500000E+00  0.1500000E+00  0.2400000E-01
      1        -43.000569   1.000000
      2        -42.760324   1.000000
      3        -19.477792   1.000000
      4        -19.261633   1.000000
      5        -19.043852   1.000000
      6        -18.871518   1.000000
      7        -18.547803   1.000000
      8        -18.437466   1.000000
      9          7.192527   1.000000
     10          8.763659   1.000000
     11          8.972292   1.000000
     12         10.675898   1.000000
     13         10.734034   1.000000
     14         11.643719  -0.000000
     15         13.907675  -0.000000
     16         13.974663   0.000000
     17         14.632947   0.000000
     18         14.740151   0.000000
 
  0.3500000E+00  0.1500000E+00  0.1500000E+00  0.2400000E-01
      1        -42.951988   1.000000
      2        -42.797552   1.000000
      3        -19.511866   1.000000
      4        -19.232555   1.000000
      5        -19.130081   1.000000
      6        -18.752515   1.000000
      7        -18.665571   1.000000
      8        -18.481809   1.000000
      9          7.880139   1.000000
     10          9.199414   1.000000
     11          9.274731   1.000000
     12         10.461406   1.000000
     13         10.731987   1.000000
     14         11.220345   0.462888
     15         13.441444  -0.000000
     16         13.767161  -0.000000
     17         14.772843   0.000000
     18         15.279919   0.000000
 
  0.4500000E+00  0.1500000E+00  0.1500000E+00  0.2400000E-01
      1        -42.897899   1.000000
      2        -42.844641   1.000000
      3        -19.483835   1.000000
      4        -19.387508   1.000000
      5        -18.975579   1.000000
      6        -18.814883   1.000000
      7        -18.643528   1.000000
      8        -18.551209   1.000000
      9          8.485000   1.000000
     10          8.984771   1.000000
     11          9.698993   1.000000
     12         10.133070   1.000000
     13         11.031579   1.012807
     14         11.232372   0.363125
     15         13.156759  -0.000000
     16         13.252998  -0.000000
     17         15.229507   0.000000
     18         15.396791   0.000000
 
  0.2500000E+00  0.2500000E+00  0.1500000E+00  0.2400000E-01
      1        -42.969960   1.000000
      2        -42.779055   1.000000
      3        -19.533739   1.000000
      4        -19.218331   1.000000
      5        -19.216574   1.000000
      6        -18.758430   1.000000
      7        -18.529312   1.000000
      8        -18.510488   1.000000
      9          7.686429   1.000000
     10          8.983336   1.000000
     11          9.521998   1.000000
     12         10.289329   1.000000
     13         10.592064   1.000000
     14         10.815116   1.000000
     15         14.270827   0.000000
     16         14.302536   0.000000
     17         14.611831   0.000000
     18         14.904356   0.000000
 
  0.3500000E+00  0.2500000E+00  0.1500000E+00  0.4800000E-01
      1        -42.929927   1.000000
      2        -42.807192   1.000000
      3        -19.585772   1.000000
      4        -19.385795   1.000000
      5        -19.101737   1.000000
      6        -18.660599   1.000000
      7        -18.648806   1.000000
      8        -18.509089   1.000000
      9          8.116621   1.000000
     10          8.936958   1.000000
     11          9.946071   1.000000
     12         10.089167   1.000000
     13         10.682900   1.000000
     14         10.710558   1.000000
     15         13.829605  -0.000000
     16         14.092371   0.000000
     17         15.064763   0.000000
     18         15.862701   0.000000
 
  0.4500000E+00  0.2500000E+00  0.1500000E+00  0.4800000E-01
      1        -42.886048   1.000000
      2        -42.843717   1.000000
      3        -19.584796   1.000000
      4        -19.516109   1.000000
      5        -18.953395   1.000000
      6        -18.796296   1.000000
      7        -18.584384   1.000000
      8        -18.533151   1.000000
      9          8.402475   1.000000
     10          8.676743   1.000000
     11          9.970657   1.000000
     12         10.006215   1.000000
     13         11.007097   1.005943
     14         11.036904   1.014799
     15         13.756257  -0.000000
     16         13.866340  -0.000000
     17         15.392731   0.000000
     18         15.618186   0.000000
 
  0.3500000E+00  0.3500000E+00  0.1500000E+00  0.2400000E-01
      1        -42.901783   1.000000
      2        -42.822877   1.000000
      3        -19.656558   1.000000
      4        -19.533206   1.000000
      5        -19.013874   1.000000
      6        -18.688161   1.000000
      7        -18.591317   1.000000
      8        -18.524316   1.000000
      9          8.160054   1.000000
     10          8.554095   1.000000
     11          9.800374   1.000000
     12         10.112140   1.000000
     13         11.019434   1.008931
     14         11.239535   0.306468
     15         13.919756  -0.000000
     16         14.590487   0.000000
     17         14.980761   0.000000
     18         16.086988   0.000000
 
  0.4500000E+00  0.3500000E+00  0.1500000E+00  0.4800000E-01
      1        -42.872081   1.000000
      2        -42.844877   1.000000
      3        -19.680483   1.000000
      4        -19.638440   1.000000
      5        -18.898595   1.000000
      6        -18.781671   1.000000
      7        -18.548869   1.000000
      8        -18.530045   1.000000
      9          8.156324   1.000000
     10          8.272860   1.000000
     11          9.719710   1.000000
     12          9.846322   1.000000
     13         11.688143  -0.000000
     14         11.771274  -0.000000
     15         14.253750   0.000000
     16         14.526552   0.000000
     17         15.306474   0.000000
     18         15.738576   0.000000
 
  0.4500000E+00  0.4500000E+00  0.1500000E+00  0.2400000E-01
      1        -42.859211   1.000000
      2        -42.849827   1.000000
      3        -19.731160   1.000000
      4        -19.716909   1.000000
      5        -18.836356   1.000000
      6        -18.792206   1.000000
      7        -18.535764   1.000000
      8        -18.532944   1.000000
      9          8.002833   1.000000
     10          8.035437   1.000000
     11          9.540906   1.000000
     12          9.595715   1.000000
     13         12.504291  -0.000000
     14         12.564713  -0.000000
     15         14.667225   0.000000
     16         14.819731   0.000000
     17         15.248751   0.000000
     18         15.501564   0.000000
 
  0.2500000E+00  0.2500000E+00  0.2500000E+00  0.8000000E-02
      1        -42.945045   1.000000
      2        -42.793367   1.000000
      3        -19.428036   1.000000
      4        -19.357974   1.000000
      5        -19.310606   1.000000
      6        -18.653118   1.000000
      7        -18.615484   1.000000
      8        -18.519483   1.000000
      9          8.267796   1.000000
     10          9.637215   1.000000
     11          9.674030   1.000000
     12          9.980032   1.000000
     13         10.116784   1.000000
     14         10.151230   1.000000
     15         14.530533   0.000000
     16         14.660367   0.000000
     17         15.031092   0.000000
     18         15.139670   0.000000
 
  0.3500000E+00  0.2500000E+00  0.2500000E+00  0.2400000E-01
      1        -42.911879   1.000000
      2        -42.814372   1.000000
      3        -19.513163   1.000000
      4        -19.433971   1.000000
      5        -19.223833   1.000000
      6        -18.706278   1.000000
      7        -18.587223   1.000000
      8        -18.547044   1.000000
      9          8.669936   1.000000
     10          9.286793   1.000000
     11          9.771747   1.000000
     12          9.980232   1.000000
     13         10.207197   1.000000
     14         10.506047   1.000000
     15         14.436511   0.000000
     16         14.445501   0.000000
     17         15.037325   0.000000
     18         15.408627   0.000000
 
  0.4500000E+00  0.2500000E+00  0.2500000E+00  0.2400000E-01
      1        -42.876178   1.000000
      2        -42.842550   1.000000
      3        -19.551244   1.000000
      4        -19.522261   1.000000
      5        -19.051856   1.000000
      6        -18.871769   1.000000
      7        -18.551014   1.000000
      8        -18.540815   1.000000
      9          8.747492   1.000000
     10          8.901046   1.000000
     11          9.839369   1.000000
     12          9.889930   1.000000
     13         10.742113   1.000000
     14         10.958416   1.000821
     15         14.199758   0.000000
     16         14.246887   0.000000
     17         15.343975   0.000000
     18         15.412116   0.000000
 
  0.3500000E+00  0.3500000E+00  0.2500000E+00  0.2400000E-01
      1        -42.888248   1.000000
      2        -42.825574   1.000000
      3        -19.540880   1.000000
      4        -19.515974   1.000000
      5        -19.166362   1.000000
      6        -18.708244   1.000000
      7        -18.641829   1.000000
      8        -18.566903   1.000000
      9          8.906095   1.000000
     10          8.960755   1.000000
     11          9.737803   1.000000
     12         10.005036   1.000000
     13         10.491990   1.000000
     14         10.796377   1.000000
     15         14.571989   0.000000
     16         14.814338   0.000000
     17         15.025374   0.000000
     18         15.421969   0.000000
 
  0.4500000E+00  0.3500000E+00  0.2500000E+00  0.4800000E-01
      1        -42.863874   1.000000
      2        -42.842259   1.000000
      3        -19.578785   1.000000
      4        -19.571591   1.000000
      5        -19.022290   1.000000
      6        -18.855474   1.000000
      7        -18.612151   1.000000
      8        -18.578570   1.000000
      9          8.764907   1.000000
     10          8.787466   1.000000
     11          9.718248   1.000000
     12          9.851370   1.000000
     13         11.100087   1.034723
     14         11.254417   0.199665
     15         14.647698   0.000000
     16         14.754752   0.000000
     17         15.288137   0.000000
     18         15.407018   0.000000
 
  0.4500000E+00  0.4500000E+00  0.2500000E+00  0.2400000E-01
      1        -42.852894   1.000000
      2        -42.845444   1.000000
      3        -19.609491   1.000000
      4        -19.608352   1.000000
      5        -18.936276   1.000000
      6        -18.858496   1.000000
      7        -18.658166   1.000000
      8        -18.627579   1.000000
      9          8.671167   1.000000
     10          8.704704   1.000000
     11          9.559355   1.000000
     12          9.639134   1.000000
     13         11.719882  -0.000000
     14         11.779217  -0.000000
     15         14.939156   0.000000
     16         15.012649   0.000000
     17         15.291100   0.000000
     18         15.368535   0.000000
 
  0.3500000E+00  0.3500000E+00  0.3500000E+00  0.8000000E-02
      1        -42.871625   1.000000
      2        -42.831327   1.000000
      3        -19.496729   1.000000
      4        -19.381013   1.000000
      5        -19.303929   1.000000
      6        -18.803509   1.000000
      7        -18.704924   1.000000
      8        -18.581186   1.000000
      9          9.036715   1.000000
     10          9.750130   1.000000
     11          9.751091   1.000000
     12          9.891993   1.000000
     13         10.453284   1.000000
     14         10.478547   1.000000
     15         15.030537   0.000000
     16         15.058666   0.000000
     17         15.083718   0.000000
     18         15.098938   0.000000
 
  0.4500000E+00  0.3500000E+00  0.3500000E+00  0.2400000E-01
      1        -42.854600   1.000000
      2        -42.840701   1.000000
      3        -19.493710   1.000000
      4        -19.454818   1.000000
      5        -19.128722   1.000000
      6        -18.933387   1.000000
      7        -18.707109   1.000000
      8        -18.640391   1.000000
      9          9.067687   1.000000
     10          9.306365   1.000000
     11          9.870086   1.000000
     12         10.121627   1.000000
     13         10.638146   1.000000
     14         10.872222   1.000007
     15         14.992393   0.000000
     16         15.029246   0.000000
     17         15.304606   0.000000
     18         15.317853   0.000000
 
  0.4500000E+00  0.4500000E+00  0.3500000E+00  0.2400000E-01
      1        -42.846212   1.000000
      2        -42.841425   1.000000
      3        -19.463860   1.000000
      4        -19.441178   1.000000
      5        -19.049200   1.000000
      6        -18.915459   1.000000
      7        -18.830110   1.000000
      8        -18.749922   1.000000
      9          9.256176   1.000000
     10          9.498979   1.000000
     11          9.680340   1.000000
     12          9.935428   1.000000
     13         10.947663   1.000492
     14         11.038496   1.015427
     15         15.210721   0.000000
     16         15.235921   0.000000
     17         15.328810   0.000000
     18         15.340446   0.000000
 
  0.4500000E+00  0.4500000E+00  0.4500000E+00  0.8000000E-02
      1        -42.841324   1.000000
      2        -42.839669   1.000000
      3        -19.307309   1.000000
      4        -19.242091   1.000000
      5        -19.167607   1.000000
      6        -19.031484   1.000000
      7        -18.927103   1.000000
      8        -18.866763   1.000000
      9          9.638214   1.000000
     10          9.920990   1.000000
     11          9.956656   1.000000
     12         10.355680   1.000000
     13         10.412966   1.000000
     14         10.485247   1.000000
     15         15.347090   0.000000
     16         15.348142   0.000000
     17         15.376514   0.000000
     18         15.381980   0.000000
