 vasp.6.3.2 27Jun22 (build Jun 20 2023 10:49:10) complex                        
  
 executed on             LinuxIFC date 2025.08.31  10:38:07
 running on   64 total cores
 distrk:  each k-point on    8 cores,    8 groups
 distr:  one band on NCORE=   4 cores,    2 groups


--------------------------------------------------------------------------------------------------------


 INCAR:
   SYSTEM = ni3al
   PREC = Accurate
   EDIFF = 1E-6
   EDIFFG = -1E-2
   ISTART = 0
   ICHARG = 2
   LREAL = Auto
   NSW = 300
   ISIF = 3
   IBRION = 2
   ISMEAR = 1
   SIGMA = 0.1
   ENCUT = 430
   ALGO = Normal
   LMAXMIX = 4
   AMIN = 0.01
   NELM = 150
   LCHARG = .FALSE.
   LWAVE = .FALSE.
   NCORE = 4
   KPAR = 8

 POTCAR:    PAW_PBE Nb_sv 25May2007               
 POTCAR:    PAW_PBE Nb_sv 25May2007               
   VRHFIN =Nb: 4p5s4d                                                                               
   LEXCH  = PE                                                                                      
   EATOM  =  1555.1913 eV,  114.3033 Ry                                                             
                                                                                                    
   TITEL  = PAW_PBE Nb_sv 25May2007                                                                 
   LULTRA =        F    use ultrasoft PP ?                                                          
   IUNSCR =        1    unscreen: 0-lin 1-nonlin 2-no                                               
   RPACOR =    1.800    partial core radius                                                         
   POMASS =   92.910; ZVAL   =   13.000    mass and valenz                                          
   RCORE  =    2.400    outmost cutoff radius                                                       
   RWIGS  =    2.400; RWIGS  =    1.270    wigner-seitz radius (au A)                               
   ENMAX  =  293.235; ENMIN  =  219.927 eV                                                          
   ICORE  =        3    local potential                                                             
   LCOR   =        T    correct aug charges                                                         
   LPAW   =        T    paw PP                                                                      
   EAUG   =  455.659                                                                                
   DEXC   =    0.000                                                                                
   RMAX   =    2.456    core radius for proj-oper                                                   
   RAUG   =    1.300    factor for augmentation sphere                                              
   RDEP   =    2.451    radius for radial grids                                                     
   RDEPT  =    1.956    core radius for aug-charge                                                  
                                                                                                    
   Atomic configuration                                                                             
   11 entries                                                                                       
     n  l   j            E        occ.                                                              
     1  0  0.50    -18805.2457   2.0000                                                             
     2  0  0.50     -2630.2869   2.0000                                                             
     2  1  1.50     -2348.4046   6.0000                                                             
     3  0  0.50      -438.8757   2.0000                                                             
     3  1  1.50      -346.7588   6.0000                                                             
     3  2  2.50      -196.2560  10.0000                                                             
     4  0  0.50       -58.3859   2.0000                                                             
     5  0  0.50        -3.9816   1.0000                                                             
     4  1  1.50       -34.5141   6.0000                                                             
     4  2  2.50        -3.0408   4.0000                                                             
     4  3  2.50        -1.3606   0.0000                                                             
   Description                                                                                      
     l       E           TYP  RCUT    TYP  RCUT                                                     
     0    -58.3859094     23  2.200                                                                 
     0     -3.9816262     23  2.200                                                                 
     1    -34.5140738     23  2.200                                                                 
     1     13.6058260     23  2.200                                                                 
     2     -3.0408010     23  2.200                                                                 
     2     -0.1283038     23  2.200                                                                 
     3     -1.3605826     23  2.400                                                                 
  local pseudopotential read in
  partial core-charges read in
  partial kinetic energy density read in
  atomic valenz-charges read in
  non local Contribution for L=           0  read in
    real space projection operators read in
  non local Contribution for L=           0  read in
    real space projection operators read in
  non local Contribution for L=           1  read in
    real space projection operators read in
  non local Contribution for L=           1  read in
    real space projection operators read in
  non local Contribution for L=           2  read in
    real space projection operators read in
  non local Contribution for L=           2  read in
    real space projection operators read in
    PAW grid and wavefunctions read in
 
   number of l-projection  operators is LMAX  =           6
   number of lm-projection operators is LMMAX =          18
 
 -----------------------------------------------------------------------------
|                                                                             |
|               ----> ADVICE to this user running VASP <----                  |
|                                                                             |
|     You have a (more or less) 'small supercell' and for smaller cells       |
|     it is recommended to use the reciprocal-space projection scheme!        |
|     The real-space optimization is not efficient for small cells and it     |
|     is also less accurate ...                                               |
|     Therefore, set LREAL=.FALSE. in the INCAR file.                         |
|                                                                             |
 -----------------------------------------------------------------------------

 Optimization of the real space projectors (new method)

 maximal supplied QI-value         = 15.68
 optimisation between [QCUT,QGAM] = [ 10.51, 21.17] = [ 30.92,125.55] Ry 
 Optimized for a Real-space Cutoff    1.69 Angstroem

   l    n(q)    QCUT    max X(q) W(low)/X(q) W(high)/X(q)  e(spline) 
   0     11    10.509    10.201    0.24E-04    0.32E-05    0.38E-07
   0     11    10.509     8.174    0.36E-04    0.57E-05    0.79E-07
   1     10    10.509     3.488    0.25E-04    0.18E-04    0.88E-07
   1     10    10.509     4.917    0.17E-03    0.98E-04    0.48E-06
   2     10    10.509   153.744    0.15E-03    0.11E-03    0.12E-05
   2     10    10.509   126.342    0.15E-03    0.10E-03    0.12E-05
  PAW_PBE Nb_sv 25May2007               :
 energy of atom  1       EATOM=-1555.1913
 kinetic energy error for atom=    0.0142 (will be added to EATOM!!)
 
 
 POSCAR: Nb2
  positions in direct lattice
  No initial velocities read in
 exchange correlation table for  LEXCH =        8
   RHO(1)=    0.500       N(1)  =     2000
   RHO(2)=  100.500       N(2)  =     4000

 VTST: version 4.1, (05/19/21)

 CHAIN: initializing optimizer
 
 OPT: Using VASP Conjugate-Gradient optimizer
 CHAIN: Read ICHAIN            0
 
 POSCAR: Nb2
  positions in direct lattice
  No initial velocities read in
 


--------------------------------------------------------------------------------------------------------


 ion  position               nearest neighbor table
   1  0.000  0.000  0.000-   2 2.87   2 2.87   2 2.87   2 2.87   2 2.87   2 2.87   2 2.87   2 2.87

   2  0.500  0.500  0.500-   1 2.87   1 2.87   1 2.87   1 2.87   1 2.87   1 2.87   1 2.87   1 2.87

 
  LATTYP: Found a simple cubic cell.
 ALAT       =     3.3176323793
  
  Lattice vectors:
  
 A1 = (   3.3176323793,   0.0000000000,   0.0000000000)
 A2 = (  -0.0000000000,   3.3176323793,   0.0000000000)
 A3 = (   0.0000000000,   0.0000000000,   3.3176323793)


Analysis of symmetry for initial positions (statically):
=====================================================================
 Subroutine PRICEL returns following result:
 
  LATTYP: Found a body centered cubic cell.
 ALAT       =     3.3176323793
  
  Lattice vectors:
  
 A1 = (   1.6588161896,   1.6588161896,  -1.6588161896)
 A2 = (  -1.6588161896,   1.6588161896,   1.6588161896)
 A3 = (   1.6588161896,  -1.6588161896,   1.6588161896)
 
   2 primitive cells build up your supercell.
 

 Routine SETGRP: Setting up the symmetry group for a 
 simple cubic supercell.


 Subroutine GETGRP returns: Found 48 space group operations
 (whereof 48 operations were pure point group operations)
 out of a pool of 48 trial point group operations.


The static configuration has the point symmetry O_h .


Analysis of symmetry for dynamics (positions and initial velocities):
=====================================================================
 Subroutine PRICEL returns following result:
 
  LATTYP: Found a body centered cubic cell.
 ALAT       =     3.3176323793
  
  Lattice vectors:
  
 A1 = (   1.6588161896,   1.6588161896,  -1.6588161896)
 A2 = (  -1.6588161896,   1.6588161896,   1.6588161896)
 A3 = (   1.6588161896,  -1.6588161896,   1.6588161896)
 
   2 primitive cells build up your supercell.
 

 Routine SETGRP: Setting up the symmetry group for a 
 simple cubic supercell.


 Subroutine GETGRP returns: Found 48 space group operations
 (whereof 48 operations were pure point group operations)
 out of a pool of 48 trial point group operations.


The dynamic configuration has the point symmetry O_h .


 Subroutine INISYM returns: Found 48 space group operations
 (whereof 48 operations are pure point group operations),
 and found     2 'primitive' translations


----------------------------------------------------------------------------------------

                                     Primitive cell                                     

  volume of cell :      18.2581

  direct lattice vectors                    reciprocal lattice vectors
     1.658816190  1.658816190 -1.658816190     0.301419773  0.301419773 -0.000000000
    -1.658816190  1.658816190  1.658816190    -0.000000000  0.301419773  0.301419773
     1.658816190 -1.658816190  1.658816190     0.301419773  0.000000000  0.301419773

  length of vectors
     2.873153921  2.873153921  2.873153921     0.426271932  0.426271932  0.426271932

  position of ions in fractional coordinates (direct lattice)
     0.000000000  0.000000000  0.000000000

  ion indices of the primitive-cell ions
   primitive index   ion index
                 1           1

----------------------------------------------------------------------------------------

 
 
 KPOINTS: K-Spacing Value to Generate K-Mesh: 0.03

Automatic generation of k-mesh.
 Grid dimensions read from file:
 generate k-points for:   10   10   10

 Generating k-lattice:

  Cartesian coordinates                     Fractional coordinates (reciprocal lattice)
     0.030141977  0.000000000  0.000000000     0.100000000  0.000000000  0.000000000
     0.000000000  0.030141977  0.000000000     0.000000000  0.100000000  0.000000000
    -0.000000000 -0.000000000  0.030141977    -0.000000000 -0.000000000  0.100000000

  Length of vectors
     0.030141977  0.030141977  0.030141977

  Shift w.r.t. Gamma in fractional coordinates (k-lattice)
     0.500000000  0.500000000  0.500000000

 
 Subroutine IBZKPT returns following result:
 ===========================================
 
 Found     35 irreducible k-points:
 
 Following reciprocal coordinates:
            Coordinates               Weight
  0.050000  0.050000  0.050000      8.000000
  0.150000  0.050000  0.050000     24.000000
  0.250000  0.050000  0.050000     24.000000
  0.350000  0.050000  0.050000     24.000000
  0.450000  0.050000  0.050000     24.000000
  0.150000  0.150000  0.050000     24.000000
  0.250000  0.150000  0.050000     48.000000
  0.350000  0.150000  0.050000     48.000000
  0.450000  0.150000  0.050000     48.000000
  0.250000  0.250000  0.050000     24.000000
  0.350000  0.250000  0.050000     48.000000
  0.450000  0.250000  0.050000     48.000000
  0.350000  0.350000  0.050000     24.000000
  0.450000  0.350000  0.050000     48.000000
  0.450000  0.450000  0.050000     24.000000
  0.150000  0.150000  0.150000      8.000000
  0.250000  0.150000  0.150000     24.000000
  0.350000  0.150000  0.150000     24.000000
  0.450000  0.150000  0.150000     24.000000
  0.250000  0.250000  0.150000     24.000000
  0.350000  0.250000  0.150000     48.000000
  0.450000  0.250000  0.150000     48.000000
  0.350000  0.350000  0.150000     24.000000
  0.450000  0.350000  0.150000     48.000000
  0.450000  0.450000  0.150000     24.000000
  0.250000  0.250000  0.250000      8.000000
  0.350000  0.250000  0.250000     24.000000
  0.450000  0.250000  0.250000     24.000000
  0.350000  0.350000  0.250000     24.000000
  0.450000  0.350000  0.250000     48.000000
  0.450000  0.450000  0.250000     24.000000
  0.350000  0.350000  0.350000      8.000000
  0.450000  0.350000  0.350000     24.000000
  0.450000  0.450000  0.350000     24.000000
  0.450000  0.450000  0.450000      8.000000
 
 Following cartesian coordinates:
            Coordinates               Weight
  0.015071  0.015071  0.015071      8.000000
  0.045213  0.015071  0.015071     24.000000
  0.075355  0.015071  0.015071     24.000000
  0.105497  0.015071  0.015071     24.000000
  0.135639  0.015071  0.015071     24.000000
  0.045213  0.045213  0.015071     24.000000
  0.075355  0.045213  0.015071     48.000000
  0.105497  0.045213  0.015071     48.000000
  0.135639  0.045213  0.015071     48.000000
  0.075355  0.075355  0.015071     24.000000
  0.105497  0.075355  0.015071     48.000000
  0.135639  0.075355  0.015071     48.000000
  0.105497  0.105497  0.015071     24.000000
  0.135639  0.105497  0.015071     48.000000
  0.135639  0.135639  0.015071     24.000000
  0.045213  0.045213  0.045213      8.000000
  0.075355  0.045213  0.045213     24.000000
  0.105497  0.045213  0.045213     24.000000
  0.135639  0.045213  0.045213     24.000000
  0.075355  0.075355  0.045213     24.000000
  0.105497  0.075355  0.045213     48.000000
  0.135639  0.075355  0.045213     48.000000
  0.105497  0.105497  0.045213     24.000000
  0.135639  0.105497  0.045213     48.000000
  0.135639  0.135639  0.045213     24.000000
  0.075355  0.075355  0.075355      8.000000
  0.105497  0.075355  0.075355     24.000000
  0.135639  0.075355  0.075355     24.000000
  0.105497  0.105497  0.075355     24.000000
  0.135639  0.105497  0.075355     48.000000
  0.135639  0.135639  0.075355     24.000000
  0.105497  0.105497  0.105497      8.000000
  0.135639  0.105497  0.105497     24.000000
  0.135639  0.135639  0.105497     24.000000
  0.135639  0.135639  0.135639      8.000000
 


--------------------------------------------------------------------------------------------------------




 Dimension of arrays:
   k-points           NKPTS =     35   k-points in BZ     NKDIM =     35   number of bands    NBANDS=     18
   number of dos      NEDOS =    301   number of ions     NIONS =      2
   non local maximal  LDIM  =      6   non local SUM 2l+1 LMDIM =     18
   total plane-waves  NPLWV =  13824
   max r-space proj   IRMAX =   7659   max aug-charges    IRDMAX=  16230
   dimension x,y,z NGX =    24 NGY =   24 NGZ =   24
   dimension x,y,z NGXF=    48 NGYF=   48 NGZF=   48
   support grid    NGXF=    48 NGYF=   48 NGZF=   48
   ions per type =               2
   NGX,Y,Z   is equivalent  to a cutoff of  12.03, 12.03, 12.03 a.u.
   NGXF,Y,Z  is equivalent  to a cutoff of  24.05, 24.05, 24.05 a.u.

 SYSTEM =  ni3al                                   
 POSCAR =  Nb2                                     

 Startparameter for this run:
   NWRITE =      2    write-flag & timer
   PREC   = accura    normal or accurate (medium, high low for compatibility)
   ISTART =      0    job   : 0-new  1-cont  2-samecut
   ICHARG =      2    charge: 1-file 2-atom 10-const
   ISPIN  =      1    spin polarized calculation?
   LNONCOLLINEAR =      F non collinear calculations
   LSORBIT =      F    spin-orbit coupling
   INIWAV =      1    electr: 0-lowe 1-rand  2-diag
   LASPH  =      F    aspherical Exc in radial PAW
 Electronic Relaxation 1
   ENCUT  =  430.0 eV  31.60 Ry    5.62 a.u.   5.61  5.61  5.61*2*pi/ulx,y,z
   ENINI  =  430.0     initial cutoff
   ENAUG  =  455.7 eV  augmentation charge cutoff
   NELM   =    150;   NELMIN=  2; NELMDL= -5     # of ELM steps 
   EDIFF  = 0.1E-05   stopping-criterion for ELM
   LREAL  =      T    real-space projection
   NLSPLINE    = F    spline interpolate recip. space projectors
   LCOMPAT=      F    compatible to vasp.4.4
   GGA_COMPAT  = T    GGA compatible to vasp.4.4-vasp.4.6
   LMAXPAW     = -100 max onsite density
   LMAXMIX     =    4 max onsite mixed and CHGCAR
   VOSKOWN=      0    Vosko Wilk Nusair interpolation
   ROPT   =   -0.00025
 Ionic relaxation
   EDIFFG = -.1E-01   stopping-criterion for IOM
   NSW    =    300    number of steps for IOM
   NBLOCK =      1;   KBLOCK =    300    inner block; outer block 
   IBRION =      2    ionic relax: 0-MD 1-quasi-New 2-CG
   NFREE  =      1    steps in history (QN), initial steepest desc. (CG)
   ISIF   =      3    stress and relaxation
   IWAVPR =     11    prediction:  0-non 1-charg 2-wave 3-comb
   ISYM   =      2    0-nonsym 1-usesym 2-fastsym
   LCORR  =      T    Harris-Foulkes like correction to forces

   POTIM  = 0.5000    time-step for ionic-motion
   TEIN   =    0.0    initial temperature
   TEBEG  =    0.0;   TEEND  =   0.0 temperature during run
   SMASS  =  -3.00    Nose mass-parameter (am)
   estimated Nose-frequenzy (Omega)   =  0.10E-29 period in steps = 0.13E+47 mass=  -0.252E-27a.u.
   SCALEE = 1.0000    scale energy and forces
   NPACO  =    256;   APACO  = 10.0  distance and # of slots for P.C.
   PSTRESS=    0.0 pullay stress

  Mass of Ions in am
   POMASS =  92.91
  Ionic Valenz
   ZVAL   =  13.00
  Atomic Wigner-Seitz radii
   RWIGS  =  -1.00
  virtual crystal weights 
   VCA    =   1.00
   NELECT =      26.0000    total number of electrons
   NUPDOWN=      -1.0000    fix difference up-down

 DOS related values:
   EMIN   =  10.00;   EMAX   =-10.00  energy-range for DOS
   EFERMI =   0.00
   ISMEAR =     1;   SIGMA  =   0.10  broadening in eV -4-tet -1-fermi 0-gaus

 Electronic relaxation 2 (details)
   IALGO  =     38    algorithm
   LDIAG  =      T    sub-space diagonalisation (order eigenvalues)
   LSUBROT=      F    optimize rotation matrix (better conditioning)
   TURBO    =      0    0=normal 1=particle mesh
   IRESTART =      0    0=no restart 2=restart with 2 vectors
   NREBOOT  =      0    no. of reboots
   NMIN     =      0    reboot dimension
   EREF     =   0.00    reference energy to select bands
   IMIX   =      4    mixing-type and parameters
     AMIX     =   0.40;   BMIX     =  1.00
     AMIX_MAG =   1.60;   BMIX_MAG =  1.00
     AMIN     =   0.01
     WC   =   100.;   INIMIX=   1;  MIXPRE=   1;  MAXMIX= -45

 Intra band minimization:
   WEIMIN = 0.0010     energy-eigenvalue tresh-hold
   EBREAK =  0.14E-07  absolut break condition
   DEPER  =   0.30     relativ break condition  

   TIME   =   0.40     timestep for ELM

  volume/ion in A,a.u.               =      18.26       123.21
  Fermi-wavevector in a.u.,A,eV,Ry     =   1.461855  2.762506 29.075930  2.137021
  Thomas-Fermi vector in A             =   2.578137
 
 Write flags
   LWAVE        =      F    write WAVECAR
   LDOWNSAMPLE  =      F    k-point downsampling of WAVECAR
   LCHARG       =      F    write CHGCAR
   LVTOT        =      F    write LOCPOT, total local potential
   LVHAR        =      F    write LOCPOT, Hartree potential only
   LELF         =      F    write electronic localiz. function (ELF)
   LORBIT       =      0    0 simple, 1 ext, 2 COOP (PROOUT), +10 PAW based schemes


 Dipole corrections
   LMONO  =      F    monopole corrections only (constant potential shift)
   LDIPOL =      F    correct potential (dipole corrections)
   IDIPOL =      0    1-x, 2-y, 3-z, 4-all directions 
   EPSILON=  1.0000000 bulk dielectric constant

 Exchange correlation treatment:
   GGA     =    --    GGA type
   LEXCH   =     8    internal setting for exchange type
   LIBXC   =     F    Libxc                    
   VOSKOWN =     0    Vosko Wilk Nusair interpolation
   LHFCALC =     F    Hartree Fock is set to
   LHFONE  =     F    Hartree Fock one center treatment
   AEXX    =    0.0000 exact exchange contribution

 Linear response parameters
   LEPSILON=     F    determine dielectric tensor
   LRPA    =     F    only Hartree local field effects (RPA)
   LNABLA  =     F    use nabla operator in PAW spheres
   LVEL    =     F    velocity operator in full k-point grid
   CSHIFT  =0.1000    complex shift for real part using Kramers Kronig
   OMEGAMAX=  -1.0    maximum frequency
   DEG_THRESHOLD= 0.2000000E-02 threshold for treating states as degnerate
   RTIME   =   -0.100 relaxation time in fs
  (WPLASMAI=    0.000 imaginary part of plasma frequency in eV, 0.658/RTIME)
   DFIELD  = 0.0000000 0.0000000 0.0000000 field for delta impulse in time
 
  Optional k-point grid parameters
   LKPOINTS_OPT  =     F    use optional k-point grid
   KPOINTS_OPT_MODE=     1    mode for optional k-point grid
 
 Orbital magnetization related:
   ORBITALMAG=     F  switch on orbital magnetization
   LCHIMAG   =     F  perturbation theory with respect to B field
   DQ        =  0.001000  dq finite difference perturbation B field
   LLRAUG    =     F  two centre corrections for induced B field



--------------------------------------------------------------------------------------------------------


 conjugate gradient relaxation of ions
 charge density and potential will be updated during run
 non-spin polarized calculation
 Variant of blocked Davidson
 Davidson routine will perform the subspace rotation
 perform sub-space diagonalisation
    after iterative eigenvector-optimisation
 modified Broyden-mixing scheme, WC =      100.0
 initial mixing is a Kerker type mixing with AMIX =  0.4000 and BMIX =      1.0000
 Hartree-type preconditioning will be used
 using additional bands            5
 real space projection scheme for non local part
 use partial core corrections
 calculate Harris-corrections to forces 
   (improved forces if not selfconsistent)
 use gradient corrections 
 use of overlap-Matrix (Vanderbilt PP)
 Methfessel and Paxton  Order N= 1 SIGMA  =   0.10


--------------------------------------------------------------------------------------------------------


  energy-cutoff  :      430.00
  volume of cell :       36.52
      direct lattice vectors                 reciprocal lattice vectors
     3.317632379  0.000000000  0.000000000     0.301419773  0.000000000  0.000000000
    -0.000000000  3.317632379  0.000000000     0.000000000  0.301419773  0.000000000
     0.000000000  0.000000000  3.317632379    -0.000000000 -0.000000000  0.301419773

  length of vectors
     3.317632379  3.317632379  3.317632379     0.301419773  0.301419773  0.301419773


 
 k-points in units of 2pi/SCALE and weight: K-Spacing Value to Generate K-Mesh: 0.03
   0.01507099  0.01507099  0.01507099       0.008
   0.04521297  0.01507099  0.01507099       0.024
   0.07535494  0.01507099  0.01507099       0.024
   0.10549692  0.01507099  0.01507099       0.024
   0.13563890  0.01507099  0.01507099       0.024
   0.04521297  0.04521297  0.01507099       0.024
   0.07535494  0.04521297  0.01507099       0.048
   0.10549692  0.04521297  0.01507099       0.048
   0.13563890  0.04521297  0.01507099       0.048
   0.07535494  0.07535494  0.01507099       0.024
   0.10549692  0.07535494  0.01507099       0.048
   0.13563890  0.07535494  0.01507099       0.048
   0.10549692  0.10549692  0.01507099       0.024
   0.13563890  0.10549692  0.01507099       0.048
   0.13563890  0.13563890  0.01507099       0.024
   0.04521297  0.04521297  0.04521297       0.008
   0.07535494  0.04521297  0.04521297       0.024
   0.10549692  0.04521297  0.04521297       0.024
   0.13563890  0.04521297  0.04521297       0.024
   0.07535494  0.07535494  0.04521297       0.024
   0.10549692  0.07535494  0.04521297       0.048
   0.13563890  0.07535494  0.04521297       0.048
   0.10549692  0.10549692  0.04521297       0.024
   0.13563890  0.10549692  0.04521297       0.048
   0.13563890  0.13563890  0.04521297       0.024
   0.07535494  0.07535494  0.07535494       0.008
   0.10549692  0.07535494  0.07535494       0.024
   0.13563890  0.07535494  0.07535494       0.024
   0.10549692  0.10549692  0.07535494       0.024
   0.13563890  0.10549692  0.07535494       0.048
   0.13563890  0.13563890  0.07535494       0.024
   0.10549692  0.10549692  0.10549692       0.008
   0.13563890  0.10549692  0.10549692       0.024
   0.13563890  0.13563890  0.10549692       0.024
   0.13563890  0.13563890  0.13563890       0.008
 
 k-points in reciprocal lattice and weights: K-Spacing Value to Generate K-Mesh: 0.03
   0.05000000  0.05000000  0.05000000       0.008
   0.15000000  0.05000000  0.05000000       0.024
   0.25000000  0.05000000  0.05000000       0.024
   0.35000000  0.05000000  0.05000000       0.024
   0.45000000  0.05000000  0.05000000       0.024
   0.15000000  0.15000000  0.05000000       0.024
   0.25000000  0.15000000  0.05000000       0.048
   0.35000000  0.15000000  0.05000000       0.048
   0.45000000  0.15000000  0.05000000       0.048
   0.25000000  0.25000000  0.05000000       0.024
   0.35000000  0.25000000  0.05000000       0.048
   0.45000000  0.25000000  0.05000000       0.048
   0.35000000  0.35000000  0.05000000       0.024
   0.45000000  0.35000000  0.05000000       0.048
   0.45000000  0.45000000  0.05000000       0.024
   0.15000000  0.15000000  0.15000000       0.008
   0.25000000  0.15000000  0.15000000       0.024
   0.35000000  0.15000000  0.15000000       0.024
   0.45000000  0.15000000  0.15000000       0.024
   0.25000000  0.25000000  0.15000000       0.024
   0.35000000  0.25000000  0.15000000       0.048
   0.45000000  0.25000000  0.15000000       0.048
   0.35000000  0.35000000  0.15000000       0.024
   0.45000000  0.35000000  0.15000000       0.048
   0.45000000  0.45000000  0.15000000       0.024
   0.25000000  0.25000000  0.25000000       0.008
   0.35000000  0.25000000  0.25000000       0.024
   0.45000000  0.25000000  0.25000000       0.024
   0.35000000  0.35000000  0.25000000       0.024
   0.45000000  0.35000000  0.25000000       0.048
   0.45000000  0.45000000  0.25000000       0.024
   0.35000000  0.35000000  0.35000000       0.008
   0.45000000  0.35000000  0.35000000       0.024
   0.45000000  0.45000000  0.35000000       0.024
   0.45000000  0.45000000  0.45000000       0.008
 
 position of ions in fractional coordinates (direct lattice) 
   0.00000000  0.00000000  0.00000000
   0.50000000  0.50000000  0.50000000
 
 position of ions in cartesian coordinates  (Angst):
   0.00000000  0.00000000  0.00000000
   1.65881619  1.65881619  1.65881619
 


--------------------------------------------------------------------------------------------------------


 k-point   1 :   0.0500 0.0500 0.0500  plane waves:     742
 k-point   2 :   0.1500 0.0500 0.0500  plane waves:     743
 k-point   3 :   0.2500 0.0500 0.0500  plane waves:     742
 k-point   4 :   0.3500 0.0500 0.0500  plane waves:     747
 k-point   5 :   0.4500 0.0500 0.0500  plane waves:     741
 k-point   6 :   0.1500 0.1500 0.0500  plane waves:     745
 k-point   7 :   0.2500 0.1500 0.0500  plane waves:     740
 k-point   8 :   0.3500 0.1500 0.0500  plane waves:     743
 k-point   9 :   0.4500 0.1500 0.0500  plane waves:     743
 k-point  10 :   0.2500 0.2500 0.0500  plane waves:     740
 k-point  11 :   0.3500 0.2500 0.0500  plane waves:     741
 k-point  12 :   0.4500 0.2500 0.0500  plane waves:     739
 k-point  13 :   0.3500 0.3500 0.0500  plane waves:     743
 k-point  14 :   0.4500 0.3500 0.0500  plane waves:     738
 k-point  15 :   0.4500 0.4500 0.0500  plane waves:     742
 k-point  16 :   0.1500 0.1500 0.1500  plane waves:     736
 k-point  17 :   0.2500 0.1500 0.1500  plane waves:     738
 k-point  18 :   0.3500 0.1500 0.1500  plane waves:     738
 k-point  19 :   0.4500 0.1500 0.1500  plane waves:     749
 k-point  20 :   0.2500 0.2500 0.1500  plane waves:     740
 k-point  21 :   0.3500 0.2500 0.1500  plane waves:     741
 k-point  22 :   0.4500 0.2500 0.1500  plane waves:     747
 k-point  23 :   0.3500 0.3500 0.1500  plane waves:     736
 k-point  24 :   0.4500 0.3500 0.1500  plane waves:     738
 k-point  25 :   0.4500 0.4500 0.1500  plane waves:     736
 k-point  26 :   0.2500 0.2500 0.2500  plane waves:     738
 k-point  27 :   0.3500 0.2500 0.2500  plane waves:     741
 k-point  28 :   0.4500 0.2500 0.2500  plane waves:     743
 k-point  29 :   0.3500 0.3500 0.2500  plane waves:     734
 k-point  30 :   0.4500 0.3500 0.2500  plane waves:     733
 k-point  31 :   0.4500 0.4500 0.2500  plane waves:     727
 k-point  32 :   0.3500 0.3500 0.3500  plane waves:     723
 k-point  33 :   0.4500 0.3500 0.3500  plane waves:     734
 k-point  34 :   0.4500 0.4500 0.3500  plane waves:     726
 k-point  35 :   0.4500 0.4500 0.4500  plane waves:     717

 maximum and minimum number of plane-waves per node :       192      178

 maximum number of plane-waves:       749
 maximum index in each direction: 
   IXMAX=    5   IYMAX=    5   IZMAX=    5
   IXMIN=   -6   IYMIN=   -6   IZMIN=   -6


 real space projection operators:
  total allocation   :       2038.78 KBytes
  max/ min on nodes  :        523.69        501.47


 parallel 3D FFT for wavefunctions:
    minimum data exchange during FFTs selected (reduces bandwidth)
 parallel 3D FFT for charge:
    minimum data exchange during FFTs selected (reduces bandwidth)


 total amount of memory used by VASP MPI-rank0    33324. kBytes
=======================================================================

   base      :      30000. kBytes
   nonlr-proj:        871. kBytes
   fftplans  :        578. kBytes
   grid      :        822. kBytes
   one-center:         15. kBytes
   wavefun   :       1038. kBytes
 
     INWAV:  cpu time      0.0000: real time      0.0000
 Broyden mixing: mesh for mixing (old mesh)
   NGX = 11   NGY = 11   NGZ = 11
  (NGX  = 48   NGY  = 48   NGZ  = 48)
  gives a total of   1331 points

 initial charge density was supplied:
 charge density of overlapping atoms calculated
 number of electron      26.0000000 magnetization 
 keeping initial charge density in first step


--------------------------------------------------------------------------------------------------------


 Maximum index for non-local projection operator         1783
 Maximum index for augmentation-charges         1855 (set IRDMAX)


--------------------------------------------------------------------------------------------------------


 First call to EWALD:  gamma=   0.534
 Maximum number of real-space cells 3x 3x 3
 Maximum number of reciprocal cells 3x 3x 3

    FEWALD:  cpu time      0.0029: real time      0.0030


--------------------------------------- Iteration      1(   1)  ---------------------------------------


    POTLOK:  cpu time      0.0089: real time      0.0166
    SETDIJ:  cpu time      0.0035: real time      0.0059
     EDDAV:  cpu time      0.0710: real time      0.0854
       DOS:  cpu time      0.0024: real time      0.0055
    --------------------------------------------
      LOOP:  cpu time      0.0858: real time      0.1136

 eigenvalue-minimisations  :  1260
 total energy-change (2. order) : 0.2599463E+03  (-0.1358638E+04)
 number of electron      26.0000000 magnetization 
 augmentation part       26.0000000 magnetization 

 Free energy of the ion-electron system (eV)
  ---------------------------------------------------
  alpha Z        PSCENC =       163.27591539
  Ewald energy   TEWEN  =     -2669.46625210
  -Hartree energ DENC   =      -499.45206775
  -exchange      EXHF   =         0.00000000
  -V(xc)+E(xc)   XCENC  =       113.82277907
  PAW double counting   =      2467.59193485    -2429.45357547
  entropy T*S    EENTRO =        -0.00054432
  eigenvalues    EBANDS =         3.27382944
  atomic energy  EATOM  =      3110.35427263
  Solvation  Ediel_sol  =         0.00000000
  ---------------------------------------------------
  free energy    TOTEN  =       259.94629173 eV

  energy without entropy =      259.94683605  energy(sigma->0) =      259.94647317


--------------------------------------------------------------------------------------------------------




--------------------------------------- Iteration      1(   2)  ---------------------------------------


     EDDAV:  cpu time      0.0687: real time      0.0835
       DOS:  cpu time      0.0009: real time      0.0009
    --------------------------------------------
      LOOP:  cpu time      0.0696: real time      0.0844

 eigenvalue-minimisations  :  1492
 total energy-change (2. order) :-0.2642779E+03  (-0.2602063E+03)
 number of electron      26.0000000 magnetization 
 augmentation part       26.0000000 magnetization 

 Free energy of the ion-electron system (eV)
  ---------------------------------------------------
  alpha Z        PSCENC =       163.27591539
  Ewald energy   TEWEN  =     -2669.46625210
  -Hartree energ DENC   =      -499.45206775
  -exchange      EXHF   =         0.00000000
  -V(xc)+E(xc)   XCENC  =       113.82277907
  PAW double counting   =      2467.59193485    -2429.45357547
  entropy T*S    EENTRO =        -0.00202099
  eigenvalues    EBANDS =      -261.00263633
  atomic energy  EATOM  =      3110.35427263
  Solvation  Ediel_sol  =         0.00000000
  ---------------------------------------------------
  free energy    TOTEN  =        -4.33165071 eV

  energy without entropy =       -4.32962972  energy(sigma->0) =       -4.33097705


--------------------------------------------------------------------------------------------------------




--------------------------------------- Iteration      1(   3)  ---------------------------------------


     EDDAV:  cpu time      0.0984: real time      0.0984
       DOS:  cpu time      0.0008: real time      0.0008
    --------------------------------------------
      LOOP:  cpu time      0.0991: real time      0.0991

 eigenvalue-minimisations  :  2408
 total energy-change (2. order) :-0.1633316E+02  (-0.1585338E+02)
 number of electron      26.0000000 magnetization 
 augmentation part       26.0000000 magnetization 

 Free energy of the ion-electron system (eV)
  ---------------------------------------------------
  alpha Z        PSCENC =       163.27591539
  Ewald energy   TEWEN  =     -2669.46625210
  -Hartree energ DENC   =      -499.45206775
  -exchange      EXHF   =         0.00000000
  -V(xc)+E(xc)   XCENC  =       113.82277907
  PAW double counting   =      2467.59193485    -2429.45357547
  entropy T*S    EENTRO =        -0.00269321
  eigenvalues    EBANDS =      -277.33512546
  atomic energy  EATOM  =      3110.35427263
  Solvation  Ediel_sol  =         0.00000000
  ---------------------------------------------------
  free energy    TOTEN  =       -20.66481206 eV

  energy without entropy =      -20.66211885  energy(sigma->0) =      -20.66391432


--------------------------------------------------------------------------------------------------------




--------------------------------------- Iteration      1(   4)  ---------------------------------------


     EDDAV:  cpu time      0.0711: real time      0.0711
       DOS:  cpu time      0.0008: real time      0.0008
    --------------------------------------------
      LOOP:  cpu time      0.0719: real time      0.0719

 eigenvalue-minimisations  :  1668
 total energy-change (2. order) :-0.6182011E+00  (-0.6156264E+00)
 number of electron      26.0000000 magnetization 
 augmentation part       26.0000000 magnetization 

 Free energy of the ion-electron system (eV)
  ---------------------------------------------------
  alpha Z        PSCENC =       163.27591539
  Ewald energy   TEWEN  =     -2669.46625210
  -Hartree energ DENC   =      -499.45206775
  -exchange      EXHF   =         0.00000000
  -V(xc)+E(xc)   XCENC  =       113.82277907
  PAW double counting   =      2467.59193485    -2429.45357547
  entropy T*S    EENTRO =        -0.00375548
  eigenvalues    EBANDS =      -277.95226432
  atomic energy  EATOM  =      3110.35427263
  Solvation  Ediel_sol  =         0.00000000
  ---------------------------------------------------
  free energy    TOTEN  =       -21.28301319 eV

  energy without entropy =      -21.27925771  energy(sigma->0) =      -21.28176136


--------------------------------------------------------------------------------------------------------




--------------------------------------- Iteration      1(   5)  ---------------------------------------


     EDDAV:  cpu time      0.0854: real time      0.0854
       DOS:  cpu time      0.0012: real time      0.0012
    CHARGE:  cpu time      0.0098: real time      0.0153
    MIXING:  cpu time      0.0036: real time      0.0066
    --------------------------------------------
      LOOP:  cpu time      0.1000: real time      0.1085

 eigenvalue-minimisations  :  2122
 total energy-change (2. order) :-0.2504506E-01  (-0.2497514E-01)
 number of electron      25.9999998 magnetization 
 augmentation part        2.3833175 magnetization 

 Broyden mixing:
  rms(total) = 0.10170E+01    rms(broyden)= 0.10169E+01
  rms(prec ) = 0.17079E+01
  weight for this iteration     100.00

 Free energy of the ion-electron system (eV)
  ---------------------------------------------------
  alpha Z        PSCENC =       163.27591539
  Ewald energy   TEWEN  =     -2669.46625210
  -Hartree energ DENC   =      -499.45206775
  -exchange      EXHF   =         0.00000000
  -V(xc)+E(xc)   XCENC  =       113.82277907
  PAW double counting   =      2467.59193485    -2429.45357547
  entropy T*S    EENTRO =        -0.00379752
  eigenvalues    EBANDS =      -277.97726733
  atomic energy  EATOM  =      3110.35427263
  Solvation  Ediel_sol  =         0.00000000
  ---------------------------------------------------
  free energy    TOTEN  =       -21.30805824 eV

  energy without entropy =      -21.30426072  energy(sigma->0) =      -21.30679240


--------------------------------------------------------------------------------------------------------




--------------------------------------- Iteration      1(   6)  ---------------------------------------


    POTLOK:  cpu time      0.0071: real time      0.0071
    SETDIJ:  cpu time      0.0025: real time      0.0025
     EDDAV:  cpu time      0.0716: real time      0.0716
       DOS:  cpu time      0.0009: real time      0.0009
    CHARGE:  cpu time      0.0068: real time      0.0069
    MIXING:  cpu time      0.0012: real time      0.0025
    --------------------------------------------
      LOOP:  cpu time      0.0900: real time      0.0914

 eigenvalue-minimisations  :  1690
 total energy-change (2. order) : 0.7969289E+00  (-0.1577890E+00)
 number of electron      25.9999998 magnetization 
 augmentation part        2.4904483 magnetization 

 Broyden mixing:
  rms(total) = 0.34835E+00    rms(broyden)= 0.34834E+00
  rms(prec ) = 0.68304E+00
  weight for this iteration     100.00

 eigenvalues of (default mixing * dielectric matrix)
  average eigenvalue GAMMA=   1.4206
  1.4206

 Free energy of the ion-electron system (eV)
  ---------------------------------------------------
  alpha Z        PSCENC =       163.27591539
  Ewald energy   TEWEN  =     -2669.46625210
  -Hartree energ DENC   =      -477.30803587
  -exchange      EXHF   =         0.00000000
  -V(xc)+E(xc)   XCENC  =       112.61973975
  PAW double counting   =      2770.36179389    -2731.52953336
  entropy T*S    EENTRO =        -0.00253698
  eigenvalues    EBANDS =      -298.81649267
  atomic energy  EATOM  =      3110.35427263
  Solvation  Ediel_sol  =         0.00000000
  ---------------------------------------------------
  free energy    TOTEN  =       -20.51112933 eV

  energy without entropy =      -20.50859235  energy(sigma->0) =      -20.51028367


--------------------------------------------------------------------------------------------------------




--------------------------------------- Iteration      1(   7)  ---------------------------------------


    POTLOK:  cpu time      0.0072: real time      0.0072
    SETDIJ:  cpu time      0.0024: real time      0.0024
     EDDAV:  cpu time      0.0935: real time      0.0936
       DOS:  cpu time      0.0009: real time      0.0009
    CHARGE:  cpu time      0.0070: real time      0.0070
    MIXING:  cpu time      0.0007: real time      0.0007
    --------------------------------------------
      LOOP:  cpu time      0.1116: real time      0.1117

 eigenvalue-minimisations  :  2254
 total energy-change (2. order) : 0.9576573E-01  (-0.7280011E-01)
 number of electron      25.9999998 magnetization 
 augmentation part        2.4741391 magnetization 

 Broyden mixing:
  rms(total) = 0.14933E+00    rms(broyden)= 0.14933E+00
  rms(prec ) = 0.26597E+00
  weight for this iteration     100.00

 eigenvalues of (default mixing * dielectric matrix)
  average eigenvalue GAMMA=   1.8659
  1.6047  2.1270

 Free energy of the ion-electron system (eV)
  ---------------------------------------------------
  alpha Z        PSCENC =       163.27591539
  Ewald energy   TEWEN  =     -2669.46625210
  -Hartree energ DENC   =      -465.70546323
  -exchange      EXHF   =         0.00000000
  -V(xc)+E(xc)   XCENC  =       111.97758178
  PAW double counting   =      2942.87006328    -2902.36922473
  entropy T*S    EENTRO =        -0.00323748
  eigenvalues    EBANDS =      -311.34901914
  atomic energy  EATOM  =      3110.35427263
  Solvation  Ediel_sol  =         0.00000000
  ---------------------------------------------------
  free energy    TOTEN  =       -20.41536361 eV

  energy without entropy =      -20.41212613  energy(sigma->0) =      -20.41428445


--------------------------------------------------------------------------------------------------------




--------------------------------------- Iteration      1(   8)  ---------------------------------------


    POTLOK:  cpu time      0.0073: real time      0.0073
    SETDIJ:  cpu time      0.0024: real time      0.0024
     EDDAV:  cpu time      0.0751: real time      0.0753
       DOS:  cpu time      0.0008: real time      0.0008
    CHARGE:  cpu time      0.0062: real time      0.0062
    MIXING:  cpu time      0.0009: real time      0.0009
    --------------------------------------------
      LOOP:  cpu time      0.0928: real time      0.0929

 eigenvalue-minimisations  :  1766
 total energy-change (2. order) :-0.1081148E-01  (-0.4515469E-02)
 number of electron      25.9999998 magnetization 
 augmentation part        2.4374657 magnetization 

 Broyden mixing:
  rms(total) = 0.38393E-01    rms(broyden)= 0.38384E-01
  rms(prec ) = 0.74636E-01
  weight for this iteration     100.00

 eigenvalues of (default mixing * dielectric matrix)
  average eigenvalue GAMMA=   1.7499
  1.0664  1.4765  2.7067

 Free energy of the ion-electron system (eV)
  ---------------------------------------------------
  alpha Z        PSCENC =       163.27591539
  Ewald energy   TEWEN  =     -2669.46625210
  -Hartree energ DENC   =      -469.69700228
  -exchange      EXHF   =         0.00000000
  -V(xc)+E(xc)   XCENC  =       112.15913855
  PAW double counting   =      2942.21622020    -2898.80909369
  entropy T*S    EENTRO =        -0.00327362
  eigenvalues    EBANDS =      -310.45610017
  atomic energy  EATOM  =      3110.35427263
  Solvation  Ediel_sol  =         0.00000000
  ---------------------------------------------------
  free energy    TOTEN  =       -20.42617509 eV

  energy without entropy =      -20.42290147  energy(sigma->0) =      -20.42508388


--------------------------------------------------------------------------------------------------------




--------------------------------------- Iteration      1(   9)  ---------------------------------------


    POTLOK:  cpu time      0.0072: real time      0.0072
    SETDIJ:  cpu time      0.0024: real time      0.0024
     EDDAV:  cpu time      0.0792: real time      0.0792
       DOS:  cpu time      0.0009: real time      0.0009
    CHARGE:  cpu time      0.0062: real time      0.0062
    MIXING:  cpu time      0.0013: real time      0.0013
    --------------------------------------------
      LOOP:  cpu time      0.0973: real time      0.0973

 eigenvalue-minimisations  :  1790
 total energy-change (2. order) : 0.3334327E-03  (-0.8098845E-03)
 number of electron      25.9999998 magnetization 
 augmentation part        2.4424150 magnetization 

 Broyden mixing:
  rms(total) = 0.47741E-02    rms(broyden)= 0.47639E-02
  rms(prec ) = 0.78030E-02
  weight for this iteration     100.00

 eigenvalues of (default mixing * dielectric matrix)
  average eigenvalue GAMMA=   1.6004
  2.5635  1.5815  1.1282  1.1282

 Free energy of the ion-electron system (eV)
  ---------------------------------------------------
  alpha Z        PSCENC =       163.27591539
  Ewald energy   TEWEN  =     -2669.46625210
  -Hartree energ DENC   =      -469.20847232
  -exchange      EXHF   =         0.00000000
  -V(xc)+E(xc)   XCENC  =       112.12581284
  PAW double counting   =      2963.80775009    -2919.46301859
  entropy T*S    EENTRO =        -0.00310655
  eigenvalues    EBANDS =      -311.84874304
  atomic energy  EATOM  =      3110.35427263
  Solvation  Ediel_sol  =         0.00000000
  ---------------------------------------------------
  free energy    TOTEN  =       -20.42584166 eV

  energy without entropy =      -20.42273510  energy(sigma->0) =      -20.42480614


--------------------------------------------------------------------------------------------------------




--------------------------------------- Iteration      1(  10)  ---------------------------------------


    POTLOK:  cpu time      0.0072: real time      0.0072
    SETDIJ:  cpu time      0.0024: real time      0.0024
     EDDAV:  cpu time      0.0790: real time      0.0790
       DOS:  cpu time      0.0008: real time      0.0008
    CHARGE:  cpu time      0.0068: real time      0.0068
    MIXING:  cpu time      0.0007: real time      0.0007
    --------------------------------------------
      LOOP:  cpu time      0.0969: real time      0.0969

 eigenvalue-minimisations  :  1816
 total energy-change (2. order) : 0.2944596E-04  (-0.2980526E-04)
 number of electron      25.9999998 magnetization 
 augmentation part        2.4398638 magnetization 

 Broyden mixing:
  rms(total) = 0.34145E-02    rms(broyden)= 0.34110E-02
  rms(prec ) = 0.49856E-02
  weight for this iteration     100.00

 eigenvalues of (default mixing * dielectric matrix)
  average eigenvalue GAMMA=   1.7189
  2.7429  2.5399  1.4385  1.0210  0.8522

 Free energy of the ion-electron system (eV)
  ---------------------------------------------------
  alpha Z        PSCENC =       163.27591539
  Ewald energy   TEWEN  =     -2669.46625210
  -Hartree energ DENC   =      -469.19989910
  -exchange      EXHF   =         0.00000000
  -V(xc)+E(xc)   XCENC  =       112.12616200
  PAW double counting   =      2961.89024793    -2917.59778993
  entropy T*S    EENTRO =        -0.00312052
  eigenvalues    EBANDS =      -311.80534852
  atomic energy  EATOM  =      3110.35427263
  Solvation  Ediel_sol  =         0.00000000
  ---------------------------------------------------
  free energy    TOTEN  =       -20.42581221 eV

  energy without entropy =      -20.42269169  energy(sigma->0) =      -20.42477204


--------------------------------------------------------------------------------------------------------




--------------------------------------- Iteration      1(  11)  ---------------------------------------


    POTLOK:  cpu time      0.0070: real time      0.0070
    SETDIJ:  cpu time      0.0024: real time      0.0024
     EDDAV:  cpu time      0.0696: real time      0.0697
       DOS:  cpu time      0.0008: real time      0.0008
    CHARGE:  cpu time      0.0062: real time      0.0062
    MIXING:  cpu time      0.0007: real time      0.0007
    --------------------------------------------
      LOOP:  cpu time      0.0868: real time      0.0869

 eigenvalue-minimisations  :  1682
 total energy-change (2. order) :-0.9445303E-06  (-0.3011915E-05)
 number of electron      25.9999998 magnetization 
 augmentation part        2.4401028 magnetization 

 Broyden mixing:
  rms(total) = 0.55101E-03    rms(broyden)= 0.54944E-03
  rms(prec ) = 0.64680E-03
  weight for this iteration     100.00

 eigenvalues of (default mixing * dielectric matrix)
  average eigenvalue GAMMA=   1.6302
  2.7711  2.4658  1.3434  1.3434  0.9288  0.9288

 Free energy of the ion-electron system (eV)
  ---------------------------------------------------
  alpha Z        PSCENC =       163.27591539
  Ewald energy   TEWEN  =     -2669.46625210
  -Hartree energ DENC   =      -469.29387721
  -exchange      EXHF   =         0.00000000
  -V(xc)+E(xc)   XCENC  =       112.13046801
  PAW double counting   =      2961.56920580    -2917.14231767
  entropy T*S    EENTRO =        -0.00312221
  eigenvalues    EBANDS =      -311.85010579
  atomic energy  EATOM  =      3110.35427263
  Solvation  Ediel_sol  =         0.00000000
  ---------------------------------------------------
  free energy    TOTEN  =       -20.42581316 eV

  energy without entropy =      -20.42269095  energy(sigma->0) =      -20.42477242


--------------------------------------------------------------------------------------------------------




--------------------------------------- Iteration      1(  12)  ---------------------------------------


    POTLOK:  cpu time      0.0076: real time      0.0076
    SETDIJ:  cpu time      0.0023: real time      0.0023
     EDDAV:  cpu time      0.1088: real time      0.1384
       DOS:  cpu time      0.0013: real time      0.0044
    --------------------------------------------
      LOOP:  cpu time      0.1199: real time      0.1527

 eigenvalue-minimisations  :  1214
 total energy-change (2. order) :-0.7218787E-06  (-0.1270452E-06)
 number of electron      25.9999998 magnetization 
 augmentation part        2.4401028 magnetization 

 Free energy of the ion-electron system (eV)
  ---------------------------------------------------
  alpha Z        PSCENC =       163.27591539
  Ewald energy   TEWEN  =     -2669.46625210
  -Hartree energ DENC   =      -469.30057890
  -exchange      EXHF   =         0.00000000
  -V(xc)+E(xc)   XCENC  =       112.13079478
  PAW double counting   =      2961.19969833    -2916.77075261
  entropy T*S    EENTRO =        -0.00312250
  eigenvalues    EBANDS =      -311.84578890
  atomic energy  EATOM  =      3110.35427263
  Solvation  Ediel_sol  =         0.00000000
  ---------------------------------------------------
  free energy    TOTEN  =       -20.42581388 eV

  energy without entropy =      -20.42269138  energy(sigma->0) =      -20.42477304


--------------------------------------------------------------------------------------------------------




 average (electrostatic) potential at core
  the test charge radii are     1.0703
  (the norm of the test charge is              1.0000)
       1 -77.0144       2 -77.0144
 
 
 
 E-fermi :  10.9358     XC(G=0): -12.4318     alpha+bet :-18.9986

 Fermi energy:        10.9357874735

 k-point     1 :       0.0500    0.0500    0.0500
  band No.  band energies     occupation 
      1     -43.3980      2.00000
      2     -43.0173      2.00000
      3     -19.6289      2.00000
      4     -19.6289      2.00000
      5     -19.5833      2.00000
      6     -18.7897      2.00000
      7     -18.7394      2.00000
      8     -18.7394      2.00000
      9       5.2330      2.00000
     10       7.4517      2.00000
     11       7.4517      2.00000
     12      11.2844     -0.00001
     13      11.2844     -0.00001
     14      11.5283     -0.00000
     15      14.1470      0.00000
     16      14.1470      0.00000
     17      15.6228      0.00000
     18      16.3069      0.00000

 k-point     2 :       0.1500    0.0500    0.0500
  band No.  band energies     occupation 
      1     -43.3767      2.00000
      2     -43.0329      2.00000
      3     -19.6559      2.00000
      4     -19.5841      2.00000
      5     -19.5172      2.00000
      6     -18.8993      2.00000
      7     -18.7813      2.00000
      8     -18.7583      2.00000
      9       5.6239      2.00000
     10       7.6644      2.00000
     11       7.7809      2.00000
     12      11.1421     -0.01298
     13      11.2261     -0.00032
     14      11.8222     -0.00000
     15      13.6280     -0.00000
     16      14.3656      0.00000
     17      14.5169      0.00000
     18      15.2309      0.00000

 k-point     3 :       0.2500    0.0500    0.0500
  band No.  band energies     occupation 
      1     -43.3367      2.00000
      2     -43.0637      2.00000
      3     -19.6616      2.00000
      4     -19.4992      2.00000
      5     -19.4249      2.00000
      6     -19.0640      2.00000
      7     -18.8615      2.00000
      8     -18.8233      2.00000
      9       6.3395      2.00000
     10       8.0836      2.00000
     11       8.3111      2.00000
     12      11.0876     -0.05368
     13      11.1505     -0.00965
     14      12.2429     -0.00000
     15      12.7933     -0.00000
     16      13.4188     -0.00000
     17      14.0550      0.00000
     18      14.7408      0.00000

 k-point     4 :       0.3500    0.0500    0.0500
  band No.  band energies     occupation 
      1     -43.2833      2.00000
      2     -43.1078      2.00000
      3     -19.6320      2.00000
      4     -19.3829      2.00000
      5     -19.3093      2.00000
      6     -19.2505      2.00000
      7     -18.9732      2.00000
      8     -18.9231      2.00000
      9       7.2458      2.00000
     10       8.6954      2.00000
     11       8.7517      2.00000
     12      10.9858      0.25920
     13      11.1835     -0.00256
     14      12.0094     -0.00000
     15      12.5337     -0.00000
     16      12.7984     -0.00000
     17      13.0627     -0.00000
     18      15.0356      0.00000

 k-point     5 :       0.4500    0.0500    0.0500
  band No.  band energies     occupation 
      1     -43.2230      2.00000
      2     -43.1625      2.00000
      3     -19.5536      2.00000
      4     -19.4227      2.00000
      5     -19.2472      2.00000
      6     -19.1789      2.00000
      7     -19.1060      2.00000
      8     -19.0458      2.00000
      9       8.1355      2.00000
     10       8.7235      2.00000
     11       9.4708      2.00000
     12      10.3338      2.00000
     13      11.4652     -0.00000
     14      11.8997     -0.00000
     15      11.9106     -0.00000
     16      12.3264     -0.00000
     17      13.4734     -0.00000
     18      14.2210      0.00000

 k-point     6 :       0.1500    0.1500    0.0500
  band No.  band energies     occupation 
      1     -43.3570      2.00000
      2     -43.0467      2.00000
      3     -19.7048      2.00000
      4     -19.5595      2.00000
      5     -19.4190      2.00000
      6     -19.0379      2.00000
      7     -18.8137      2.00000
      8     -18.7419      2.00000
      9       5.9800      2.00000
     10       7.8942      2.00000
     11       8.0708      2.00000
     12      10.8369      2.04786
     13      11.0717     -0.06630
     14      12.3238     -0.00000
     15      13.4161     -0.00000
     16      13.7206      0.00000
     17      14.2123      0.00000
     18      14.5923      0.00000

 k-point     7 :       0.2500    0.1500    0.0500
  band No.  band energies     occupation 
      1     -43.3203      2.00000
      2     -43.0738      2.00000
      3     -19.7450      2.00000
      4     -19.4810      2.00000
      5     -19.3049      2.00000
      6     -19.2212      2.00000
      7     -18.8858      2.00000
      8     -18.7676      2.00000
      9       6.6146      2.00000
     10       8.2347      2.00000
     11       8.6160      2.00000
     12      10.6158      2.00006
     13      10.9073      1.46165
     14      12.4186     -0.00000
     15      12.9337     -0.00000
     16      13.2827     -0.00000
     17      13.6242     -0.00000
     18      14.5380      0.00000

 k-point     8 :       0.3500    0.1500    0.0500
  band No.  band energies     occupation 
      1     -43.2714      2.00000
      2     -43.1130      2.00000
      3     -19.7452      2.00000
      4     -19.4113      2.00000
      5     -19.3711      2.00000
      6     -19.1812      2.00000
      7     -18.9879      2.00000
      8     -18.8361      2.00000
      9       7.3814      2.00000
     10       8.5901      2.00000
     11       9.1552      2.00000
     12      10.5309      2.00000
     13      10.7616      2.03354
     14      11.6884     -0.00000
     15      12.7596     -0.00000
     16      12.9238     -0.00000
     17      13.6362     -0.00000
     18      15.0071      0.00000

 k-point     9 :       0.4500    0.1500    0.0500
  band No.  band energies     occupation 
      1     -43.2166      2.00000
      2     -43.1619      2.00000
      3     -19.6900      2.00000
      4     -19.5755      2.00000
      5     -19.2431      2.00000
      6     -19.1109      2.00000
      7     -19.0549      2.00000
      8     -18.9360      2.00000
      9       8.0982      2.00000
     10       8.5803      2.00000
     11       9.6758      2.00000
     12      10.2305      2.00000
     13      10.8483      2.01377
     14      11.1947     -0.00154
     15      12.5712     -0.00000
     16      12.6433     -0.00000
     17      14.3637      0.00000
     18      15.0586      0.00000

 k-point    10 :       0.2500    0.2500    0.0500
  band No.  band energies     occupation 
      1     -43.2898      2.00000
      2     -43.0940      2.00000
      3     -19.8255      2.00000
      4     -19.4166      2.00000
      5     -19.4166      2.00000
      6     -19.1746      2.00000
      7     -18.9402      2.00000
      8     -18.7460      2.00000
      9       7.0539      2.00000
     10       8.3429      2.00000
     11       9.2460      2.00000
     12      10.2217      2.00000
     13      10.8041      2.06861
     14      11.5303     -0.00000
     15      12.9921     -0.00000
     16      13.6772      0.00000
     17      13.8085      0.00000
     18      14.3685      0.00000

 k-point    11 :       0.3500    0.2500    0.0500
  band No.  band energies     occupation 
      1     -43.2497      2.00000
      2     -43.1238      2.00000
      3     -19.8642      2.00000
      4     -19.6046      2.00000
      5     -19.3257      2.00000
      6     -19.0474      2.00000
      7     -19.0187      2.00000
      8     -18.7711      2.00000
      9       7.4930      2.00000
     10       8.3277      2.00000
     11       9.9261      2.00000
     12      10.0264      2.00000
     13      10.8799      1.80186
     14      10.8974      1.59992
     15      12.8006     -0.00000
     16      13.5734     -0.00000
     17      14.6118      0.00000
     18      14.7631      0.00000

 k-point    12 :       0.4500    0.2500    0.0500
  band No.  band energies     occupation 
      1     -43.2053      2.00000
      2     -43.1619      2.00000
      3     -19.8425      2.00000
      4     -19.7536      2.00000
      5     -19.2212      2.00000
      6     -19.1152      2.00000
      7     -18.9316      2.00000
      8     -18.8362      2.00000
      9       7.8517      2.00000
     10       8.1421      2.00000
     11      10.0500      2.00000
     12      10.2256      2.00000
     13      10.6683      2.00102
     14      10.9062      1.47802
     15      13.1028     -0.00000
     16      13.3949     -0.00000
     17      15.1495      0.00000
     18      15.6422      0.00000

 k-point    13 :       0.3500    0.3500    0.0500
  band No.  band energies     occupation 
      1     -43.2218      2.00000
      2     -43.1409      2.00000
      3     -19.9435      2.00000
      4     -19.7789      2.00000
      5     -19.2628      2.00000
      6     -19.0647      2.00000
      7     -18.9291      2.00000
      8     -18.7503      2.00000
      9       7.5146      2.00000
     10       7.9999      2.00000
     11       9.6954      2.00000
     12      10.2190      2.00000
     13      10.8542      1.98800
     14      11.4882     -0.00000
     15      13.0469     -0.00000
     16      14.0859      0.00000
     17      14.6310      0.00000
     18      15.5889      0.00000

 k-point    14 :       0.4500    0.3500    0.0500
  band No.  band energies     occupation 
      1     -43.1919      2.00000
      2     -43.1640      2.00000
      3     -19.9597      2.00000
      4     -19.9033      2.00000
      5     -19.1926      2.00000
      6     -19.1242      2.00000
      7     -18.8354      2.00000
      8     -18.7735      2.00000
      9       7.5593      2.00000
     10       7.7196      2.00000
     11       9.6112      2.00000
     12       9.7898      2.00000
     13      11.6106     -0.00000
     14      11.8967     -0.00000
     15      13.6006     -0.00000
     16      14.0400      0.00000
     17      15.0393      0.00000
     18      15.9401      0.00000

 k-point    15 :       0.4500    0.4500    0.0500
  band No.  band energies     occupation 
      1     -43.1793      2.00000
      2     -43.1697      2.00000
      3     -20.0151      2.00000
      4     -19.9958      2.00000
      5     -19.1640      2.00000
      6     -19.1404      2.00000
      7     -18.7745      2.00000
      8     -18.7531      2.00000
      9       7.4052      2.00000
     10       7.4576      2.00000
     11       9.4021      2.00000
     12       9.4637      2.00000
     13      12.6234     -0.00000
     14      12.8209     -0.00000
     15      14.0548      0.00000
     16      14.2768      0.00000
     17      14.8750      0.00000
     18      15.3773      0.00000

 k-point    16 :       0.1500    0.1500    0.1500
  band No.  band energies     occupation 
      1     -43.3388      2.00000
      2     -43.0587      2.00000
      3     -19.6567      2.00000
      4     -19.6567      2.00000
      5     -19.3054      2.00000
      6     -19.1597      2.00000
      7     -18.7876      2.00000
      8     -18.7876      2.00000
      9       6.3242      2.00000
     10       8.2378      2.00000
     11       8.2378      2.00000
     12      10.6982      2.00396
     13      10.6982      2.00396
     14      12.2897     -0.00000
     15      12.9091     -0.00000
     16      13.9816      0.00000
     17      13.9816      0.00000
     18      15.4026      0.00000

 k-point    17 :       0.2500    0.1500    0.1500
  band No.  band energies     occupation 
      1     -43.3051      2.00000
      2     -43.0826      2.00000
      3     -19.7321      2.00000
      4     -19.5654      2.00000
      5     -19.3291      2.00000
      6     -19.1879      2.00000
      7     -18.8751      2.00000
      8     -18.7878      2.00000
      9       6.9232      2.00000
     10       8.5560      2.00000
     11       8.7627      2.00000
     12      10.4502      2.00000
     13      10.4789      2.00000
     14      11.3776     -0.00000
     15      13.5691     -0.00000
     16      13.6435     -0.00000
     17      14.3216      0.00000
     18      14.4258      0.00000

 k-point    18 :       0.3500    0.1500    0.1500
  band No.  band energies     occupation 
      1     -43.2604      2.00000
      2     -43.1174      2.00000
      3     -19.7633      2.00000
      4     -19.5021      2.00000
      5     -19.4402      2.00000
      6     -19.0750      2.00000
      7     -18.9966      2.00000
      8     -18.8219      2.00000
      9       7.6110      2.00000
     10       8.9881      2.00000
     11       9.0278      2.00000
     12      10.2206      2.00000
     13      10.4888      2.00000
     14      10.9659      0.51559
     15      13.1214     -0.00000
     16      13.4760     -0.00000
     17      14.4219      0.00000
     18      15.2079      0.00000

 k-point    19 :       0.4500    0.1500    0.1500
  band No.  band energies     occupation 
      1     -43.2105      2.00000
      2     -43.1611      2.00000
      3     -19.7358      2.00000
      4     -19.6456      2.00000
      5     -19.2937      2.00000
      6     -19.1408      2.00000
      7     -18.9721      2.00000
      8     -18.8855      2.00000
      9       8.2291      2.00000
     10       8.7402      2.00000
     11       9.4657      2.00000
     12       9.8946      2.00000
     13      10.7697      2.04055
     14      10.9669      0.50100
     15      12.8606     -0.00000
     16      12.9679     -0.00000
     17      14.8519      0.00000
     18      15.0046      0.00000

 k-point    20 :       0.2500    0.2500    0.1500
  band No.  band energies     occupation 
      1     -43.2770      2.00000
      2     -43.1002      2.00000
      3     -19.7722      2.00000
      4     -19.5423      2.00000
      5     -19.4839      2.00000
      6     -19.0735      2.00000
      7     -18.9221      2.00000
      8     -18.7980      2.00000
      9       7.4117      2.00000
     10       8.7440      2.00000
     11       9.3149      2.00000
     12      10.0880      2.00000
     13      10.3299      2.00000
     14      10.5719      2.00000
     15      13.8901      0.00000
     16      13.9762      0.00000
     17      14.3508      0.00000
     18      14.5427      0.00000

 k-point    21 :       0.3500    0.2500    0.1500
  band No.  band energies     occupation 
      1     -43.2402      2.00000
      2     -43.1266      2.00000
      3     -19.8216      2.00000
      4     -19.6384      2.00000
      5     -19.4354      2.00000
      6     -19.0246      2.00000
      7     -18.9754      2.00000
      8     -18.8100      2.00000
      9       7.8565      2.00000
     10       8.7037      2.00000
     11       9.7181      2.00000
     12       9.8899      2.00000
     13      10.4347      2.00000
     14      10.4407      2.00000
     15      13.5221     -0.00000
     16      13.7232      0.00000
     17      14.7289      0.00000
     18      15.5066      0.00000

 k-point    22 :       0.4500    0.2500    0.1500
  band No.  band energies     occupation 
      1     -43.1998      2.00000
      2     -43.1606      2.00000
      3     -19.8215      2.00000
      4     -19.7583      2.00000
      5     -19.2989      2.00000
      6     -19.1560      2.00000
      7     -18.8976      2.00000
      8     -18.8423      2.00000
      9       8.1655      2.00000
     10       8.4493      2.00000
     11       9.7472      2.00000
     12       9.7961      2.00000
     13      10.7258      2.01143
     14      10.7730      2.04359
     15      13.4185     -0.00000
     16      13.5117     -0.00000
     17      15.0061      0.00000
     18      15.2097      0.00000

 k-point    23 :       0.3500    0.3500    0.1500
  band No.  band energies     occupation 
      1     -43.2145      2.00000
      2     -43.1415      2.00000
      3     -19.8853      2.00000
      4     -19.7725      2.00000
      5     -19.3638      2.00000
      6     -19.0803      2.00000
      7     -18.8995      2.00000
      8     -18.8086      2.00000
      9       7.9258      2.00000
     10       8.3398      2.00000
     11       9.6185      2.00000
     12       9.8989      2.00000
     13      10.7458      2.02181
     14      10.9203      1.25860
     15      13.5727     -0.00000
     16      14.1578      0.00000
     17      14.6738      0.00000
     18      15.6606      0.00000

 k-point    24 :       0.4500    0.3500    0.1500
  band No.  band energies     occupation 
      1     -43.1872      2.00000
      2     -43.1620      2.00000
      3     -19.9076      2.00000
      4     -19.8690      2.00000
      5     -19.2646      2.00000
      6     -19.1640      2.00000
      7     -18.8488      2.00000
      8     -18.8201      2.00000
      9       7.9419      2.00000
     10       8.0653      2.00000
     11       9.5381      2.00000
     12       9.6527      2.00000
     13      11.3782     -0.00000
     14      11.4362     -0.00000
     15      13.8609      0.00000
     16      14.1125      0.00000
     17      14.9451      0.00000
     18      15.3371      0.00000

 k-point    25 :       0.4500    0.4500    0.1500
  band No.  band energies     occupation 
      1     -43.1755      2.00000
      2     -43.1668      2.00000
      3     -19.9541      2.00000
      4     -19.9410      2.00000
      5     -19.2188      2.00000
      6     -19.1825      2.00000
      7     -18.8236      2.00000
      8     -18.8152      2.00000
      9       7.8007      2.00000
     10       7.8358      2.00000
     11       9.3694      2.00000
     12       9.4198      2.00000
     13      12.1499     -0.00000
     14      12.1935     -0.00000
     15      14.2297      0.00000
     16      14.3684      0.00000
     17      14.9032      0.00000
     18      15.1277      0.00000

 k-point    26 :       0.2500    0.2500    0.2500
  band No.  band energies     occupation 
      1     -43.2536      2.00000
      2     -43.1131      2.00000
      3     -19.6710      2.00000
      4     -19.6710      2.00000
      5     -19.5906      2.00000
      6     -18.9813      2.00000
      7     -18.8973      2.00000
      8     -18.8973      2.00000
      9       7.9887      2.00000
     10       9.4251      2.00000
     11       9.4251      2.00000
     12       9.7458      2.00000
     13       9.9018      2.00000
     14       9.9018      2.00000
     15      14.2612      0.00000
     16      14.2612      0.00000
     17      14.7288      0.00000
     18      14.7290      0.00000

 k-point    27 :       0.3500    0.2500    0.2500
  band No.  band energies     occupation 
      1     -43.2232      2.00000
      2     -43.1329      2.00000
      3     -19.7642      2.00000
      4     -19.6996      2.00000
      5     -19.5317      2.00000
      6     -19.0346      2.00000
      7     -18.9164      2.00000
      8     -18.8767      2.00000
      9       8.4118      2.00000
     10       9.0729      2.00000
     11       9.5311      2.00000
     12       9.7467      2.00000
     13       9.9546      2.00000
     14      10.2417      2.00000
     15      14.0885      0.00000
     16      14.1289      0.00000
     17      14.6896      0.00000
     18      15.0109      0.00000

 k-point    28 :       0.4500    0.2500    0.2500
  band No.  band energies     occupation 
      1     -43.1903      2.00000
      2     -43.1592      2.00000
      3     -19.8021      2.00000
      4     -19.7778      2.00000
      5     -19.3682      2.00000
      6     -19.1969      2.00000
      7     -18.8799      2.00000
      8     -18.8685      2.00000
      9       8.5248      2.00000
     10       8.6905      2.00000
     11       9.6012      2.00000
     12       9.6555      2.00000
     13      10.4518      2.00000
     14      10.6666      2.00094
     15      13.8793      0.00000
     16      13.9132      0.00000
     17      14.9587      0.00000
     18      15.0130      0.00000

 k-point    29 :       0.3500    0.3500    0.2500
  band No.  band energies     occupation 
      1     -43.2016      2.00000
      2     -43.1436      2.00000
      3     -19.7746      2.00000
      4     -19.7671      2.00000
      5     -19.4986      2.00000
      6     -19.0904      2.00000
      7     -18.9195      2.00000
      8     -18.8894      2.00000
      9       8.6694      2.00000
     10       8.7602      2.00000
     11       9.5330      2.00000
     12       9.7577      2.00000
     13      10.1893      2.00000
     14      10.5178      2.00000
     15      14.2261      0.00000
     16      14.3992      0.00000
     17      14.7144      0.00000
     18      15.0253      0.00000

 k-point    30 :       0.4500    0.3500    0.2500
  band No.  band energies     occupation 
      1     -43.1792      2.00000
      2     -43.1592      2.00000
      3     -19.8133      2.00000
      4     -19.8120      2.00000
      5     -19.3673      2.00000
      6     -19.2175      2.00000
      7     -18.9096      2.00000
      8     -18.8912      2.00000
      9       8.5657      2.00000
     10       8.5768      2.00000
     11       9.5070      2.00000
     12       9.6238      2.00000
     13      10.7749      2.04534
     14      10.9420      0.89467
     15      14.2696      0.00000
     16      14.3634      0.00000
     17      14.9253      0.00000
     18      15.0243      0.00000

 k-point    31 :       0.4500    0.4500    0.2500
  band No.  band energies     occupation 
      1     -43.1693      2.00000
      2     -43.1624      2.00000
      3     -19.8390      2.00000
      4     -19.8376      2.00000
      5     -19.3077      2.00000
      6     -19.2461      2.00000
      7     -18.9333      2.00000
      8     -18.9189      2.00000
      9       8.4727      2.00000
     10       8.5006      2.00000
     11       9.3600      2.00000
     12       9.4318      2.00000
     13      11.3679     -0.00000
     14      11.4341     -0.00000
     15      14.5152      0.00000
     16      14.5781      0.00000
     17      14.9459      0.00000
     18      15.0082      0.00000

 k-point    32 :       0.3500    0.3500    0.3500
  band No.  band energies     occupation 
      1     -43.1858      2.00000
      2     -43.1485      2.00000
      3     -19.7654      2.00000
      4     -19.6218      2.00000
      5     -19.6218      2.00000
      6     -19.0725      2.00000
      7     -19.0725      2.00000
      8     -18.9134      2.00000
      9       8.8218      2.00000
     10       9.5208      2.00000
     11       9.5208      2.00000
     12       9.5958      2.00000
     13      10.1993      2.00000
     14      10.1993      2.00000
     15      14.7130      0.00000
     16      14.7130      0.00000
     17      14.7173      0.00000
     18      14.7173      0.00000

 k-point    33 :       0.4500    0.3500    0.3500
  band No.  band energies     occupation 
      1     -43.1703      2.00000
      2     -43.1574      2.00000
      3     -19.7532      2.00000
      4     -19.7090      2.00000
      5     -19.4419      2.00000
      6     -19.2526      2.00000
      7     -19.0247      2.00000
      8     -18.9644      2.00000
      9       8.8560      2.00000
     10       9.0878      2.00000
     11       9.6329      2.00000
     12       9.8749      2.00000
     13      10.3324      2.00000
     14      10.5709      2.00000
     15      14.6396      0.00000
     16      14.6707      0.00000
     17      14.9351      0.00000
     18      14.9418      0.00000

 k-point    34 :       0.4500    0.4500    0.3500
  band No.  band energies     occupation 
      1     -43.1627      2.00000
      2     -43.1583      2.00000
      3     -19.7076      2.00000
      4     -19.6768      2.00000
      5     -19.4025      2.00000
      6     -19.2962      2.00000
      7     -19.0959      2.00000
      8     -19.0496      2.00000
      9       9.0474      2.00000
     10       9.2917      2.00000
     11       9.4479      2.00000
     12       9.7021      2.00000
     13      10.6196      2.00007
     14      10.7135      2.00729
     15      14.8098      0.00000
     16      14.8285      0.00000
     17      14.9837      0.00000
     18      14.9881      0.00000

 k-point    35 :       0.4500    0.4500    0.4500
  band No.  band energies     occupation 
      1     -43.1580      2.00000
      2     -43.1564      2.00000
      3     -19.5803      2.00000
      4     -19.4871      2.00000
      5     -19.4871      2.00000
      6     -19.2869      2.00000
      7     -19.2869      2.00000
      8     -19.1898      2.00000
      9       9.3994      2.00000
     10       9.6903      2.00000
     11       9.6903      2.00000
     12      10.1151      2.00000
     13      10.1151      2.00000
     14      10.2049      2.00000
     15      14.9992      0.00000
     16      14.9992      0.00000
     17      15.0024      0.00000
     18      15.0024      0.00000


--------------------------------------------------------------------------------------------------------


 soft charge-density along one line, spin component           1
         0         1         2         3         4         5         6         7         8         9
 total charge-density along one line
 
 pseudopotential strength for first ion, spin component:           1
  5.510 -19.557   0.000   0.000  -0.000  -0.000  -0.000   0.000
-19.557   8.541   0.000   0.000  -0.000  -0.000  -0.000   0.000
  0.000   0.000  -9.424   0.000   0.000   5.530  -0.000  -0.000
  0.000   0.000   0.000  -9.424  -0.000  -0.000   5.530   0.000
 -0.000  -0.000   0.000  -0.000  -9.424  -0.000   0.000   5.530
 -0.000  -0.000   5.530  -0.000  -0.000   8.261   0.000   0.000
 -0.000  -0.000  -0.000   5.530   0.000   0.000   8.261  -0.000
  0.000   0.000  -0.000   0.000   5.530   0.000  -0.000   8.261
  0.000   0.000  -0.000   0.000   0.000   0.000  -0.000  -0.000
  0.000   0.000   0.000   0.000   0.000  -0.000  -0.000  -0.000
  0.000   0.000  -0.000   0.000   0.000   0.000  -0.000  -0.000
 -0.000  -0.000   0.000  -0.000   0.000  -0.000   0.000  -0.000
 -0.000  -0.000  -0.000   0.000  -0.000   0.000  -0.000   0.000
  0.000   0.000  -0.000   0.000   0.000   0.000  -0.000  -0.000
  0.000   0.000   0.000   0.000   0.000  -0.000  -0.000  -0.000
  0.000   0.000  -0.000   0.000   0.000   0.000  -0.000  -0.000
 -0.000  -0.000   0.000  -0.000   0.000  -0.000   0.000  -0.000
 -0.000  -0.000  -0.000   0.000  -0.000   0.000  -0.000   0.000
 total augmentation occupancy for first ion, spin component:           1
  1.997  -0.038  -0.000  -0.000  -0.000   0.000   0.000   0.000  -0.000  -0.000   0.000  -0.000   0.000   0.000  -0.000  -0.000
 -0.038   1.459   0.000   0.000   0.000  -0.000  -0.000  -0.000  -0.000   0.000  -0.000   0.000   0.000  -0.000   0.000   0.000
  0.000  -0.000   1.998   0.000  -0.000  -0.030  -0.000   0.000   0.000   0.000   0.000   0.000  -0.000   0.000   0.000   0.000
 -0.000  -0.000   0.000   1.998   0.000  -0.000  -0.030  -0.000  -0.000  -0.000  -0.000  -0.000  -0.000   0.000   0.000  -0.000
  0.000   0.000  -0.000   0.000   1.998   0.000  -0.000  -0.030   0.000   0.000   0.000   0.000  -0.000   0.000  -0.000  -0.000
  0.000   0.000  -0.030  -0.000   0.000   0.062   0.000  -0.000   0.000   0.000  -0.000   0.000  -0.000   0.000  -0.000   0.000
  0.000   0.000  -0.000  -0.030  -0.000   0.000   0.062   0.000   0.000   0.000  -0.000   0.000  -0.000   0.000   0.000  -0.000
  0.000   0.000   0.000  -0.000  -0.030  -0.000   0.000   0.062   0.000   0.000   0.000   0.000  -0.000   0.000   0.000   0.000
  0.000   0.000   0.000   0.000   0.000   0.000   0.000   0.000   2.416   0.000   0.000   0.000  -0.000  -0.869  -0.000  -0.000
 -0.000   0.000   0.000   0.000  -0.000   0.000   0.000   0.000   0.000   2.416   0.000  -0.000  -0.000  -0.000  -0.869  -0.000
 -0.000  -0.000   0.000  -0.000   0.000   0.000   0.000   0.000   0.000   0.000   2.079   0.000  -0.000  -0.000  -0.000  -0.813
 -0.000   0.000  -0.000   0.000   0.000   0.000   0.000   0.000   0.000  -0.000   0.000   2.416   0.000  -0.000   0.000  -0.000
  0.000  -0.000   0.000  -0.000   0.000  -0.000   0.000  -0.000  -0.000  -0.000  -0.000   0.000   2.079   0.000   0.000  -0.000
  0.000  -0.000   0.000  -0.000   0.000   0.000   0.000   0.000  -0.869  -0.000  -0.000  -0.000   0.000   0.327   0.000   0.000
 -0.000   0.000   0.000  -0.000  -0.000   0.000   0.000   0.000  -0.000  -0.869  -0.000   0.000   0.000   0.000   0.327   0.000
 -0.000   0.000   0.000   0.000   0.000   0.000   0.000  -0.000  -0.000  -0.000  -0.813  -0.000   0.000   0.000   0.000   0.327
 -0.000  -0.000  -0.000   0.000   0.000   0.000   0.000   0.000  -0.000   0.000  -0.000  -0.869  -0.000   0.000  -0.000   0.000
  0.000  -0.000  -0.000   0.000   0.000   0.000   0.000  -0.000   0.000   0.000  -0.000  -0.000  -0.813   0.000  -0.000  -0.000


------------------------ aborting loop because EDIFF is reached ----------------------------------------


    CHARGE:  cpu time      0.0402: real time      0.0402
    FORLOC:  cpu time      0.0003: real time      0.0181
    FORNL :  cpu time      0.0501: real time      0.0596
    STRESS:  cpu time      0.0810: real time      0.0868
    FORCOR:  cpu time      0.0078: real time      0.0078
    FORHAR:  cpu time      0.0015: real time      0.0018
    MIXING:  cpu time      0.0021: real time      0.0021
    OFIELD:  cpu time      0.0001: real time      0.0017

  FORCE on cell =-STRESS in cart. coord.  units (eV):
  Direction    XX          YY          ZZ          XY          YZ          ZX
  --------------------------------------------------------------------------------------
  Alpha Z   163.27592   163.27592   163.27592
  Ewald    -889.82202  -889.82202  -889.82202    -0.00000     0.00000     0.00000
  Hartree   156.42983   156.42983   156.42983    -0.00000    -0.00000    -0.00000
  E(xc)    -118.42059  -118.42059  -118.42059    -0.00000     0.00000     0.00000
  Local     169.71021   169.71021   169.71021     0.00000    -0.00000    -0.00000
  n-local    -4.80912   -27.23028   -41.38990     1.33434    -0.37473    -0.27476
  augment    36.64589    36.64589    36.64589     0.00000     0.00000    -0.00000
  Kinetic   470.74686   505.29412   542.91596     2.20719    -2.77310     1.10283
  Fock        0.00000     0.00000     0.00000     0.00000     0.00000     0.00000
  -------------------------------------------------------------------------------------
  Total      -0.33821    -0.33821    -0.33821    -0.00000    -0.00000     0.00000
  in kB     -14.83926   -14.83926   -14.83926    -0.00000    -0.00000     0.00000
  external pressure =      -14.84 kB  Pullay stress =        0.00 kB


 VOLUME and BASIS-vectors are now :
 -----------------------------------------------------------------------------
  energy-cutoff  :      430.00
  volume of cell :       36.52
      direct lattice vectors                 reciprocal lattice vectors
     3.317632379  0.000000000  0.000000000     0.301419773  0.000000000  0.000000000
    -0.000000000  3.317632379  0.000000000     0.000000000  0.301419773  0.000000000
     0.000000000  0.000000000  3.317632379    -0.000000000 -0.000000000  0.301419773

  length of vectors
     3.317632379  3.317632379  3.317632379     0.301419773  0.301419773  0.301419773


 FORCES acting on ions
    electron-ion (+dipol)            ewald-force                    non-local-force                 convergence-correction
 -----------------------------------------------------------------------------------------------
   -.139E-14 -.398E-14 -.179E-13   -.404E-14 -.483E-14 -.755E-14   0.823E-24 -.729E-23 0.259E-22   0.856E-14 0.190E-13 -.224E-13
   0.191E-12 0.379E-12 -.299E-11   0.349E-14 0.646E-14 0.479E-14   0.196E-22 -.627E-23 0.285E-22   -.514E-14 0.365E-13 -.691E-14
 -----------------------------------------------------------------------------------------------
   0.190E-12 0.375E-12 -.301E-11   -.550E-15 0.163E-14 -.276E-14   0.204E-22 -.136E-22 0.544E-22   0.342E-14 0.555E-13 -.293E-13
 
 
 POSITION                                       TOTAL-FORCE (eV/Angst)
 -----------------------------------------------------------------------------------
      0.00000      0.00000      0.00000        -0.000000     -0.000000     -0.000000
      1.65882      1.65882      1.65882         0.000000      0.000000      0.000000
 -----------------------------------------------------------------------------------
    total drift:                                0.000000      0.000000     -0.000000


--------------------------------------------------------------------------------------------------------



  FREE ENERGIE OF THE ION-ELECTRON SYSTEM (eV)
  ---------------------------------------------------
  free  energy   TOTEN  =       -20.42581388 eV

  energy  without entropy=      -20.42269138  energy(sigma->0) =      -20.42477304
 


--------------------------------------------------------------------------------------------------------


    POTLOK:  cpu time      0.0101: real time      0.0101


--------------------------------------------------------------------------------------------------------


 stress matrix after NEB project (eV)
     -0.33821      0.00000      0.00000
     -0.00000     -0.33821      0.00000
     -0.00000     -0.00000     -0.33821
  FORCES: max atom, RMS     0.000000    0.000000
  FORCE total and by dimension    0.000000    0.000000
  Stress total and by dimension    0.585797    0.338210


--------------------------------------------------------------------------------------------------------


    WAVPRE:  cpu time      0.0057: real time      0.0532
    FEWALD:  cpu time      0.0001: real time      0.0001
    GENKIN:  cpu time      0.0039: real time      0.0039

 real space projection operators:
  total allocation   :       2106.28 KBytes
  max/ min on nodes  :        529.31        522.84

    ORTHCH:  cpu time      0.0117: real time      0.0117
     LOOP+:  cpu time      1.3703: real time      1.5661


--------------------------------------- Iteration      2(   1)  ---------------------------------------


    POTLOK:  cpu time      0.0067: real time      0.0067
    SETDIJ:  cpu time      0.0025: real time      0.0026
     EDDAV:  cpu time      0.0609: real time      0.0610
       DOS:  cpu time      0.0008: real time      0.0008
    CHARGE:  cpu time      0.0079: real time      0.0079
    MIXING:  cpu time      0.0006: real time      0.0006
    --------------------------------------------
      LOOP:  cpu time      0.0795: real time      0.0796

 eigenvalue-minimisations  :  1340
 total energy-change (2. order) :-0.1213658E+00  (-0.2642752E+00)
 number of electron      25.9999537 magnetization 
 augmentation part        2.4036465 magnetization 

 Broyden mixing:
  rms(total) = 0.19200E+00    rms(broyden)= 0.19200E+00
  rms(prec ) = 0.38537E+00
  weight for this iteration     100.00

 Free energy of the ion-electron system (eV)
  ---------------------------------------------------
  alpha Z        PSCENC =       165.97290840
  Ewald energy   TEWEN  =     -2684.08100673
  -Hartree energ DENC   =      -471.85877766
  -exchange      EXHF   =         0.00000000
  -V(xc)+E(xc)   XCENC  =       112.72098680
  PAW double counting   =      2960.86344898    -2916.43267089
  entropy T*S    EENTRO =        -0.00229443
  eigenvalues    EBANDS =      -298.08404608
  atomic energy  EATOM  =      3110.35427263
  Solvation  Ediel_sol  =         0.00000000
  ---------------------------------------------------
  free energy    TOTEN  =       -20.54717899 eV

  energy without entropy =      -20.54488456  energy(sigma->0) =      -20.54641418


--------------------------------------------------------------------------------------------------------




--------------------------------------- Iteration      2(   2)  ---------------------------------------


    POTLOK:  cpu time      0.0071: real time      0.0072
    SETDIJ:  cpu time      0.0023: real time      0.0023
     EDDAV:  cpu time      0.0734: real time      0.0736
       DOS:  cpu time      0.0008: real time      0.0008
    CHARGE:  cpu time      0.0071: real time      0.0071
    MIXING:  cpu time      0.0006: real time      0.0006
    --------------------------------------------
      LOOP:  cpu time      0.0914: real time      0.0917

 eigenvalue-minimisations  :  1726
 total energy-change (2. order) : 0.4753868E-01  (-0.2304564E-01)
 number of electron      25.9999667 magnetization 
 augmentation part        2.4880054 magnetization 

 Broyden mixing:
  rms(total) = 0.85289E-01    rms(broyden)= 0.85287E-01
  rms(prec ) = 0.18487E+00
  weight for this iteration     100.00

 eigenvalues of (default mixing * dielectric matrix)
  average eigenvalue GAMMA=   1.3610
  1.3610

 Free energy of the ion-electron system (eV)
  ---------------------------------------------------
  alpha Z        PSCENC =       165.97290840
  Ewald energy   TEWEN  =     -2684.08100673
  -Hartree energ DENC   =      -466.22183312
  -exchange      EXHF   =         0.00000000
  -V(xc)+E(xc)   XCENC  =       112.43454828
  PAW double counting   =      3007.03495214    -2963.01741028
  entropy T*S    EENTRO =        -0.00197083
  eigenvalues    EBANDS =      -302.97410079
  atomic energy  EATOM  =      3110.35427263
  Solvation  Ediel_sol  =         0.00000000
  ---------------------------------------------------
  free energy    TOTEN  =       -20.49964031 eV

  energy without entropy =      -20.49766949  energy(sigma->0) =      -20.49898337


--------------------------------------------------------------------------------------------------------




--------------------------------------- Iteration      2(   3)  ---------------------------------------


    POTLOK:  cpu time      0.0072: real time      0.0072
    SETDIJ:  cpu time      0.0024: real time      0.0024
     EDDAV:  cpu time      0.0896: real time      0.0899
       DOS:  cpu time      0.0008: real time      0.0008
    CHARGE:  cpu time      0.0065: real time      0.0065
    MIXING:  cpu time      0.0010: real time      0.0010
    --------------------------------------------
      LOOP:  cpu time      0.1075: real time      0.1078

 eigenvalue-minimisations  :  2276
 total energy-change (2. order) : 0.1458409E-01  (-0.8474212E-02)
 number of electron      25.9999687 magnetization 
 augmentation part        2.4719147 magnetization 

 Broyden mixing:
  rms(total) = 0.42780E-01    rms(broyden)= 0.42779E-01
  rms(prec ) = 0.55159E-01
  weight for this iteration     100.00

 eigenvalues of (default mixing * dielectric matrix)
  average eigenvalue GAMMA=   1.2725
  1.2725  1.2725

 Free energy of the ion-electron system (eV)
  ---------------------------------------------------
  alpha Z        PSCENC =       165.97290840
  Ewald energy   TEWEN  =     -2684.08100673
  -Hartree energ DENC   =      -462.07930118
  -exchange      EXHF   =         0.00000000
  -V(xc)+E(xc)   XCENC  =       112.22898258
  PAW double counting   =      3014.26197902    -2970.98598515
  entropy T*S    EENTRO =        -0.00171598
  eigenvalues    EBANDS =      -306.15518980
  atomic energy  EATOM  =      3110.35427263
  Solvation  Ediel_sol  =         0.00000000
  ---------------------------------------------------
  free energy    TOTEN  =       -20.48505622 eV

  energy without entropy =      -20.48334023  energy(sigma->0) =      -20.48448422


--------------------------------------------------------------------------------------------------------




--------------------------------------- Iteration      2(   4)  ---------------------------------------


    POTLOK:  cpu time      0.0071: real time      0.0072
    SETDIJ:  cpu time      0.0027: real time      0.0027
     EDDAV:  cpu time      0.0812: real time      0.0815
       DOS:  cpu time      0.0009: real time      0.0009
    CHARGE:  cpu time      0.0068: real time      0.0069
    MIXING:  cpu time      0.0006: real time      0.0006
    --------------------------------------------
      LOOP:  cpu time      0.0994: real time      0.0998

 eigenvalue-minimisations  :  2002
 total energy-change (2. order) :-0.1259323E-02  (-0.8977817E-03)
 number of electron      25.9999663 magnetization 
 augmentation part        2.4532211 magnetization 

 Broyden mixing:
  rms(total) = 0.15453E-01    rms(broyden)= 0.15452E-01
  rms(prec ) = 0.17443E-01
  weight for this iteration     100.00

 eigenvalues of (default mixing * dielectric matrix)
  average eigenvalue GAMMA=   1.6387
  2.1079  1.4041  1.4041

 Free energy of the ion-electron system (eV)
  ---------------------------------------------------
  alpha Z        PSCENC =       165.97290840
  Ewald energy   TEWEN  =     -2684.08100673
  -Hartree energ DENC   =      -463.20389469
  -exchange      EXHF   =         0.00000000
  -V(xc)+E(xc)   XCENC  =       112.28550553
  PAW double counting   =      3003.15215816    -2959.52013159
  entropy T*S    EENTRO =        -0.00174044
  eigenvalues    EBANDS =      -305.44438680
  atomic energy  EATOM  =      3110.35427263
  Solvation  Ediel_sol  =         0.00000000
  ---------------------------------------------------
  free energy    TOTEN  =       -20.48631554 eV

  energy without entropy =      -20.48457510  energy(sigma->0) =      -20.48573539


--------------------------------------------------------------------------------------------------------




--------------------------------------- Iteration      2(   5)  ---------------------------------------


    POTLOK:  cpu time      0.0071: real time      0.0073
    SETDIJ:  cpu time      0.0024: real time      0.0024
     EDDAV:  cpu time      0.1383: real time      0.1407
       DOS:  cpu time      0.0010: real time      0.0010
    CHARGE:  cpu time      0.0068: real time      0.0068
    MIXING:  cpu time      0.0009: real time      0.0009
    --------------------------------------------
      LOOP:  cpu time      0.1565: real time      0.1591

 eigenvalue-minimisations  :  2280
 total energy-change (2. order) :-0.1206176E-02  (-0.3425867E-03)
 number of electron      25.9999666 magnetization 
 augmentation part        2.4406133 magnetization 

 Broyden mixing:
  rms(total) = 0.13893E-01    rms(broyden)= 0.13891E-01
  rms(prec ) = 0.22359E-01
  weight for this iteration     100.00

 eigenvalues of (default mixing * dielectric matrix)
  average eigenvalue GAMMA=   1.7016
  2.4616  2.0100  1.3106  1.0241

 Free energy of the ion-electron system (eV)
  ---------------------------------------------------
  alpha Z        PSCENC =       165.97290840
  Ewald energy   TEWEN  =     -2684.08100673
  -Hartree energ DENC   =      -463.21393800
  -exchange      EXHF   =         0.00000000
  -V(xc)+E(xc)   XCENC  =       112.28468503
  PAW double counting   =      2999.24654149    -2955.18245321
  entropy T*S    EENTRO =        -0.00167823
  eigenvalues    EBANDS =      -305.86685309
  atomic energy  EATOM  =      3110.35427263
  Solvation  Ediel_sol  =         0.00000000
  ---------------------------------------------------
  free energy    TOTEN  =       -20.48752171 eV

  energy without entropy =      -20.48584348  energy(sigma->0) =      -20.48696230


--------------------------------------------------------------------------------------------------------




--------------------------------------- Iteration      2(   6)  ---------------------------------------


    POTLOK:  cpu time      0.0072: real time      0.0073
    SETDIJ:  cpu time      0.0024: real time      0.0024
     EDDAV:  cpu time      0.0709: real time      0.0711
       DOS:  cpu time      0.0008: real time      0.0035
    CHARGE:  cpu time      0.0061: real time      0.0061
    MIXING:  cpu time      0.0007: real time      0.0007
    --------------------------------------------
      LOOP:  cpu time      0.0880: real time      0.0911

 eigenvalue-minimisations  :  1626
 total energy-change (2. order) :-0.1435125E-03  (-0.5135793E-04)
 number of electron      25.9999664 magnetization 
 augmentation part        2.4376403 magnetization 

 Broyden mixing:
  rms(total) = 0.10444E-02    rms(broyden)= 0.10421E-02
  rms(prec ) = 0.22305E-02
  weight for this iteration     100.00

 eigenvalues of (default mixing * dielectric matrix)
  average eigenvalue GAMMA=   1.6876
  2.8514  1.9522  1.3638  1.3638  0.9068

 Free energy of the ion-electron system (eV)
  ---------------------------------------------------
  alpha Z        PSCENC =       165.97290840
  Ewald energy   TEWEN  =     -2684.08100673
  -Hartree energ DENC   =      -463.77949498
  -exchange      EXHF   =         0.00000000
  -V(xc)+E(xc)   XCENC  =       112.31160578
  PAW double counting   =      2996.70575833    -2952.23626680
  entropy T*S    EENTRO =        -0.00167396
  eigenvalues    EBANDS =      -305.73376789
  atomic energy  EATOM  =      3110.35427263
  Solvation  Ediel_sol  =         0.00000000
  ---------------------------------------------------
  free energy    TOTEN  =       -20.48766523 eV

  energy without entropy =      -20.48599127  energy(sigma->0) =      -20.48710724


--------------------------------------------------------------------------------------------------------




--------------------------------------- Iteration      2(   7)  ---------------------------------------


    POTLOK:  cpu time      0.0073: real time      0.0099
    SETDIJ:  cpu time      0.0025: real time      0.0024
     EDDAV:  cpu time      0.0822: real time      0.0825
       DOS:  cpu time      0.0008: real time      0.0008
    CHARGE:  cpu time      0.0061: real time      0.0061
    MIXING:  cpu time      0.0007: real time      0.0007
    --------------------------------------------
      LOOP:  cpu time      0.0995: real time      0.1025

 eigenvalue-minimisations  :  1862
 total energy-change (2. order) :-0.6263543E-05  (-0.4231325E-05)
 number of electron      25.9999662 magnetization 
 augmentation part        2.4368240 magnetization 

 Broyden mixing:
  rms(total) = 0.83963E-03    rms(broyden)= 0.83839E-03
  rms(prec ) = 0.15600E-02
  weight for this iteration     100.00

 eigenvalues of (default mixing * dielectric matrix)
  average eigenvalue GAMMA=   1.6080
  2.9352  2.0710  1.5392  1.5392  0.9423  0.6212

 Free energy of the ion-electron system (eV)
  ---------------------------------------------------
  alpha Z        PSCENC =       165.97290840
  Ewald energy   TEWEN  =     -2684.08100673
  -Hartree energ DENC   =      -463.77894315
  -exchange      EXHF   =         0.00000000
  -V(xc)+E(xc)   XCENC  =       112.31153834
  PAW double counting   =      2996.14646411    -2951.66216957
  entropy T*S    EENTRO =        -0.00167272
  eigenvalues    EBANDS =      -305.74906279
  atomic energy  EATOM  =      3110.35427263
  Solvation  Ediel_sol  =         0.00000000
  ---------------------------------------------------
  free energy    TOTEN  =       -20.48767149 eV

  energy without entropy =      -20.48599877  energy(sigma->0) =      -20.48711392


--------------------------------------------------------------------------------------------------------




--------------------------------------- Iteration      2(   8)  ---------------------------------------


    POTLOK:  cpu time      0.0072: real time      0.0073
    SETDIJ:  cpu time      0.0024: real time      0.0024
     EDDAV:  cpu time      0.0547: real time      0.0548
       DOS:  cpu time      0.0008: real time      0.0008
    CHARGE:  cpu time      0.0062: real time      0.0062
    MIXING:  cpu time      0.0014: real time      0.0014
    --------------------------------------------
      LOOP:  cpu time      0.0726: real time      0.0729

 eigenvalue-minimisations  :  1038
 total energy-change (2. order) : 0.2882251E-05  (-0.2076335E-06)
 number of electron      25.9999662 magnetization 
 augmentation part        2.4370098 magnetization 

 Broyden mixing:
  rms(total) = 0.16013E-03    rms(broyden)= 0.15985E-03
  rms(prec ) = 0.32931E-03
  weight for this iteration     100.00

 eigenvalues of (default mixing * dielectric matrix)
  average eigenvalue GAMMA=   1.6592
  3.1017  2.3645  1.6026  1.6026  0.8757  1.0337  1.0337

 Free energy of the ion-electron system (eV)
  ---------------------------------------------------
  alpha Z        PSCENC =       165.97290840
  Ewald energy   TEWEN  =     -2684.08100673
  -Hartree energ DENC   =      -463.74737561
  -exchange      EXHF   =         0.00000000
  -V(xc)+E(xc)   XCENC  =       112.30997101
  PAW double counting   =      2996.19204164    -2951.71877126
  entropy T*S    EENTRO =        -0.00167286
  eigenvalues    EBANDS =      -305.76803582
  atomic energy  EATOM  =      3110.35427263
  Solvation  Ediel_sol  =         0.00000000
  ---------------------------------------------------
  free energy    TOTEN  =       -20.48766861 eV

  energy without entropy =      -20.48599575  energy(sigma->0) =      -20.48711099


--------------------------------------------------------------------------------------------------------




--------------------------------------- Iteration      2(   9)  ---------------------------------------


    POTLOK:  cpu time      0.0070: real time      0.0073
    SETDIJ:  cpu time      0.0024: real time      0.0024
     EDDAV:  cpu time      0.0460: real time      0.0460
       DOS:  cpu time      0.0151: real time      0.0152
    --------------------------------------------
      LOOP:  cpu time      0.0706: real time      0.0709

 eigenvalue-minimisations  :   764
 total energy-change (2. order) : 0.2248953E-07  (-0.2416434E-07)
 number of electron      25.9999662 magnetization 
 augmentation part        2.4370098 magnetization 

 Free energy of the ion-electron system (eV)
  ---------------------------------------------------
  alpha Z        PSCENC =       165.97290840
  Ewald energy   TEWEN  =     -2684.08100673
  -Hartree energ DENC   =      -463.74428600
  -exchange      EXHF   =         0.00000000
  -V(xc)+E(xc)   XCENC  =       112.30981041
  PAW double counting   =      2996.08776839    -2951.61283052
  entropy T*S    EENTRO =        -0.00167283
  eigenvalues    EBANDS =      -305.77263234
  atomic energy  EATOM  =      3110.35427263
  Solvation  Ediel_sol  =         0.00000000
  ---------------------------------------------------
  free energy    TOTEN  =       -20.48766859 eV

  energy without entropy =      -20.48599576  energy(sigma->0) =      -20.48711098


--------------------------------------------------------------------------------------------------------




 average (electrostatic) potential at core
  the test charge radii are     1.0703
  (the norm of the test charge is              1.0000)
       1 -76.7409       2 -76.7409
 
 
 
 E-fermi :  11.1711     XC(G=0): -12.5156     alpha+bet :-19.3124

 Fermi energy:        11.1710769639

 k-point     1 :       0.0500    0.0500    0.0500
  band No.  band energies     occupation 
      1     -43.1478      2.00000
      2     -42.7417      2.00000
      3     -19.4154      2.00000
      4     -19.3908      2.00000
      5     -19.3114      2.00000
      6     -18.5307      2.00000
      7     -18.4907      2.00000
      8     -18.3954      2.00000
      9       5.4328      2.00000
     10       7.5634      2.00000
     11       7.6152      2.00000
     12      11.4943     -0.00005
     13      11.5215     -0.00001
     14      11.7596     -0.00000
     15      14.3161      0.00000
     16      14.5298      0.00000
     17      15.9405      0.00000
     18      16.6112      0.00000

 k-point     2 :       0.1500    0.0500    0.0500
  band No.  band energies     occupation 
      1     -43.1249      2.00000
      2     -42.7582      2.00000
      3     -19.4391      2.00000
      4     -19.3429      2.00000
      5     -19.2492      2.00000
      6     -18.6479      2.00000
      7     -18.5212      2.00000
      8     -18.4282      2.00000
      9       5.8332      2.00000
     10       7.8137      2.00000
     11       7.9268      2.00000
     12      11.3540     -0.02664
     13      11.4535     -0.00048
     14      12.0527     -0.00000
     15      13.9269      0.00000
     16      14.6139      0.00000
     17      14.8000      0.00000
     18      15.5148      0.00000

 k-point     3 :       0.2500    0.0500    0.0500
  band No.  band energies     occupation 
      1     -43.0820      2.00000
      2     -42.7907      2.00000
      3     -19.4481      2.00000
      4     -19.2544      2.00000
      5     -19.1513      2.00000
      6     -18.8248      2.00000
      7     -18.5992      2.00000
      8     -18.5014      2.00000
      9       6.5637      2.00000
     10       8.2442      2.00000
     11       8.4832      2.00000
     12      11.2935     -0.07092
     13      11.3705     -0.01629
     14      12.4799     -0.00000
     15      13.0709     -0.00000
     16      13.6721     -0.00000
     17      14.3110      0.00000
     18      15.0089      0.00000

 k-point     4 :       0.3500    0.0500    0.0500
  band No.  band energies     occupation 
      1     -43.0248      2.00000
      2     -42.8376      2.00000
      3     -19.4211      2.00000
      4     -19.1336      2.00000
      5     -19.0270      2.00000
      6     -19.0236      2.00000
      7     -18.7120      2.00000
      8     -18.6101      2.00000
      9       7.4834      2.00000
     10       8.8607      2.00000
     11       8.9673      2.00000
     12      11.2013      0.51280
     13      11.3914     -0.00786
     14      12.2528     -0.00000
     15      12.7646     -0.00000
     16      13.0475     -0.00000
     17      13.2970     -0.00000
     18      15.3190      0.00000

 k-point     5 :       0.4500    0.0500    0.0500
  band No.  band energies     occupation 
      1     -42.9603      2.00000
      2     -42.8957      2.00000
      3     -19.3419      2.00000
      4     -19.2055      2.00000
      5     -18.9932      2.00000
      6     -18.8865      2.00000
      7     -18.8478      2.00000
      8     -18.7429      2.00000
      9       8.3768      2.00000
     10       8.9522      2.00000
     11       9.6683      2.00000
     12      10.5480      2.00000
     13      11.6753     -0.00000
     14      12.1187     -0.00000
     15      12.1279     -0.00000
     16      12.5473     -0.00000
     17      13.7396     -0.00000
     18      14.5091      0.00000

 k-point     6 :       0.1500    0.1500    0.0500
  band No.  band energies     occupation 
      1     -43.1037      2.00000
      2     -42.7727      2.00000
      3     -19.4969      2.00000
      4     -19.2893      2.00000
      5     -19.1689      2.00000
      6     -18.7987      2.00000
      7     -18.4947      2.00000
      8     -18.4679      2.00000
      9       6.1973      2.00000
     10       8.0755      2.00000
     11       8.2037      2.00000
     12      11.0250      2.05871
     13      11.3054     -0.06723
     14      12.5642     -0.00000
     15      13.6726     -0.00000
     16      14.0863      0.00000
     17      14.3989      0.00000
     18      14.8552      0.00000

 k-point     7 :       0.2500    0.1500    0.0500
  band No.  band energies     occupation 
      1     -43.0643      2.00000
      2     -42.8013      2.00000
      3     -19.5405      2.00000
      4     -19.1996      2.00000
      5     -19.0575      2.00000
      6     -18.9936      2.00000
      7     -18.5516      2.00000
      8     -18.5137      2.00000
      9       6.8430      2.00000
     10       8.4277      2.00000
     11       8.7713      2.00000
     12      10.7930      2.00000
     13      11.1332      1.59266
     14      12.6482     -0.00000
     15      13.1883     -0.00000
     16      13.5915     -0.00000
     17      13.8709     -0.00000
     18      14.7918      0.00000

 k-point     8 :       0.3500    0.1500    0.0500
  band No.  band energies     occupation 
      1     -43.0120      2.00000
      2     -42.8429      2.00000
      3     -19.5427      2.00000
      4     -19.1947      2.00000
      5     -19.0794      2.00000
      6     -18.9328      2.00000
      7     -18.6625      2.00000
      8     -18.5826      2.00000
      9       7.6166      2.00000
     10       8.8046      2.00000
     11       9.3272      2.00000
     12      10.7099      2.00000
     13      10.9742      2.01766
     14      11.8950     -0.00000
     15      13.0412     -0.00000
     16      13.1671     -0.00000
     17      13.9109      0.00000
     18      15.3049      0.00000

 k-point     9 :       0.4500    0.1500    0.0500
  band No.  band energies     occupation 
      1     -42.9533      2.00000
      2     -42.8950      2.00000
      3     -19.4867      2.00000
      4     -19.3674      2.00000
      5     -18.9403      2.00000
      6     -18.8044      2.00000
      7     -18.7965      2.00000
      8     -18.6836      2.00000
      9       8.3320      2.00000
     10       8.8094      2.00000
     11       9.8618      2.00000
     12      10.4294      2.00000
     13      11.0322      2.06434
     14      11.3840     -0.01031
     15      12.8428     -0.00000
     16      12.9017     -0.00000
     17      14.6587      0.00000
     18      15.3432      0.00000

 k-point    10 :       0.2500    0.2500    0.0500
  band No.  band energies     occupation 
      1     -43.0316      2.00000
      2     -42.8226      2.00000
      3     -19.6263      2.00000
      4     -19.2002      2.00000
      5     -19.1207      2.00000
      6     -18.9327      2.00000
      7     -18.5992      2.00000
      8     -18.5011      2.00000
      9       7.2830      2.00000
     10       8.5436      2.00000
     11       9.4186      2.00000
     12      10.3835      2.00000
     13      11.0340      2.06558
     14      11.7339     -0.00000
     15      13.2377     -0.00000
     16      13.9863      0.00000
     17      14.1419      0.00000
     18      14.5858      0.00000

 k-point    11 :       0.3500    0.2500    0.0500
  band No.  band energies     occupation 
      1     -42.9885      2.00000
      2     -42.8542      2.00000
      3     -19.6686      2.00000
      4     -19.3983      2.00000
      5     -19.0189      2.00000
      6     -18.8061      2.00000
      7     -18.6832      2.00000
      8     -18.5270      2.00000
      9       7.7120      2.00000
     10       8.5281      2.00000
     11      10.1219      2.00000
     12      10.1801      2.00000
     13      11.0604      2.06592
     14      11.1390      1.51325
     15      13.0655     -0.00000
     16      13.8967     -0.00000
     17      14.9188      0.00000
     18      15.0432      0.00000

 k-point    12 :       0.4500    0.2500    0.0500
  band No.  band energies     occupation 
      1     -42.9410      2.00000
      2     -42.8946      2.00000
      3     -19.6472      2.00000
      4     -19.5547      2.00000
      5     -18.9040      2.00000
      6     -18.7881      2.00000
      7     -18.6895      2.00000
      8     -18.5931      2.00000
      9       8.0575      2.00000
     10       8.3417      2.00000
     11      10.2054      2.00000
     12      10.4023      2.00000
     13      10.8730      2.00021
     14      11.1428      1.45732
     15      13.4011     -0.00000
     16      13.7129     -0.00000
     17      15.4719      0.00000
     18      15.9606      0.00000

 k-point    13 :       0.3500    0.3500    0.0500
  band No.  band energies     occupation 
      1     -42.9584      2.00000
      2     -42.8721      2.00000
      3     -19.7527      2.00000
      4     -19.5816      2.00000
      5     -18.9468      2.00000
      6     -18.7305      2.00000
      7     -18.6888      2.00000
      8     -18.5078      2.00000
      9       7.7109      2.00000
     10       8.1860      2.00000
     11       9.8369      2.00000
     12      10.3766      2.00000
     13      11.0814      2.02171
     14      11.7672     -0.00000
     15      13.3450     -0.00000
     16      14.4591      0.00000
     17      14.8881      0.00000
     18      15.9235      0.00000

 k-point    14 :       0.4500    0.3500    0.0500
  band No.  band energies     occupation 
      1     -42.9263      2.00000
      2     -42.8966      2.00000
      3     -19.7708      2.00000
      4     -19.7122      2.00000
      5     -18.8689      2.00000
      6     -18.7943      2.00000
      7     -18.5946      2.00000
      8     -18.5319      2.00000
      9       7.7410      2.00000
     10       7.8983      2.00000
     11       9.7492      2.00000
     12       9.9334      2.00000
     13      11.8681     -0.00000
     14      12.1818     -0.00000
     15      13.9382      0.00000
     16      14.4027      0.00000
     17      15.3428      0.00000
     18      16.2918      0.00000

 k-point    15 :       0.4500    0.4500    0.0500
  band No.  band energies     occupation 
      1     -42.9127      2.00000
      2     -42.9024      2.00000
      3     -19.8294      2.00000
      4     -19.8094      2.00000
      5     -18.8364      2.00000
      6     -18.8106      2.00000
      7     -18.5337      2.00000
      8     -18.5120      2.00000
      9       7.5747      2.00000
     10       7.6263      2.00000
     11       9.5329      2.00000
     12       9.5963      2.00000
     13      12.9206     -0.00000
     14      13.1431     -0.00000
     15      14.4284      0.00000
     16      14.6628      0.00000
     17      15.1662      0.00000
     18      15.7040      0.00000

 k-point    16 :       0.1500    0.1500    0.1500
  band No.  band energies     occupation 
      1     -43.0846      2.00000
      2     -42.7858      2.00000
      3     -19.4472      2.00000
      4     -19.3951      2.00000
      5     -19.0438      2.00000
      6     -18.9034      2.00000
      7     -18.5426      2.00000
      8     -18.4625      2.00000
      9       6.5416      2.00000
     10       8.3718      2.00000
     11       8.4212      2.00000
     12      10.8906      2.00053
     13      10.9250      2.00276
     14      12.5382     -0.00000
     15      13.1705     -0.00000
     16      14.1696      0.00000
     17      14.3381      0.00000
     18      15.6681      0.00000

 k-point    17 :       0.2500    0.1500    0.1500
  band No.  band energies     occupation 
      1     -43.0483      2.00000
      2     -42.8109      2.00000
      3     -19.5172      2.00000
      4     -19.3089      2.00000
      5     -19.0881      2.00000
      6     -18.9221      2.00000
      7     -18.5964      2.00000
      8     -18.4961      2.00000
      9       7.1499      2.00000
     10       8.7315      2.00000
     11       8.9387      2.00000
     12      10.6409      2.00000
     13      10.6933      2.00000
     14      11.6018     -0.00000
     15      13.8560     -0.00000
     16      13.9219      0.00000
     17      14.5840      0.00000
     18      14.6893      0.00000

 k-point    18 :       0.3500    0.1500    0.1500
  band No.  band energies     occupation 
      1     -43.0004      2.00000
      2     -42.8478      2.00000
      3     -19.5509      2.00000
      4     -19.2744      2.00000
      5     -19.1782      2.00000
      6     -18.8042      2.00000
      7     -18.7160      2.00000
      8     -18.5375      2.00000
      9       7.8376      2.00000
     10       9.1670      2.00000
     11       9.2350      2.00000
     12      10.4236      2.00000
     13      10.6935      2.00000
     14      11.1802      0.84679
     15      13.3914     -0.00000
     16      13.7213     -0.00000
     17      14.7173      0.00000
     18      15.2654      0.00000

 k-point    19 :       0.4500    0.1500    0.1500
  band No.  band energies     occupation 
      1     -42.9470      2.00000
      2     -42.8943      2.00000
      3     -19.5230      2.00000
      4     -19.4276      2.00000
      5     -19.0248      2.00000
      6     -18.8650      2.00000
      7     -18.6963      2.00000
      8     -18.6053      2.00000
      9       8.4447      2.00000
     10       8.9463      2.00000
     11       9.6622      2.00000
     12      10.0955      2.00000
     13      10.9902      2.02817
     14      11.1904      0.67973
     15      13.1102     -0.00000
     16      13.2081     -0.00000
     17      15.1696      0.00000
     18      15.3345      0.00000

 k-point    20 :       0.2500    0.2500    0.1500
  band No.  band energies     occupation 
      1     -43.0181      2.00000
      2     -42.8295      2.00000
      3     -19.5712      2.00000
      4     -19.2683      2.00000
      5     -19.2582      2.00000
      6     -18.8088      2.00000
      7     -18.5915      2.00000
      8     -18.5557      2.00000
      9       7.6430      2.00000
     10       8.9457      2.00000
     11       9.4892      2.00000
     12      10.2577      2.00000
     13      10.5506      2.00000
     14      10.7768      2.00000
     15      14.2245      0.00000
     16      14.2378      0.00000
     17      14.5708      0.00000
     18      14.8469      0.00000

 k-point    21 :       0.3500    0.2500    0.1500
  band No.  band energies     occupation 
      1     -42.9786      2.00000
      2     -42.8574      2.00000
      3     -19.6227      2.00000
      4     -19.4252      2.00000
      5     -19.1533      2.00000
      6     -18.7109      2.00000
      7     -18.7068      2.00000
      8     -18.5577      2.00000
      9       8.0756      2.00000
     10       8.9004      2.00000
     11       9.9100      2.00000
     12      10.0579      2.00000
     13      10.6446      2.00000
     14      10.6668      2.00000
     15      13.7812     -0.00000
     16      14.0347      0.00000
     17      15.0104      0.00000
     18      15.8306      0.00000

 k-point    22 :       0.4500    0.2500    0.1500
  band No.  band energies     occupation 
      1     -42.9353      2.00000
      2     -42.8935      2.00000
      3     -19.6218      2.00000
      4     -19.5539      2.00000
      5     -19.0068      2.00000
      6     -18.8519      2.00000
      7     -18.6346      2.00000
      8     -18.5829      2.00000
      9       8.3652      2.00000
     10       8.6411      2.00000
     11       9.9355      2.00000
     12       9.9732      2.00000
     13      10.9625      2.01199
     14      10.9951      2.03207
     15      13.7030     -0.00000
     16      13.8106     -0.00000
     17      15.3313      0.00000
     18      15.5535      0.00000

 k-point    23 :       0.3500    0.3500    0.1500
  band No.  band energies     occupation 
      1     -42.9509      2.00000
      2     -42.8729      2.00000
      3     -19.6924      2.00000
      4     -19.5706      2.00000
      5     -19.0680      2.00000
      6     -18.7499      2.00000
      7     -18.6405      2.00000
      8     -18.5690      2.00000
      9       8.1233      2.00000
     10       8.5205      2.00000
     11       9.7718      2.00000
     12      10.0786      2.00000
     13      10.9761      2.01872
     14      11.1888      0.70500
     15      13.8650     -0.00000
     16      14.5222      0.00000
     17      14.9324      0.00000
     18      16.0191      0.00000

 k-point    24 :       0.4500    0.3500    0.1500
  band No.  band energies     occupation 
      1     -42.9216      2.00000
      2     -42.8947      2.00000
      3     -19.7161      2.00000
      4     -19.6745      2.00000
      5     -18.9554      2.00000
      6     -18.8414      2.00000
      7     -18.5967      2.00000
      8     -18.5761      2.00000
      9       8.1227      2.00000
     10       8.2403      2.00000
     11       9.6912      2.00000
     12       9.8159      2.00000
     13      11.6390     -0.00000
     14      11.7181     -0.00000
     15      14.1917      0.00000
     16      14.4614      0.00000
     17      15.2490      0.00000
     18      15.6750      0.00000

 k-point    25 :       0.4500    0.4500    0.1500
  band No.  band energies     occupation 
      1     -42.9089      2.00000
      2     -42.8996      2.00000
      3     -19.7661      2.00000
      4     -19.7520      2.00000
      5     -18.8962      2.00000
      6     -18.8535      2.00000
      7     -18.5813      2.00000
      8     -18.5773      2.00000
      9       7.9711      2.00000
     10       8.0041      2.00000
     11       9.5140      2.00000
     12       9.5681      2.00000
     13      12.4480     -0.00000
     14      12.5057     -0.00000
     15      14.5981      0.00000
     16      14.7484      0.00000
     17      15.1941      0.00000
     18      15.4423      0.00000

 k-point    26 :       0.2500    0.2500    0.2500
  band No.  band energies     occupation 
      1     -42.9935      2.00000
      2     -42.8436      2.00000
      3     -19.4662      2.00000
      4     -19.4064      2.00000
      5     -19.3540      2.00000
      6     -18.7054      2.00000
      7     -18.6598      2.00000
      8     -18.5795      2.00000
      9       8.2236      2.00000
     10       9.6037      2.00000
     11       9.6349      2.00000
     12       9.9431      2.00000
     13      10.0829      2.00000
     14      10.1118      2.00000
     15      14.4882      0.00000
     16      14.5976      0.00000
     17      14.9836      0.00000
     18      15.0747      0.00000

 k-point    27 :       0.3500    0.2500    0.2500
  band No.  band energies     occupation 
      1     -42.9607      2.00000
      2     -42.8644      2.00000
      3     -19.5520      2.00000
      4     -19.4752      2.00000
      5     -19.2720      2.00000
      6     -18.7560      2.00000
      7     -18.6397      2.00000
      8     -18.6012      2.00000
      9       8.6293      2.00000
     10       9.2531      2.00000
     11       9.7338      2.00000
     12       9.9436      2.00000
     13      10.1670      2.00000
     14      10.4642      2.00000
     15      14.3825      0.00000
     16      14.3958      0.00000
     17      14.9817      0.00000
     18      15.3457      0.00000

 k-point    28 :       0.4500    0.2500    0.2500
  band No.  band energies     occupation 
      1     -42.9255      2.00000
      2     -42.8923      2.00000
      3     -19.5902      2.00000
      4     -19.5619      2.00000
      5     -19.1011      2.00000
      6     -18.9221      2.00000
      7     -18.6036      2.00000
      8     -18.5936      2.00000
      9       8.7125      2.00000
     10       8.8679      2.00000
     11       9.8018      2.00000
     12       9.8530      2.00000
     13      10.6961      2.00000
     14      10.9122      2.00154
     15      14.1493      0.00000
     16      14.1946      0.00000
     17      15.2828      0.00000
     18      15.3489      0.00000

 k-point    29 :       0.3500    0.3500    0.2500
  band No.  band energies     occupation 
      1     -42.9374      2.00000
      2     -42.8755      2.00000
      3     -19.5775      2.00000
      4     -19.5550      2.00000
      5     -19.2177      2.00000
      6     -18.7687      2.00000
      7     -18.6855      2.00000
      8     -18.6184      2.00000
      9       8.8689      2.00000
     10       8.9293      2.00000
     11       9.7056      2.00000
     12       9.9660      2.00000
     13      10.4439      2.00000
     14      10.7522      2.00000
     15      14.5175      0.00000
     16      14.7489      0.00000
     17      14.9763      0.00000
     18      15.3592      0.00000

 k-point    30 :       0.4500    0.3500    0.2500
  band No.  band energies     occupation 
      1     -42.9134      2.00000
      2     -42.8920      2.00000
      3     -19.6154      2.00000
      4     -19.6091      2.00000
      5     -19.0757      2.00000
      6     -18.9115      2.00000
      7     -18.6599      2.00000
      8     -18.6286      2.00000
      9       8.7336      2.00000
     10       8.7544      2.00000
     11       9.6850      2.00000
     12       9.8155      2.00000
     13      11.0485      2.07092
     14      11.2049      0.46219
     15      14.5882      0.00000
     16      14.6935      0.00000
     17      15.2303      0.00000
     18      15.3463      0.00000

 k-point    31 :       0.4500    0.4500    0.2500
  band No.  band energies     occupation 
      1     -42.9026      2.00000
      2     -42.8952      2.00000
      3     -19.6452      2.00000
      4     -19.6444      2.00000
      5     -18.9939      2.00000
      6     -18.9195      2.00000
      7     -18.7014      2.00000
      8     -18.6741      2.00000
      9       8.6400      2.00000
     10       8.6726      2.00000
     11       9.5280      2.00000
     12       9.6065      2.00000
     13      11.6640     -0.00000
     14      11.7245     -0.00000
     15      14.8722      0.00000
     16      14.9440      0.00000
     17      15.2365      0.00000
     18      15.3115      0.00000

 k-point    32 :       0.3500    0.3500    0.3500
  band No.  band energies     occupation 
      1     -42.9210      2.00000
      2     -42.8811      2.00000
      3     -19.5383      2.00000
      4     -19.4188      2.00000
      5     -19.3531      2.00000
      6     -18.8458      2.00000
      7     -18.7633      2.00000
      8     -18.6342      2.00000
      9       9.0029      2.00000
     10       9.7145      2.00000
     11       9.7148      2.00000
     12       9.8445      2.00000
     13      10.4131      2.00000
     14      10.4343      2.00000
     15      14.9804      0.00000
     16      15.0050      0.00000
     17      15.0257      0.00000
     18      15.0382      0.00000

 k-point    33 :       0.4500    0.3500    0.3500
  band No.  band energies     occupation 
      1     -42.9042      2.00000
      2     -42.8904      2.00000
      3     -19.5338      2.00000
      4     -19.4941      2.00000
      5     -19.1775      2.00000
      6     -18.9823      2.00000
      7     -18.7589      2.00000
      8     -18.6923      2.00000
      9       9.0344      2.00000
     10       9.2720      2.00000
     11       9.8327      2.00000
     12      10.0827      2.00000
     13      10.5896      2.00000
     14      10.8245      2.00001
     15      14.9370      0.00000
     16      14.9733      0.00000
     17      15.2457      0.00000
     18      15.2583      0.00000

 k-point    34 :       0.4500    0.4500    0.3500
  band No.  band energies     occupation 
      1     -42.8959      2.00000
      2     -42.8912      2.00000
      3     -19.5018      2.00000
      4     -19.4781      2.00000
      5     -19.1033      2.00000
      6     -18.9756      2.00000
      7     -18.8719      2.00000
      8     -18.7983      2.00000
      9       9.2233      2.00000
     10       9.4664      2.00000
     11       9.6437      2.00000
     12       9.8986      2.00000
     13      10.8956      2.00069
     14      10.9870      2.02581
     15      15.1476      0.00000
     16      15.1718      0.00000
     17      15.2742      0.00000
     18      15.2847      0.00000

 k-point    35 :       0.4500    0.4500    0.4500
  band No.  band energies     occupation 
      1     -42.8911      2.00000
      2     -42.8894      2.00000
      3     -19.3489      2.00000
      4     -19.2805      2.00000
      5     -19.2158      2.00000
      6     -19.0716      2.00000
      7     -18.9848      2.00000
      8     -18.9195      2.00000
      9       9.6007      2.00000
     10       9.8849      2.00000
     11       9.9146      2.00000
     12      10.3175      2.00000
     13      10.3658      2.00000
     14      10.4406      2.00000
     15      15.2920      0.00000
     16      15.2934      0.00000
     17      15.3172      0.00000
     18      15.3224      0.00000


--------------------------------------------------------------------------------------------------------


 soft charge-density along one line, spin component           1
         0         1         2         3         4         5         6         7         8         9
 total charge-density along one line
 
 pseudopotential strength for first ion, spin component:           1
  5.490 -19.451   0.000   0.000  -0.000  -0.000  -0.000   0.000
-19.451   8.444   0.000   0.000  -0.000  -0.000  -0.000   0.000
  0.000   0.000  -9.370  -0.000   0.000   5.459   0.000  -0.000
  0.000   0.000  -0.000  -9.339  -0.000   0.000   5.425   0.000
 -0.000  -0.000   0.000  -0.000  -9.370  -0.000   0.000   5.459
 -0.000  -0.000   5.459   0.000  -0.000   8.308   0.000   0.000
 -0.000  -0.000   0.000   5.425   0.000   0.000   8.328  -0.000
  0.000   0.000  -0.000   0.000   5.459   0.000  -0.000   8.308
  0.000   0.000   0.000   0.000   0.000   0.000  -0.000  -0.000
  0.000  -0.000   0.000   0.000   0.000  -0.000  -0.000  -0.000
  0.012   0.006  -0.000   0.000   0.000   0.000  -0.000   0.000
 -0.000  -0.000   0.000  -0.000   0.000  -0.000  -0.000  -0.000
 -0.000  -0.000  -0.000   0.000   0.000   0.000  -0.000  -0.000
  0.000   0.000  -0.000   0.000   0.000   0.000  -0.000  -0.000
  0.000  -0.000   0.000   0.000   0.000  -0.000  -0.000  -0.000
  0.016   0.007  -0.000   0.000   0.000   0.000  -0.000  -0.000
 -0.000  -0.000   0.000   0.000   0.000  -0.000  -0.000  -0.000
 -0.000  -0.000  -0.000   0.000   0.000   0.000  -0.000   0.000
 total augmentation occupancy for first ion, spin component:           1
  1.997  -0.037   0.000   0.000   0.000   0.000   0.000   0.000  -0.000   0.000  -0.000   0.000  -0.000   0.000   0.000   0.000
 -0.037   1.465   0.000   0.000   0.000   0.000   0.000   0.000   0.000  -0.000  -0.000   0.000  -0.000  -0.000  -0.000   0.000
  0.000   0.000   1.987   0.000  -0.000  -0.029  -0.000   0.000   0.000   0.000  -0.000   0.000  -0.000   0.000   0.000   0.000
  0.000   0.000   0.000   2.020   0.000  -0.000  -0.029  -0.000   0.000   0.000  -0.000   0.000   0.000   0.000   0.000   0.000
  0.000   0.000  -0.000   0.000   1.987   0.000  -0.000  -0.029   0.000   0.000   0.000   0.000   0.000   0.000   0.000  -0.000
  0.000   0.000  -0.029  -0.000   0.000   0.063   0.000  -0.000   0.000   0.000  -0.000   0.000   0.000   0.000   0.000  -0.000
  0.000   0.000  -0.000  -0.029  -0.000   0.000   0.064   0.000   0.000   0.000   0.000   0.000   0.000   0.000   0.000   0.000
  0.000   0.000   0.000  -0.000  -0.029  -0.000   0.000   0.063   0.000   0.000   0.000   0.000  -0.000   0.000   0.000   0.000
 -0.000   0.000   0.000   0.000   0.000   0.000   0.000   0.000   2.492   0.000   0.000   0.000  -0.000  -0.914  -0.000  -0.000
  0.000  -0.000   0.000   0.000   0.000   0.000   0.000   0.000   0.000   2.533   0.000  -0.000  -0.000  -0.000  -0.929  -0.000
 -0.000  -0.000  -0.000  -0.000   0.000   0.000   0.000  -0.000   0.000   0.000   2.153   0.000   0.000  -0.000  -0.000  -0.853
  0.000   0.000   0.000   0.000   0.000   0.000   0.000   0.000   0.000  -0.000   0.000   2.533   0.000  -0.000   0.000  -0.000
 -0.000  -0.000  -0.000   0.000   0.000  -0.000   0.000  -0.000  -0.000  -0.000  -0.000   0.000   2.106   0.000   0.000   0.000
  0.000  -0.000   0.000   0.000   0.000   0.000   0.000   0.000  -0.914  -0.000  -0.000  -0.000   0.000   0.349   0.000   0.000
  0.000   0.000   0.000   0.000   0.000   0.000   0.000   0.000  -0.000  -0.929  -0.000   0.000   0.000   0.000   0.355   0.000
  0.000   0.000   0.000   0.000   0.000  -0.000   0.000  -0.000  -0.000  -0.000  -0.853  -0.000   0.000   0.000   0.000   0.348
  0.000   0.000   0.000   0.000   0.000   0.000   0.000   0.000  -0.000   0.000  -0.000  -0.929  -0.000   0.000  -0.000   0.000
  0.000   0.000  -0.000   0.000  -0.000   0.000   0.000  -0.000   0.000   0.000   0.000  -0.000  -0.835  -0.000  -0.000  -0.000


------------------------ aborting loop because EDIFF is reached ----------------------------------------


    CHARGE:  cpu time      0.0317: real time      0.0362
    FORLOC:  cpu time      0.0002: real time      0.0002
    FORNL :  cpu time      0.0354: real time      0.0355
    STRESS:  cpu time      0.0794: real time      0.0796
    FORCOR:  cpu time      0.0065: real time      0.0065
    FORHAR:  cpu time      0.0014: real time      0.0014
    MIXING:  cpu time      0.0016: real time      0.0016
    OFIELD:  cpu time      0.0000: real time      0.0000

  FORCE on cell =-STRESS in cart. coord.  units (eV):
  Direction    XX          YY          ZZ          XY          YZ          ZX
  --------------------------------------------------------------------------------------
  Alpha Z   165.97291   165.97291   165.97291
  Ewald    -894.31862  -894.31862  -895.44356     0.00000     0.00000     0.00000
  Hartree   153.91092   153.91092   155.91679    -0.00000    -0.00000    -0.00000
  E(xc)    -118.58889  -118.58889  -118.54081    -0.00000     0.00000     0.00000
  Local     175.98775   175.98775   168.35298     0.00000    -0.00000    -0.00000
  n-local    -4.93243   -27.71393   -41.12701     1.48401    -0.48804    -0.32333
  augment    36.35430    36.35430    37.04200     0.00000     0.00000     0.00000
  Kinetic   471.63247   506.76266   543.50248     2.41982    -2.66550     1.33840
  Fock        0.00000     0.00000     0.00000     0.00000     0.00000     0.00000
  -------------------------------------------------------------------------------------
  Total      -0.06448    -0.06448    -0.06555     0.00000     0.00000     0.00000
  in kB      -2.87605    -2.87605    -2.92355     0.00000     0.00000     0.00000
  external pressure =       -2.89 kB  Pullay stress =        0.00 kB


 VOLUME and BASIS-vectors are now :
 -----------------------------------------------------------------------------
  energy-cutoff  :      430.00
  volume of cell :       35.92
      direct lattice vectors                 reciprocal lattice vectors
     3.290566882  0.000000000  0.000000000     0.303899005  0.000000000  0.000000000
    -0.000000000  3.290566882  0.000000000    -0.000000000  0.303899005  0.000000000
     0.000000000  0.000000000  3.317632379    -0.000000000 -0.000000000  0.301419773

  length of vectors
     3.290566882  3.290566882  3.317632379     0.303899005  0.303899005  0.301419773


 FORCES acting on ions
    electron-ion (+dipol)            ewald-force                    non-local-force                 convergence-correction
 -----------------------------------------------------------------------------------------------
   -.760E-14 -.625E-14 -.174E-13   0.443E-14 -.116E-13 -.220E-14   0.812E-24 0.480E-25 0.509E-25   -.516E-14 0.206E-13 -.129E-13
   0.184E-12 0.389E-12 -.298E-11   -.709E-14 0.112E-13 0.271E-14   0.298E-25 -.147E-25 -.322E-24   -.914E-15 0.352E-13 -.167E-13
 -----------------------------------------------------------------------------------------------
   0.176E-12 0.383E-12 -.299E-11   -.266E-14 -.399E-15 0.510E-15   0.842E-24 0.333E-25 -.271E-24   -.608E-14 0.558E-13 -.296E-13
 
 
 POSITION                                       TOTAL-FORCE (eV/Angst)
 -----------------------------------------------------------------------------------
     -0.00000     -0.00000     -0.00000         0.000000      0.000000      0.000000
      1.64528      1.64528      1.65882        -0.000000     -0.000000     -0.000000
 -----------------------------------------------------------------------------------
    total drift:                                0.000000      0.000000     -0.000000


--------------------------------------------------------------------------------------------------------



  FREE ENERGIE OF THE ION-ELECTRON SYSTEM (eV)
  ---------------------------------------------------
  free  energy   TOTEN  =       -20.48766859 eV

  energy  without entropy=      -20.48599576  energy(sigma->0) =      -20.48711098
 
 d Force = 0.0000000E+00[ 0.000E+00, 0.000E+00]  d Energy = 0.6185471E-01-0.619E-01
 d Force = 0.0000000E+00[ 0.000E+00, 0.000E+00]  d Ewald  = 0.1461475E+02-0.146E+02


--------------------------------------------------------------------------------------------------------


    POTLOK:  cpu time      0.0089: real time      0.0089


--------------------------------------------------------------------------------------------------------


 stress matrix after NEB project (eV)
     -0.06448     -0.00000      0.00000
      0.00000     -0.06448      0.00000
     -0.00000      0.00000     -0.06555
  FORCES: max atom, RMS     0.000000    0.000000
  FORCE total and by dimension    0.000000    0.000000
  Stress total and by dimension    0.112309    0.065550
 Steepest descent step on ions:
 trial-energy change:   -0.061855  1 .order   -0.003285   -0.005518   -0.001052
  (g-gl).g = 0.552E-02      g.g   = 0.552E-02  gl.gl    = 0.000E+00
 g(Force)  = 0.939E-61   g(Stress)= 0.552E-02 ortho     = 0.000E+00
 gamma     =   0.00000
 trial     =   1.00000
 opt step  =   1.00295  (harmonic =   1.23558) maximal distance =0.00000000
 next E    =   -20.487670   (d E  =  -0.06186)


--------------------------------------------------------------------------------------------------------


    WAVPRE:  cpu time      0.0022: real time      0.0453
    FEWALD:  cpu time      0.0002: real time      0.0002
    GENKIN:  cpu time      0.0032: real time      0.0032

 real space projection operators:
  total allocation   :       2106.28 KBytes
  max/ min on nodes  :        529.31        522.84

    ORTHCH:  cpu time      0.0112: real time      0.0112
     LOOP+:  cpu time      1.0588: real time      1.1176


--------------------------------------- Iteration      3(   1)  ---------------------------------------


    POTLOK:  cpu time      0.0066: real time      0.0069
    SETDIJ:  cpu time      0.0036: real time      0.0037
     EDDAV:  cpu time      0.0634: real time      0.0641
       DOS:  cpu time      0.0008: real time      0.0008
    CHARGE:  cpu time      0.0070: real time      0.0070
    MIXING:  cpu time      0.0006: real time      0.0006
    --------------------------------------------
      LOOP:  cpu time      0.0820: real time      0.0831

 eigenvalue-minimisations  :  1382
 total energy-change (2. order) :-0.1945836E-03  (-0.2264288E-05)
 number of electron      25.9999670 magnetization 
 augmentation part        2.4368963 magnetization 

 Broyden mixing:
  rms(total) = 0.60303E-03    rms(broyden)= 0.60301E-03
  rms(prec ) = 0.11831E-02
  weight for this iteration     100.00

 Free energy of the ion-electron system (eV)
  ---------------------------------------------------
  alpha Z        PSCENC =       165.98095721
  Ewald energy   TEWEN  =     -2684.12437570
  -Hartree energ DENC   =      -463.74947492
  -exchange      EXHF   =         0.00000000
  -V(xc)+E(xc)   XCENC  =       112.31145766
  PAW double counting   =      2996.06025830    -2951.58811048
  entropy T*S    EENTRO =        -0.00167270
  eigenvalues    EBANDS =      -305.73117519
  atomic energy  EATOM  =      3110.35427263
  Solvation  Ediel_sol  =         0.00000000
  ---------------------------------------------------
  free energy    TOTEN  =       -20.48786319 eV

  energy without entropy =      -20.48619050  energy(sigma->0) =      -20.48730563


--------------------------------------------------------------------------------------------------------




--------------------------------------- Iteration      3(   2)  ---------------------------------------


    POTLOK:  cpu time      0.0073: real time      0.0167
    SETDIJ:  cpu time      0.0029: real time      0.0036
     EDDAV:  cpu time      0.0546: real time      0.0556
       DOS:  cpu time      0.0008: real time      0.0008
    --------------------------------------------
      LOOP:  cpu time      0.0657: real time      0.0767

 eigenvalue-minimisations  :   844
 total energy-change (2. order) : 0.2902248E-06  (-0.1729662E-06)
 number of electron      25.9999670 magnetization 
 augmentation part        2.4368963 magnetization 

 Free energy of the ion-electron system (eV)
  ---------------------------------------------------
  alpha Z        PSCENC =       165.98095721
  Ewald energy   TEWEN  =     -2684.12437570
  -Hartree energ DENC   =      -463.73244017
  -exchange      EXHF   =         0.00000000
  -V(xc)+E(xc)   XCENC  =       112.31059676
  PAW double counting   =      2996.20979291    -2951.73921940
  entropy T*S    EENTRO =        -0.00167178
  eigenvalues    EBANDS =      -305.74577535
  atomic energy  EATOM  =      3110.35427263
  Solvation  Ediel_sol  =         0.00000000
  ---------------------------------------------------
  free energy    TOTEN  =       -20.48786290 eV

  energy without entropy =      -20.48619112  energy(sigma->0) =      -20.48730564


--------------------------------------------------------------------------------------------------------




 average (electrostatic) potential at core
  the test charge radii are     1.0703
  (the norm of the test charge is              1.0000)
       1 -76.7394       2 -76.7394
 
 
 
 E-fermi :  11.1719     XC(G=0): -12.5159     alpha+bet :-19.3133

 Fermi energy:        11.1719317342

 k-point     1 :       0.0500    0.0500    0.0500
  band No.  band energies     occupation 
      1     -43.1465      2.00000
      2     -42.7402      2.00000
      3     -19.4143      2.00000
      4     -19.3897      2.00000
      5     -19.3102      2.00000
      6     -18.5295      2.00000
      7     -18.4896      2.00000
      8     -18.3939      2.00000
      9       5.4337      2.00000
     10       7.5639      2.00000
     11       7.6157      2.00000
     12      11.4951     -0.00005
     13      11.5224     -0.00001
     14      11.7605     -0.00000
     15      14.3169      0.00000
     16      14.5312      0.00000
     17      15.9417      0.00000
     18      16.6120      0.00000

 k-point     2 :       0.1500    0.0500    0.0500
  band No.  band energies     occupation 
      1     -43.1235      2.00000
      2     -42.7568      2.00000
      3     -19.4381      2.00000
      4     -19.3418      2.00000
      5     -19.2480      2.00000
      6     -18.6468      2.00000
      7     -18.5201      2.00000
      8     -18.4268      2.00000
      9       5.8341      2.00000
     10       7.8142      2.00000
     11       7.9274      2.00000
     12      11.3548     -0.02669
     13      11.4543     -0.00048
     14      12.0535     -0.00000
     15      13.9280      0.00000
     16      14.6149      0.00000
     17      14.8011      0.00000
     18      15.5158      0.00000

 k-point     3 :       0.2500    0.0500    0.0500
  band No.  band energies     occupation 
      1     -43.0807      2.00000
      2     -42.7893      2.00000
      3     -19.4471      2.00000
      4     -19.2533      2.00000
      5     -19.1500      2.00000
      6     -18.8236      2.00000
      7     -18.5981      2.00000
      8     -18.5000      2.00000
      9       6.5647      2.00000
     10       8.2448      2.00000
     11       8.4838      2.00000
     12      11.2942     -0.07091
     13      11.3713     -0.01631
     14      12.4807     -0.00000
     15      13.0719     -0.00000
     16      13.6731     -0.00000
     17      14.3120      0.00000
     18      15.0099      0.00000

 k-point     4 :       0.3500    0.0500    0.0500
  band No.  band energies     occupation 
      1     -43.0235      2.00000
      2     -42.8362      2.00000
      3     -19.4201      2.00000
      4     -19.1325      2.00000
      5     -19.0257      2.00000
      6     -19.0226      2.00000
      7     -18.7108      2.00000
      8     -18.6087      2.00000
      9       7.4844      2.00000
     10       8.8612      2.00000
     11       8.9681      2.00000
     12      11.2021      0.51384
     13      11.3922     -0.00788
     14      12.2537     -0.00000
     15      12.7654     -0.00000
     16      13.0485     -0.00000
     17      13.2978     -0.00000
     18      15.3165      0.00000

 k-point     5 :       0.4500    0.0500    0.0500
  band No.  band energies     occupation 
      1     -42.9589      2.00000
      2     -42.8943      2.00000
      3     -19.3408      2.00000
      4     -19.2045      2.00000
      5     -18.9921      2.00000
      6     -18.8852      2.00000
      7     -18.8467      2.00000
      8     -18.7415      2.00000
      9       8.3778      2.00000
     10       8.9531      2.00000
     11       9.6690      2.00000
     12      10.5487      2.00000
     13      11.6761     -0.00000
     14      12.1195     -0.00000
     15      12.1287     -0.00000
     16      12.5481     -0.00000
     17      13.7406     -0.00000
     18      14.5102      0.00000

 k-point     6 :       0.1500    0.1500    0.0500
  band No.  band energies     occupation 
      1     -43.1024      2.00000
      2     -42.7713      2.00000
      3     -19.4959      2.00000
      4     -19.2881      2.00000
      5     -19.1677      2.00000
      6     -18.7976      2.00000
      7     -18.4935      2.00000
      8     -18.4664      2.00000
      9       6.1983      2.00000
     10       8.0762      2.00000
     11       8.2042      2.00000
     12      11.0257      2.05860
     13      11.3063     -0.06722
     14      12.5651     -0.00000
     15      13.6736     -0.00000
     16      14.0876      0.00000
     17      14.3997      0.00000
     18      14.8562      0.00000

 k-point     7 :       0.2500    0.1500    0.0500
  band No.  band energies     occupation 
      1     -43.0630      2.00000
      2     -42.7999      2.00000
      3     -19.5395      2.00000
      4     -19.1984      2.00000
      5     -19.0564      2.00000
      6     -18.9925      2.00000
      7     -18.5502      2.00000
      8     -18.5124      2.00000
      9       6.8440      2.00000
     10       8.4283      2.00000
     11       8.7719      2.00000
     12      10.7937      2.00000
     13      11.1340      1.59301
     14      12.6491     -0.00000
     15      13.1893     -0.00000
     16      13.5926     -0.00000
     17      13.8718     -0.00000
     18      14.7928      0.00000

 k-point     8 :       0.3500    0.1500    0.0500
  band No.  band energies     occupation 
      1     -43.0106      2.00000
      2     -42.8415      2.00000
      3     -19.5417      2.00000
      4     -19.1936      2.00000
      5     -19.0782      2.00000
      6     -18.9316      2.00000
      7     -18.6612      2.00000
      8     -18.5813      2.00000
      9       7.6176      2.00000
     10       8.8053      2.00000
     11       9.3278      2.00000
     12      10.7106      2.00000
     13      10.9750      2.01762
     14      11.8958     -0.00000
     15      13.0422     -0.00000
     16      13.1680     -0.00000
     17      13.9119      0.00000
     18      15.3060      0.00000

 k-point     9 :       0.4500    0.1500    0.0500
  band No.  band energies     occupation 
      1     -42.9519      2.00000
      2     -42.8936      2.00000
      3     -19.4857      2.00000
      4     -19.3664      2.00000
      5     -18.9390      2.00000
      6     -18.8033      2.00000
      7     -18.7952      2.00000
      8     -18.6824      2.00000
      9       8.3330      2.00000
     10       8.8102      2.00000
     11       9.8625      2.00000
     12      10.4301      2.00000
     13      11.0329      2.06423
     14      11.3847     -0.01037
     15      12.8438     -0.00000
     16      12.9026     -0.00000
     17      14.6598      0.00000
     18      15.3438      0.00000

 k-point    10 :       0.2500    0.2500    0.0500
  band No.  band energies     occupation 
      1     -43.0302      2.00000
      2     -42.8212      2.00000
      3     -19.6254      2.00000
      4     -19.1991      2.00000
      5     -19.1195      2.00000
      6     -18.9315      2.00000
      7     -18.5978      2.00000
      8     -18.5000      2.00000
      9       7.2839      2.00000
     10       8.5443      2.00000
     11       9.4192      2.00000
     12      10.3841      2.00000
     13      11.0349      2.06557
     14      11.7346     -0.00000
     15      13.2387     -0.00000
     16      13.9874      0.00000
     17      14.1432      0.00000
     18      14.5866      0.00000

 k-point    11 :       0.3500    0.2500    0.0500
  band No.  band energies     occupation 
      1     -42.9871      2.00000
      2     -42.8528      2.00000
      3     -19.6676      2.00000
      4     -19.3973      2.00000
      5     -19.0176      2.00000
      6     -18.8049      2.00000
      7     -18.6818      2.00000
      8     -18.5259      2.00000
      9       7.7129      2.00000
     10       8.5288      2.00000
     11      10.1226      2.00000
     12      10.1807      2.00000
     13      11.0611      2.06608
     14      11.1399      1.51299
     15      13.0665     -0.00000
     16      13.8979     -0.00000
     17      14.9199      0.00000
     18      15.0443      0.00000

 k-point    12 :       0.4500    0.2500    0.0500
  band No.  band energies     occupation 
      1     -42.9396      2.00000
      2     -42.8932      2.00000
      3     -19.6462      2.00000
      4     -19.5537      2.00000
      5     -18.9026      2.00000
      6     -18.7868      2.00000
      7     -18.6884      2.00000
      8     -18.5919      2.00000
      9       8.0583      2.00000
     10       8.3424      2.00000
     11      10.2060      2.00000
     12      10.4030      2.00000
     13      10.8737      2.00021
     14      11.1437      1.45742
     15      13.4021     -0.00000
     16      13.7141     -0.00000
     17      15.4731      0.00000
     18      15.9607      0.00000

 k-point    13 :       0.3500    0.3500    0.0500
  band No.  band energies     occupation 
      1     -42.9570      2.00000
      2     -42.8707      2.00000
      3     -19.7518      2.00000
      4     -19.5806      2.00000
      5     -18.9454      2.00000
      6     -18.7291      2.00000
      7     -18.6876      2.00000
      8     -18.5067      2.00000
      9       7.7117      2.00000
     10       8.1866      2.00000
     11       9.8374      2.00000
     12      10.3772      2.00000
     13      11.0822      2.02193
     14      11.7682     -0.00000
     15      13.3461     -0.00000
     16      14.4604      0.00000
     17      14.8891      0.00000
     18      15.9247      0.00000

 k-point    14 :       0.4500    0.3500    0.0500
  band No.  band energies     occupation 
      1     -42.9250      2.00000
      2     -42.8952      2.00000
      3     -19.7698      2.00000
      4     -19.7112      2.00000
      5     -18.8676      2.00000
      6     -18.7929      2.00000
      7     -18.5935      2.00000
      8     -18.5308      2.00000
      9       7.7417      2.00000
     10       7.8990      2.00000
     11       9.7498      2.00000
     12       9.9340      2.00000
     13      11.8690     -0.00000
     14      12.1828     -0.00000
     15      13.9394      0.00000
     16      14.4040      0.00000
     17      15.3440      0.00000
     18      16.2930      0.00000

 k-point    15 :       0.4500    0.4500    0.0500
  band No.  band energies     occupation 
      1     -42.9113      2.00000
      2     -42.9010      2.00000
      3     -19.8285      2.00000
      4     -19.8084      2.00000
      5     -18.8350      2.00000
      6     -18.8092      2.00000
      7     -18.5326      2.00000
      8     -18.5108      2.00000
      9       7.5754      2.00000
     10       7.6269      2.00000
     11       9.5334      2.00000
     12       9.5969      2.00000
     13      12.9216     -0.00000
     14      13.1441     -0.00000
     15      14.4297      0.00000
     16      14.6642      0.00000
     17      15.1673      0.00000
     18      15.7052      0.00000

 k-point    16 :       0.1500    0.1500    0.1500
  band No.  band energies     occupation 
      1     -43.0832      2.00000
      2     -42.7844      2.00000
      3     -19.4461      2.00000
      4     -19.3939      2.00000
      5     -19.0426      2.00000
      6     -18.9022      2.00000
      7     -18.5414      2.00000
      8     -18.4611      2.00000
      9       6.5426      2.00000
     10       8.3723      2.00000
     11       8.4219      2.00000
     12      10.8913      2.00053
     13      10.9258      2.00275
     14      12.5392     -0.00000
     15      13.1715     -0.00000
     16      14.1703      0.00000
     17      14.3394      0.00000
     18      15.6691      0.00000

 k-point    17 :       0.2500    0.1500    0.1500
  band No.  band energies     occupation 
      1     -43.0470      2.00000
      2     -42.8095      2.00000
      3     -19.5162      2.00000
      4     -19.3078      2.00000
      5     -19.0870      2.00000
      6     -18.9209      2.00000
      7     -18.5952      2.00000
      8     -18.4948      2.00000
      9       7.1508      2.00000
     10       8.7321      2.00000
     11       8.9393      2.00000
     12      10.6416      2.00000
     13      10.6941      2.00000
     14      11.6026     -0.00000
     15      13.8571     -0.00000
     16      13.9229      0.00000
     17      14.5850      0.00000
     18      14.6904      0.00000

 k-point    18 :       0.3500    0.1500    0.1500
  band No.  band energies     occupation 
      1     -42.9990      2.00000
      2     -42.8464      2.00000
      3     -19.5499      2.00000
      4     -19.2734      2.00000
      5     -19.1770      2.00000
      6     -18.8029      2.00000
      7     -18.7147      2.00000
      8     -18.5362      2.00000
      9       7.8385      2.00000
     10       9.1676      2.00000
     11       9.2357      2.00000
     12      10.4243      2.00000
     13      10.6943      2.00000
     14      11.1810      0.84782
     15      13.3924     -0.00000
     16      13.7223     -0.00000
     17      14.7184      0.00000
     18      15.2478      0.00000

 k-point    19 :       0.4500    0.1500    0.1500
  band No.  band energies     occupation 
      1     -42.9456      2.00000
      2     -42.8929      2.00000
      3     -19.5220      2.00000
      4     -19.4266      2.00000
      5     -19.0236      2.00000
      6     -18.8638      2.00000
      7     -18.6951      2.00000
      8     -18.6040      2.00000
      9       8.4456      2.00000
     10       8.9471      2.00000
     11       9.6629      2.00000
     12      10.0962      2.00000
     13      10.9910      2.02813
     14      11.1912      0.68048
     15      13.1111     -0.00000
     16      13.2090     -0.00000
     17      15.1708      0.00000
     18      15.3358      0.00000

 k-point    20 :       0.2500    0.2500    0.1500
  band No.  band energies     occupation 
      1     -43.0168      2.00000
      2     -42.8281      2.00000
      3     -19.5702      2.00000
      4     -19.2672      2.00000
      5     -19.2571      2.00000
      6     -18.8076      2.00000
      7     -18.5901      2.00000
      8     -18.5546      2.00000
      9       7.6439      2.00000
     10       8.9464      2.00000
     11       9.4898      2.00000
     12      10.2583      2.00000
     13      10.5514      2.00000
     14      10.7776      2.00000
     15      14.2254      0.00000
     16      14.2390      0.00000
     17      14.5717      0.00000
     18      14.8481      0.00000

 k-point    21 :       0.3500    0.2500    0.1500
  band No.  band energies     occupation 
      1     -42.9773      2.00000
      2     -42.8560      2.00000
      3     -19.6217      2.00000
      4     -19.4242      2.00000
      5     -19.1521      2.00000
      6     -18.7097      2.00000
      7     -18.7055      2.00000
      8     -18.5565      2.00000
      9       8.0765      2.00000
     10       8.9011      2.00000
     11       9.9107      2.00000
     12      10.0585      2.00000
     13      10.6454      2.00000
     14      10.6676      2.00000
     15      13.7821     -0.00000
     16      14.0359      0.00000
     17      15.0115      0.00000
     18      15.8280      0.00000

 k-point    22 :       0.4500    0.2500    0.1500
  band No.  band energies     occupation 
      1     -42.9339      2.00000
      2     -42.8921      2.00000
      3     -19.6208      2.00000
      4     -19.5529      2.00000
      5     -19.0056      2.00000
      6     -18.8506      2.00000
      7     -18.6334      2.00000
      8     -18.5817      2.00000
      9       8.3660      2.00000
     10       8.6418      2.00000
     11       9.9362      2.00000
     12       9.9739      2.00000
     13      10.9633      2.01199
     14      10.9959      2.03202
     15      13.7040     -0.00000
     16      13.8116     -0.00000
     17      15.3326      0.00000
     18      15.5548      0.00000

 k-point    23 :       0.3500    0.3500    0.1500
  band No.  band energies     occupation 
      1     -42.9495      2.00000
      2     -42.8715      2.00000
      3     -19.6915      2.00000
      4     -19.5696      2.00000
      5     -19.0668      2.00000
      6     -18.7485      2.00000
      7     -18.6393      2.00000
      8     -18.5679      2.00000
      9       8.1240      2.00000
     10       8.5212      2.00000
     11       9.7724      2.00000
     12      10.0792      2.00000
     13      10.9769      2.01868
     14      11.1898      0.70336
     15      13.8661     -0.00000
     16      14.5235      0.00000
     17      14.9334      0.00000
     18      16.0204      0.00000

 k-point    24 :       0.4500    0.3500    0.1500
  band No.  band energies     occupation 
      1     -42.9202      2.00000
      2     -42.8933      2.00000
      3     -19.7151      2.00000
      4     -19.6736      2.00000
      5     -18.9541      2.00000
      6     -18.8400      2.00000
      7     -18.5955      2.00000
      8     -18.5749      2.00000
      9       8.1234      2.00000
     10       8.2410      2.00000
     11       9.6918      2.00000
     12       9.8165      2.00000
     13      11.6399     -0.00000
     14      11.7191     -0.00000
     15      14.1929      0.00000
     16      14.4627      0.00000
     17      15.2502      0.00000
     18      15.6762      0.00000

 k-point    25 :       0.4500    0.4500    0.1500
  band No.  band energies     occupation 
      1     -42.9075      2.00000
      2     -42.8982      2.00000
      3     -19.7651      2.00000
      4     -19.7511      2.00000
      5     -18.8948      2.00000
      6     -18.8522      2.00000
      7     -18.5801      2.00000
      8     -18.5762      2.00000
      9       7.9718      2.00000
     10       8.0048      2.00000
     11       9.5146      2.00000
     12       9.5687      2.00000
     13      12.4490     -0.00000
     14      12.5068     -0.00000
     15      14.5994      0.00000
     16      14.7497      0.00000
     17      15.1952      0.00000
     18      15.4435      0.00000

 k-point    26 :       0.2500    0.2500    0.2500
  band No.  band energies     occupation 
      1     -42.9921      2.00000
      2     -42.8422      2.00000
      3     -19.4652      2.00000
      4     -19.4053      2.00000
      5     -19.3529      2.00000
      6     -18.7041      2.00000
      7     -18.6587      2.00000
      8     -18.5781      2.00000
      9       8.2245      2.00000
     10       9.6043      2.00000
     11       9.6356      2.00000
     12       9.9438      2.00000
     13      10.0836      2.00000
     14      10.1126      2.00000
     15      14.4890      0.00000
     16      14.5988      0.00000
     17      14.9845      0.00000
     18      15.0760      0.00000

 k-point    27 :       0.3500    0.2500    0.2500
  band No.  band energies     occupation 
      1     -42.9594      2.00000
      2     -42.8630      2.00000
      3     -19.5510      2.00000
      4     -19.4741      2.00000
      5     -19.2708      2.00000
      6     -18.7548      2.00000
      7     -18.6384      2.00000
      8     -18.6000      2.00000
      9       8.6302      2.00000
     10       9.2538      2.00000
     11       9.7345      2.00000
     12       9.9443      2.00000
     13      10.1678      2.00000
     14      10.4650      2.00000
     15      14.3835      0.00000
     16      14.3968      0.00000
     17      14.9829      0.00000
     18      15.3469      0.00000

 k-point    28 :       0.4500    0.2500    0.2500
  band No.  band energies     occupation 
      1     -42.9241      2.00000
      2     -42.8909      2.00000
      3     -19.5891      2.00000
      4     -19.5609      2.00000
      5     -19.0999      2.00000
      6     -18.9209      2.00000
      7     -18.6023      2.00000
      8     -18.5923      2.00000
      9       8.7132      2.00000
     10       8.8686      2.00000
     11       9.8025      2.00000
     12       9.8537      2.00000
     13      10.6969      2.00000
     14      10.9131      2.00155
     15      14.1503      0.00000
     16      14.1956      0.00000
     17      15.2840      0.00000
     18      15.3502      0.00000

 k-point    29 :       0.3500    0.3500    0.2500
  band No.  band energies     occupation 
      1     -42.9361      2.00000
      2     -42.8741      2.00000
      3     -19.5766      2.00000
      4     -19.5540      2.00000
      5     -19.2165      2.00000
      6     -18.7673      2.00000
      7     -18.6844      2.00000
      8     -18.6171      2.00000
      9       8.8697      2.00000
     10       8.9299      2.00000
     11       9.7062      2.00000
     12       9.9667      2.00000
     13      10.4448      2.00000
     14      10.7531      2.00000
     15      14.5186      0.00000
     16      14.7502      0.00000
     17      14.9773      0.00000
     18      15.3604      0.00000

 k-point    30 :       0.4500    0.3500    0.2500
  band No.  band energies     occupation 
      1     -42.9120      2.00000
      2     -42.8906      2.00000
      3     -19.6145      2.00000
      4     -19.6081      2.00000
      5     -19.0744      2.00000
      6     -18.9102      2.00000
      7     -18.6588      2.00000
      8     -18.6274      2.00000
      9       8.7343      2.00000
     10       8.7551      2.00000
     11       9.6856      2.00000
     12       9.8162      2.00000
     13      11.0494      2.07092
     14      11.2058      0.46149
     15      14.5893      0.00000
     16      14.6947      0.00000
     17      15.2315      0.00000
     18      15.3475      0.00000

 k-point    31 :       0.4500    0.4500    0.2500
  band No.  band energies     occupation 
      1     -42.9012      2.00000
      2     -42.8938      2.00000
      3     -19.6443      2.00000
      4     -19.6435      2.00000
      5     -18.9926      2.00000
      6     -18.9181      2.00000
      7     -18.7003      2.00000
      8     -18.6729      2.00000
      9       8.6407      2.00000
     10       8.6733      2.00000
     11       9.5286      2.00000
     12       9.6071      2.00000
     13      11.6650     -0.00000
     14      11.7254     -0.00000
     15      14.8735      0.00000
     16      14.9454      0.00000
     17      15.2376      0.00000
     18      15.3126      0.00000

 k-point    32 :       0.3500    0.3500    0.3500
  band No.  band energies     occupation 
      1     -42.9196      2.00000
      2     -42.8797      2.00000
      3     -19.5372      2.00000
      4     -19.4178      2.00000
      5     -19.3519      2.00000
      6     -18.8447      2.00000
      7     -18.7620      2.00000
      8     -18.6329      2.00000
      9       9.0036      2.00000
     10       9.7152      2.00000
     11       9.7155      2.00000
     12       9.8455      2.00000
     13      10.4139      2.00000
     14      10.4352      2.00000
     15      14.9815      0.00000
     16      15.0061      0.00000
     17      15.0269      0.00000
     18      15.0394      0.00000

 k-point    33 :       0.4500    0.3500    0.3500
  band No.  band energies     occupation 
      1     -42.9028      2.00000
      2     -42.8890      2.00000
      3     -19.5328      2.00000
      4     -19.4930      2.00000
      5     -19.1763      2.00000
      6     -18.9811      2.00000
      7     -18.7576      2.00000
      8     -18.6911      2.00000
      9       9.0351      2.00000
     10       9.2727      2.00000
     11       9.8334      2.00000
     12      10.0834      2.00000
     13      10.5905      2.00000
     14      10.8253      2.00001
     15      14.9381      0.00000
     16      14.9744      0.00000
     17      15.2469      0.00000
     18      15.2595      0.00000

 k-point    34 :       0.4500    0.4500    0.3500
  band No.  band energies     occupation 
      1     -42.8945      2.00000
      2     -42.8898      2.00000
      3     -19.5008      2.00000
      4     -19.4771      2.00000
      5     -19.1021      2.00000
      6     -18.9742      2.00000
      7     -18.8708      2.00000
      8     -18.7972      2.00000
      9       9.2240      2.00000
     10       9.4670      2.00000
     11       9.6444      2.00000
     12       9.8993      2.00000
     13      10.8966      2.00069
     14      10.9879      2.02587
     15      15.1488      0.00000
     16      15.1730      0.00000
     17      15.2753      0.00000
     18      15.2858      0.00000

 k-point    35 :       0.4500    0.4500    0.4500
  band No.  band energies     occupation 
      1     -42.8897      2.00000
      2     -42.8880      2.00000
      3     -19.3479      2.00000
      4     -19.2795      2.00000
      5     -19.2146      2.00000
      6     -19.0705      2.00000
      7     -18.9835      2.00000
      8     -18.9183      2.00000
      9       9.6014      2.00000
     10       9.8856      2.00000
     11       9.9153      2.00000
     12      10.3182      2.00000
     13      10.3667      2.00000
     14      10.4414      2.00000
     15      15.2932      0.00000
     16      15.2945      0.00000
     17      15.3184      0.00000
     18      15.3235      0.00000


--------------------------------------------------------------------------------------------------------


 soft charge-density along one line, spin component           1
         0         1         2         3         4         5         6         7         8         9
 total charge-density along one line
 
 pseudopotential strength for first ion, spin component:           1
  5.490 -19.451   0.000   0.000  -0.000  -0.000  -0.000   0.000
-19.451   8.444   0.000   0.000  -0.000  -0.000  -0.000   0.000
  0.000   0.000  -9.369   0.000   0.000   5.459  -0.000  -0.000
  0.000   0.000   0.000  -9.339  -0.000  -0.000   5.425   0.000
 -0.000  -0.000   0.000  -0.000  -9.369  -0.000   0.000   5.459
 -0.000  -0.000   5.459  -0.000  -0.000   8.309   0.000   0.000
 -0.000  -0.000  -0.000   5.425   0.000   0.000   8.329  -0.000
  0.000   0.000  -0.000   0.000   5.459   0.000  -0.000   8.309
  0.000   0.000  -0.000   0.000   0.000   0.000  -0.000  -0.000
  0.000   0.000   0.000   0.000   0.000  -0.000  -0.000  -0.000
  0.012   0.006  -0.000   0.000   0.000   0.000  -0.000  -0.000
 -0.000  -0.000   0.000  -0.000   0.000  -0.000   0.000  -0.000
  0.000   0.000  -0.000   0.000  -0.000   0.000  -0.000   0.000
  0.000   0.000  -0.000   0.000   0.000  -0.000  -0.000  -0.000
  0.000   0.000   0.000   0.000   0.000  -0.000  -0.000  -0.000
  0.016   0.007  -0.000   0.000   0.000   0.000  -0.000  -0.000
 -0.000  -0.000   0.000   0.000   0.000  -0.000   0.000  -0.000
  0.000   0.000  -0.000   0.000   0.000   0.000  -0.000   0.000
 total augmentation occupancy for first ion, spin component:           1
  1.997  -0.037   0.000   0.000   0.000   0.000   0.000   0.000   0.000   0.000  -0.000   0.000  -0.000  -0.000  -0.000   0.000
 -0.037   1.465   0.000   0.000   0.000   0.000   0.000   0.000   0.000  -0.000  -0.000   0.000  -0.000   0.000  -0.000   0.000
  0.000   0.000   1.987   0.000  -0.000  -0.029  -0.000   0.000   0.000   0.000   0.000   0.000  -0.000   0.000   0.000   0.000
  0.000   0.000   0.000   2.020   0.000  -0.000  -0.029  -0.000   0.000   0.000  -0.000   0.000   0.000   0.000   0.000   0.000
  0.000   0.000  -0.000   0.000   1.987   0.000  -0.000  -0.029   0.000   0.000   0.000   0.000   0.000   0.000   0.000   0.000
  0.000   0.000  -0.029  -0.000   0.000   0.063   0.000  -0.000   0.000   0.000   0.000   0.000   0.000   0.000   0.000  -0.000
  0.000   0.000  -0.000  -0.029  -0.000   0.000   0.064   0.000   0.000   0.000  -0.000   0.000  -0.000   0.000   0.000  -0.000
  0.000   0.000   0.000  -0.000  -0.029  -0.000   0.000   0.063   0.000   0.000   0.000   0.000   0.000   0.000   0.000   0.000
  0.000  -0.000   0.000   0.000   0.000   0.000   0.000   0.000   2.493   0.000   0.000   0.000  -0.000  -0.915  -0.000  -0.000
  0.000   0.000   0.000   0.000   0.000   0.000   0.000   0.000   0.000   2.534   0.000  -0.000  -0.000  -0.000  -0.930  -0.000
 -0.000  -0.000  -0.000   0.000   0.000  -0.000   0.000   0.000   0.000   0.000   2.154   0.000  -0.000  -0.000  -0.000  -0.854
 -0.000   0.000   0.000   0.000   0.000   0.000   0.000   0.000   0.000  -0.000   0.000   2.534   0.000  -0.000   0.000  -0.000
 -0.000  -0.000  -0.000   0.000  -0.000  -0.000  -0.000   0.000  -0.000  -0.000  -0.000   0.000   2.107   0.000   0.000   0.000
  0.000  -0.000   0.000   0.000   0.000   0.000   0.000   0.000  -0.915  -0.000  -0.000  -0.000   0.000   0.350   0.000   0.000
  0.000   0.000   0.000   0.000   0.000   0.000   0.000   0.000  -0.000  -0.930  -0.000   0.000   0.000   0.000   0.356   0.000
  0.000   0.000   0.000   0.000   0.000   0.000   0.000   0.000  -0.000  -0.000  -0.854  -0.000   0.000   0.000   0.000   0.348
  0.000   0.000   0.000   0.000   0.000   0.000   0.000   0.000  -0.000   0.000  -0.000  -0.930  -0.000   0.000  -0.000   0.000
  0.000   0.000   0.000   0.000   0.000   0.000   0.000   0.000   0.000   0.000   0.000  -0.000  -0.835   0.000  -0.000  -0.000


------------------------ aborting loop because EDIFF is reached ----------------------------------------


    CHARGE:  cpu time      0.0074: real time      0.0074
    FORLOC:  cpu time      0.0002: real time      0.0003
    FORNL :  cpu time      0.0412: real time      0.0413
    STRESS:  cpu time      0.0794: real time      0.0804
    FORCOR:  cpu time      0.0065: real time      0.0081
    FORHAR:  cpu time      0.0014: real time      0.0014
    MIXING:  cpu time      0.0008: real time      0.0008
    OFIELD:  cpu time      0.0000: real time      0.0000

  FORCE on cell =-STRESS in cart. coord.  units (eV):
  Direction    XX          YY          ZZ          XY          YZ          ZX
  --------------------------------------------------------------------------------------
  Alpha Z   165.98096   165.98096   165.98096
  Ewald    -894.33204  -894.33204  -895.46009    -0.00000     0.00000     0.00000
  Hartree   153.89982   153.89982   155.91156    -0.00000    -0.00000    -0.00000
  E(xc)    -118.58974  -118.58974  -118.54151    -0.00000     0.00000     0.00000
  Local     176.00202   176.00202   168.34460     0.00000    -0.00000     0.00000
  n-local    -4.92808   -27.71042   -41.11944     1.48448    -0.48829    -0.32338
  augment    36.35417    36.35417    37.04391     0.00000    -0.00000    -0.00000
  Kinetic   471.62881   506.76066   543.49530     2.42010    -2.66545     1.33908
  Fock        0.00000     0.00000     0.00000     0.00000     0.00000     0.00000
  -------------------------------------------------------------------------------------
  Total      -0.07284    -0.07284    -0.07405     0.00000     0.00000     0.00000
  in kB      -3.24879    -3.24879    -3.30262     0.00000     0.00000     0.00000
  external pressure =       -3.27 kB  Pullay stress =        0.00 kB


 VOLUME and BASIS-vectors are now :
 -----------------------------------------------------------------------------
  energy-cutoff  :      430.00
  volume of cell :       35.92
      direct lattice vectors                 reciprocal lattice vectors
     3.290487098  0.000000000  0.000000000     0.303906373  0.000000000  0.000000000
    -0.000000000  3.290487098  0.000000000    -0.000000000  0.303906373  0.000000000
     0.000000000  0.000000000  3.317632379    -0.000000000 -0.000000000  0.301419773

  length of vectors
     3.290487098  3.290487098  3.317632379     0.303906373  0.303906373  0.301419773


 FORCES acting on ions
    electron-ion (+dipol)            ewald-force                    non-local-force                 convergence-correction
 -----------------------------------------------------------------------------------------------
   -.527E-14 -.776E-14 -.178E-13   -.192E-13 -.840E-14 -.845E-14   -.196E-25 0.563E-24 -.463E-25   -.785E-14 0.457E-13 -.114E-13
   0.190E-12 0.390E-12 -.298E-11   0.166E-13 0.849E-14 0.693E-14   -.163E-23 -.338E-24 -.101E-23   -.408E-14 0.435E-13 -.916E-14
 -----------------------------------------------------------------------------------------------
   0.184E-12 0.382E-12 -.300E-11   -.260E-14 0.905E-16 -.152E-14   -.165E-23 0.225E-24 -.106E-23   -.119E-13 0.892E-13 -.206E-13
 
 
 POSITION                                       TOTAL-FORCE (eV/Angst)
 -----------------------------------------------------------------------------------
     -0.00000     -0.00000     -0.00000         0.000000      0.000000      0.000000
      1.64524      1.64524      1.65882        -0.000000     -0.000000     -0.000000
 -----------------------------------------------------------------------------------
    total drift:                                0.000000      0.000000     -0.000000


--------------------------------------------------------------------------------------------------------



  FREE ENERGIE OF THE ION-ELECTRON SYSTEM (eV)
  ---------------------------------------------------
  free  energy   TOTEN  =       -20.48786290 eV

  energy  without entropy=      -20.48619112  energy(sigma->0) =      -20.48730564
 
 d Force = 0.0000000E+00[ 0.000E+00, 0.000E+00]  d Energy = 0.1943159E-03-0.194E-03
 d Force = 0.0000000E+00[ 0.000E+00, 0.000E+00]  d Ewald  = 0.4336897E-01-0.434E-01


--------------------------------------------------------------------------------------------------------


    POTLOK:  cpu time      0.0087: real time      0.0087


--------------------------------------------------------------------------------------------------------


 stress matrix after NEB project (eV)
     -0.07284     -0.00000      0.00000
      0.00000     -0.07284     -0.00000
      0.00000      0.00000     -0.07405
  FORCES: max atom, RMS     0.000000    0.000000
  FORCE total and by dimension    0.000000    0.000000
  Stress total and by dimension    0.126860    0.074045


--------------------------------------------------------------------------------------------------------


    WAVPRE:  cpu time      0.0021: real time      0.0212
    FEWALD:  cpu time      0.0001: real time      0.0001
    GENKIN:  cpu time      0.0032: real time      0.0032

 real space projection operators:
  total allocation   :       2106.28 KBytes
  max/ min on nodes  :        529.31        522.84

    ORTHCH:  cpu time      0.0111: real time      0.0112
     LOOP+:  cpu time      0.3224: real time      0.3599


--------------------------------------- Iteration      4(   1)  ---------------------------------------


    POTLOK:  cpu time      0.0065: real time      0.0068
    SETDIJ:  cpu time      0.0025: real time      0.0025
     EDDAV:  cpu time      0.0592: real time      0.0598
       DOS:  cpu time      0.0009: real time      0.0009
    CHARGE:  cpu time      0.0061: real time      0.0061
    MIXING:  cpu time      0.0006: real time      0.0006
    --------------------------------------------
      LOOP:  cpu time      0.0758: real time      0.0767

 eigenvalue-minimisations  :  1328
 total energy-change (2. order) :-0.3905775E-03  (-0.8141088E-05)
 number of electron      25.9999688 magnetization 
 augmentation part        2.4369131 magnetization 

 Broyden mixing:
  rms(total) = 0.10565E-02    rms(broyden)= 0.10565E-02
  rms(prec ) = 0.21917E-02
  weight for this iteration     100.00

 Free energy of the ion-electron system (eV)
  ---------------------------------------------------
  alpha Z        PSCENC =       165.99705657
  Ewald energy   TEWEN  =     -2684.21111875
  -Hartree energ DENC   =      -463.73471541
  -exchange      EXHF   =         0.00000000
  -V(xc)+E(xc)   XCENC  =       112.31345548
  PAW double counting   =      2996.22959838    -2951.76091760
  entropy T*S    EENTRO =        -0.00167072
  eigenvalues    EBANDS =      -305.67421435
  atomic energy  EATOM  =      3110.35427263
  Solvation  Ediel_sol  =         0.00000000
  ---------------------------------------------------
  free energy    TOTEN  =       -20.48825377 eV

  energy without entropy =      -20.48658305  energy(sigma->0) =      -20.48769686


--------------------------------------------------------------------------------------------------------




--------------------------------------- Iteration      4(   2)  ---------------------------------------


    POTLOK:  cpu time      0.0074: real time      0.0162
    SETDIJ:  cpu time      0.0023: real time      0.0023
     EDDAV:  cpu time      0.0740: real time      0.0743
       DOS:  cpu time      0.0008: real time      0.0008
    --------------------------------------------
      LOOP:  cpu time      0.0845: real time      0.0937

 eigenvalue-minimisations  :  1720
 total energy-change (2. order) : 0.7433819E-06  (-0.7327377E-06)
 number of electron      25.9999688 magnetization 
 augmentation part        2.4369131 magnetization 

 Free energy of the ion-electron system (eV)
  ---------------------------------------------------
  alpha Z        PSCENC =       165.99705657
  Ewald energy   TEWEN  =     -2684.21111875
  -Hartree energ DENC   =      -463.70284048
  -exchange      EXHF   =         0.00000000
  -V(xc)+E(xc)   XCENC  =       112.31184538
  PAW double counting   =      2996.47860240    -2952.01202291
  entropy T*S    EENTRO =        -0.00166881
  eigenvalues    EBANDS =      -305.70237904
  atomic energy  EATOM  =      3110.35427263
  Solvation  Ediel_sol  =         0.00000000
  ---------------------------------------------------
  free energy    TOTEN  =       -20.48825303 eV

  energy without entropy =      -20.48658421  energy(sigma->0) =      -20.48769675


--------------------------------------------------------------------------------------------------------




 average (electrostatic) potential at core
  the test charge radii are     1.0703
  (the norm of the test charge is              1.0000)
       1 -76.7373       2 -76.7373
 
 
 
 E-fermi :  11.1735     XC(G=0): -12.5163     alpha+bet :-19.3152

 Fermi energy:        11.1734701220

 k-point     1 :       0.0500    0.0500    0.0500
  band No.  band energies     occupation 
      1     -43.1445      2.00000
      2     -42.7381      2.00000
      3     -19.4127      2.00000
      4     -19.3881      2.00000
      5     -19.3082      2.00000
      6     -18.5277      2.00000
      7     -18.4877      2.00000
      8     -18.3915      2.00000
      9       5.4353      2.00000
     10       7.5646      2.00000
     11       7.6167      2.00000
     12      11.4965     -0.00005
     13      11.5239     -0.00001
     14      11.7620     -0.00000
     15      14.3180      0.00000
     16      14.5336      0.00000
     17      15.9438      0.00000
     18      16.6137      0.00000

 k-point     2 :       0.1500    0.0500    0.0500
  band No.  band energies     occupation 
      1     -43.1215      2.00000
      2     -42.7546      2.00000
      3     -19.4365      2.00000
      4     -19.3401      2.00000
      5     -19.2460      2.00000
      6     -18.6450      2.00000
      7     -18.5182      2.00000
      8     -18.4244      2.00000
      9       5.8358      2.00000
     10       7.8151      2.00000
     11       7.9283      2.00000
     12      11.3562     -0.02681
     13      11.4558     -0.00048
     14      12.0550     -0.00000
     15      13.9298      0.00000
     16      14.6167      0.00000
     17      14.8029      0.00000
     18      15.5177      0.00000

 k-point     3 :       0.2500    0.0500    0.0500
  band No.  band energies     occupation 
      1     -43.0786      2.00000
      2     -42.7872      2.00000
      3     -19.4455      2.00000
      4     -19.2516      2.00000
      5     -19.1480      2.00000
      6     -18.8219      2.00000
      7     -18.5962      2.00000
      8     -18.4977      2.00000
      9       6.5664      2.00000
     10       8.2458      2.00000
     11       8.4850      2.00000
     12      11.2956     -0.07091
     13      11.3728     -0.01635
     14      12.4823     -0.00000
     15      13.0736     -0.00000
     16      13.6747     -0.00000
     17      14.3136      0.00000
     18      15.0117      0.00000

 k-point     4 :       0.3500    0.0500    0.0500
  band No.  band energies     occupation 
      1     -43.0214      2.00000
      2     -42.8340      2.00000
      3     -19.4185      2.00000
      4     -19.1308      2.00000
      5     -19.0236      2.00000
      6     -19.0209      2.00000
      7     -18.7090      2.00000
      8     -18.6064      2.00000
      9       7.4861      2.00000
     10       8.8622      2.00000
     11       8.9695      2.00000
     12      11.2035      0.51616
     13      11.3935     -0.00793
     14      12.2552     -0.00000
     15      12.7669     -0.00000
     16      13.0501     -0.00000
     17      13.2994     -0.00000
     18      15.3156      0.00000

 k-point     5 :       0.4500    0.0500    0.0500
  band No.  band energies     occupation 
      1     -42.9568      2.00000
      2     -42.8922      2.00000
      3     -19.3393      2.00000
      4     -19.2029      2.00000
      5     -18.9904      2.00000
      6     -18.8831      2.00000
      7     -18.8449      2.00000
      8     -18.7393      2.00000
      9       8.3795      2.00000
     10       8.9546      2.00000
     11       9.6702      2.00000
     12      10.5501      2.00000
     13      11.6775     -0.00000
     14      12.1209     -0.00000
     15      12.1301     -0.00000
     16      12.5496     -0.00000
     17      13.7424     -0.00000
     18      14.5121      0.00000

 k-point     6 :       0.1500    0.1500    0.0500
  band No.  band energies     occupation 
      1     -43.1003      2.00000
      2     -42.7691      2.00000
      3     -19.4944      2.00000
      4     -19.2863      2.00000
      5     -19.1659      2.00000
      6     -18.7958      2.00000
      7     -18.4917      2.00000
      8     -18.4640      2.00000
      9       6.2000      2.00000
     10       8.0773      2.00000
     11       8.2051      2.00000
     12      11.0269      2.05834
     13      11.3078     -0.06724
     14      12.5667     -0.00000
     15      13.6752     -0.00000
     16      14.0899      0.00000
     17      14.4010      0.00000
     18      14.8579      0.00000

 k-point     7 :       0.2500    0.1500    0.0500
  band No.  band energies     occupation 
      1     -43.0609      2.00000
      2     -42.7978      2.00000
      3     -19.5380      2.00000
      4     -19.1965      2.00000
      5     -19.0545      2.00000
      6     -18.9908      2.00000
      7     -18.5480      2.00000
      8     -18.5104      2.00000
      9       6.8457      2.00000
     10       8.4295      2.00000
     11       8.7729      2.00000
     12      10.7948      2.00000
     13      11.1355      1.59404
     14      12.6506     -0.00000
     15      13.1909     -0.00000
     16      13.5945     -0.00000
     17      13.8734     -0.00000
     18      14.7945      0.00000

 k-point     8 :       0.3500    0.1500    0.0500
  band No.  band energies     occupation 
      1     -43.0085      2.00000
      2     -42.8394      2.00000
      3     -19.5402      2.00000
      4     -19.1920      2.00000
      5     -19.0762      2.00000
      6     -18.9298      2.00000
      7     -18.6590      2.00000
      8     -18.5794      2.00000
      9       7.6193      2.00000
     10       8.8067      2.00000
     11       9.3289      2.00000
     12      10.7117      2.00000
     13      10.9764      2.01753
     14      11.8972     -0.00000
     15      13.0440     -0.00000
     16      13.1696     -0.00000
     17      13.9137      0.00000
     18      15.3080      0.00000

 k-point     9 :       0.4500    0.1500    0.0500
  band No.  band energies     occupation 
      1     -42.9498      2.00000
      2     -42.8914      2.00000
      3     -19.4842      2.00000
      4     -19.3649      2.00000
      5     -18.9369      2.00000
      6     -18.8014      2.00000
      7     -18.7931      2.00000
      8     -18.6805      2.00000
      9       8.3346      2.00000
     10       8.8118      2.00000
     11       9.8637      2.00000
     12      10.4314      2.00000
     13      11.0341      2.06399
     14      11.3859     -0.01048
     15      12.8455     -0.00000
     16      12.9043     -0.00000
     17      14.6617      0.00000
     18      15.3456      0.00000

 k-point    10 :       0.2500    0.2500    0.0500
  band No.  band energies     occupation 
      1     -43.0281      2.00000
      2     -42.8191      2.00000
      3     -19.6239      2.00000
      4     -19.1975      2.00000
      5     -19.1174      2.00000
      6     -18.9298      2.00000
      7     -18.5954      2.00000
      8     -18.4982      2.00000
      9       7.2856      2.00000
     10       8.5456      2.00000
     11       9.4203      2.00000
     12      10.3852      2.00000
     13      11.0363      2.06554
     14      11.7360     -0.00000
     15      13.2403     -0.00000
     16      13.9893      0.00000
     17      14.1454      0.00000
     18      14.5881      0.00000

 k-point    11 :       0.3500    0.2500    0.0500
  band No.  band energies     occupation 
      1     -42.9851      2.00000
      2     -42.8506      2.00000
      3     -19.6662      2.00000
      4     -19.3957      2.00000
      5     -19.0155      2.00000
      6     -18.8032      2.00000
      7     -18.6795      2.00000
      8     -18.5241      2.00000
      9       7.7145      2.00000
     10       8.5301      2.00000
     11      10.1239      2.00000
     12      10.1817      2.00000
     13      11.0622      2.06639
     14      11.1414      1.51249
     15      13.0682     -0.00000
     16      13.8999     -0.00000
     17      14.9219      0.00000
     18      15.0461      0.00000

 k-point    12 :       0.4500    0.2500    0.0500
  band No.  band energies     occupation 
      1     -42.9375      2.00000
      2     -42.8911      2.00000
      3     -19.6448      2.00000
      4     -19.5522      2.00000
      5     -18.9005      2.00000
      6     -18.7845      2.00000
      7     -18.6866      2.00000
      8     -18.5901      2.00000
      9       8.0597      2.00000
     10       8.3438      2.00000
     11      10.2070      2.00000
     12      10.4041      2.00000
     13      10.8751      2.00020
     14      11.1452      1.45744
     15      13.4041     -0.00000
     16      13.7161     -0.00000
     17      15.4752      0.00000
     18      15.9620      0.00000

 k-point    13 :       0.3500    0.3500    0.0500
  band No.  band energies     occupation 
      1     -42.9549      2.00000
      2     -42.8685      2.00000
      3     -19.7503      2.00000
      4     -19.5791      2.00000
      5     -18.9432      2.00000
      6     -18.7268      2.00000
      7     -18.6859      2.00000
      8     -18.5049      2.00000
      9       7.7130      2.00000
     10       8.1879      2.00000
     11       9.8384      2.00000
     12      10.3783      2.00000
     13      11.0836      2.02227
     14      11.7700     -0.00000
     15      13.3481     -0.00000
     16      14.4628      0.00000
     17      14.8908      0.00000
     18      15.9269      0.00000

 k-point    14 :       0.4500    0.3500    0.0500
  band No.  band energies     occupation 
      1     -42.9228      2.00000
      2     -42.8931      2.00000
      3     -19.7684      2.00000
      4     -19.7098      2.00000
      5     -18.8653      2.00000
      6     -18.7906      2.00000
      7     -18.5917      2.00000
      8     -18.5290      2.00000
      9       7.7430      2.00000
     10       7.9002      2.00000
     11       9.7507      2.00000
     12       9.9349      2.00000
     13      11.8706     -0.00000
     14      12.1846     -0.00000
     15      13.9416      0.00000
     16      14.4063      0.00000
     17      15.3460      0.00000
     18      16.2953      0.00000

 k-point    15 :       0.4500    0.4500    0.0500
  band No.  band energies     occupation 
      1     -42.9092      2.00000
      2     -42.8989      2.00000
      3     -19.8270      2.00000
      4     -19.8070      2.00000
      5     -18.8327      2.00000
      6     -18.8070      2.00000
      7     -18.5308      2.00000
      8     -18.5091      2.00000
      9       7.5766      2.00000
     10       7.6281      2.00000
     11       9.5343      2.00000
     12       9.5978      2.00000
     13      12.9234     -0.00000
     14      13.1461     -0.00000
     15      14.4321      0.00000
     16      14.6667      0.00000
     17      15.1692      0.00000
     18      15.7073      0.00000

 k-point    16 :       0.1500    0.1500    0.1500
  band No.  band energies     occupation 
      1     -43.0812      2.00000
      2     -42.7822      2.00000
      3     -19.4446      2.00000
      4     -19.3921      2.00000
      5     -19.0407      2.00000
      6     -18.9004      2.00000
      7     -18.5396      2.00000
      8     -18.4588      2.00000
      9       6.5443      2.00000
     10       8.3731      2.00000
     11       8.4230      2.00000
     12      10.8926      2.00052
     13      10.9273      2.00274
     14      12.5408     -0.00000
     15      13.1732     -0.00000
     16      14.1716      0.00000
     17      14.3416      0.00000
     18      15.6708      0.00000

 k-point    17 :       0.2500    0.1500    0.1500
  band No.  band energies     occupation 
      1     -43.0449      2.00000
      2     -42.8074      2.00000
      3     -19.5146      2.00000
      4     -19.3059      2.00000
      5     -19.0852      2.00000
      6     -18.9190      2.00000
      7     -18.5933      2.00000
      8     -18.4926      2.00000
      9       7.1525      2.00000
     10       8.7332      2.00000
     11       8.9405      2.00000
     12      10.6428      2.00000
     13      10.6955      2.00000
     14      11.6041     -0.00000
     15      13.8589     -0.00000
     16      13.9248      0.00000
     17      14.5867      0.00000
     18      14.6921      0.00000

 k-point    18 :       0.3500    0.1500    0.1500
  band No.  band energies     occupation 
      1     -42.9969      2.00000
      2     -42.8442      2.00000
      3     -19.5484      2.00000
      4     -19.2717      2.00000
      5     -19.1752      2.00000
      6     -18.8010      2.00000
      7     -18.7128      2.00000
      8     -18.5341      2.00000
      9       7.8402      2.00000
     10       9.1687      2.00000
     11       9.2371      2.00000
     12      10.4256      2.00000
     13      10.6956      2.00000
     14      11.1824      0.85023
     15      13.3941     -0.00000
     16      13.7238     -0.00000
     17      14.7203      0.00000
     18      15.2397      0.00000

 k-point    19 :       0.4500    0.1500    0.1500
  band No.  band energies     occupation 
      1     -42.9435      2.00000
      2     -42.8908      2.00000
      3     -19.5204      2.00000
      4     -19.4250      2.00000
      5     -19.0217      2.00000
      6     -18.8619      2.00000
      7     -18.6931      2.00000
      8     -18.6020      2.00000
      9       8.4471      2.00000
     10       8.9485      2.00000
     11       9.6642      2.00000
     12      10.0975      2.00000
     13      10.9924      2.02805
     14      11.1926      0.68211
     15      13.1127     -0.00000
     16      13.2105     -0.00000
     17      15.1729      0.00000
     18      15.3380      0.00000

 k-point    20 :       0.2500    0.2500    0.1500
  band No.  band energies     occupation 
      1     -43.0147      2.00000
      2     -42.8259      2.00000
      3     -19.5687      2.00000
      4     -19.2652      2.00000
      5     -19.2555      2.00000
      6     -18.8056      2.00000
      7     -18.5878      2.00000
      8     -18.5528      2.00000
      9       7.6456      2.00000
     10       8.9477      2.00000
     11       9.4909      2.00000
     12      10.2594      2.00000
     13      10.5528      2.00000
     14      10.7789      2.00000
     15      14.2270      0.00000
     16      14.2412      0.00000
     17      14.5731      0.00000
     18      14.8501      0.00000

 k-point    21 :       0.3500    0.2500    0.1500
  band No.  band energies     occupation 
      1     -42.9752      2.00000
      2     -42.8538      2.00000
      3     -19.6202      2.00000
      4     -19.4226      2.00000
      5     -19.1501      2.00000
      6     -18.7078      2.00000
      7     -18.7033      2.00000
      8     -18.5547      2.00000
      9       8.0781      2.00000
     10       8.9024      2.00000
     11       9.9120      2.00000
     12      10.0596      2.00000
     13      10.6467      2.00000
     14      10.6692      2.00000
     15      13.7838     -0.00000
     16      14.0379      0.00000
     17      15.0134      0.00000
     18      15.8268      0.00000

 k-point    22 :       0.4500    0.2500    0.1500
  band No.  band energies     occupation 
      1     -42.9318      2.00000
      2     -42.8900      2.00000
      3     -19.6193      2.00000
      4     -19.5514      2.00000
      5     -19.0035      2.00000
      6     -18.8485      2.00000
      7     -18.6314      2.00000
      8     -18.5798      2.00000
      9       8.3674      2.00000
     10       8.6431      2.00000
     11       9.9374      2.00000
     12       9.9750      2.00000
     13      10.9649      2.01199
     14      10.9973      2.03193
     15      13.7059     -0.00000
     16      13.8136     -0.00000
     17      15.3347      0.00000
     18      15.5571      0.00000

 k-point    23 :       0.3500    0.3500    0.1500
  band No.  band energies     occupation 
      1     -42.9474      2.00000
      2     -42.8694      2.00000
      3     -19.6900      2.00000
      4     -19.5681      2.00000
      5     -19.0647      2.00000
      6     -18.7463      2.00000
      7     -18.6374      2.00000
      8     -18.5661      2.00000
      9       8.1254      2.00000
     10       8.5224      2.00000
     11       9.7734      2.00000
     12      10.0804      2.00000
     13      10.9783      2.01864
     14      11.1915      0.70003
     15      13.8680     -0.00000
     16      14.5258      0.00000
     17      14.9351      0.00000
     18      16.0227      0.00000

 k-point    24 :       0.4500    0.3500    0.1500
  band No.  band energies     occupation 
      1     -42.9181      2.00000
      2     -42.8912      2.00000
      3     -19.7137      2.00000
      4     -19.6721      2.00000
      5     -18.9520      2.00000
      6     -18.8378      2.00000
      7     -18.5937      2.00000
      8     -18.5731      2.00000
      9       8.1246      2.00000
     10       8.2422      2.00000
     11       9.6928      2.00000
     12       9.8176      2.00000
     13      11.6415     -0.00000
     14      11.7209     -0.00000
     15      14.1951      0.00000
     16      14.4649      0.00000
     17      15.2522      0.00000
     18      15.6784      0.00000

 k-point    25 :       0.4500    0.4500    0.1500
  band No.  band energies     occupation 
      1     -42.9054      2.00000
      2     -42.8961      2.00000
      3     -19.7637      2.00000
      4     -19.7496      2.00000
      5     -18.8926      2.00000
      6     -18.8499      2.00000
      7     -18.5784      2.00000
      8     -18.5744      2.00000
      9       7.9730      2.00000
     10       8.0060      2.00000
     11       9.5155      2.00000
     12       9.5696      2.00000
     13      12.4509     -0.00000
     14      12.5087     -0.00000
     15      14.6018      0.00000
     16      14.7522      0.00000
     17      15.1971      0.00000
     18      15.4456      0.00000

 k-point    26 :       0.2500    0.2500    0.2500
  band No.  band energies     occupation 
      1     -42.9900      2.00000
      2     -42.8400      2.00000
      3     -19.4636      2.00000
      4     -19.4034      2.00000
      5     -19.3512      2.00000
      6     -18.7021      2.00000
      7     -18.6569      2.00000
      8     -18.5759      2.00000
      9       8.2263      2.00000
     10       9.6054      2.00000
     11       9.6369      2.00000
     12       9.9451      2.00000
     13      10.0848      2.00000
     14      10.1140      2.00000
     15      14.4906      0.00000
     16      14.6010      0.00000
     17      14.9862      0.00000
     18      15.0782      0.00000

 k-point    27 :       0.3500    0.2500    0.2500
  band No.  band energies     occupation 
      1     -42.9573      2.00000
      2     -42.8609      2.00000
      3     -19.5495      2.00000
      4     -19.4725      2.00000
      5     -19.2690      2.00000
      6     -18.7529      2.00000
      7     -18.6364      2.00000
      8     -18.5979      2.00000
      9       8.6317      2.00000
     10       9.2551      2.00000
     11       9.7358      2.00000
     12       9.9455      2.00000
     13      10.1692      2.00000
     14      10.4664      2.00000
     15      14.3854      0.00000
     16      14.3985      0.00000
     17      14.9848      0.00000
     18      15.3491      0.00000

 k-point    28 :       0.4500    0.2500    0.2500
  band No.  band energies     occupation 
      1     -42.9220      2.00000
      2     -42.8888      2.00000
      3     -19.5876      2.00000
      4     -19.5593      2.00000
      5     -19.0980      2.00000
      6     -18.9189      2.00000
      7     -18.6003      2.00000
      8     -18.5903      2.00000
      9       8.7145      2.00000
     10       8.8698      2.00000
     11       9.8038      2.00000
     12       9.8550      2.00000
     13      10.6985      2.00000
     14      10.9146      2.00155
     15      14.1521      0.00000
     16      14.1975      0.00000
     17      15.2861      0.00000
     18      15.3524      0.00000

 k-point    29 :       0.3500    0.3500    0.2500
  band No.  band energies     occupation 
      1     -42.9340      2.00000
      2     -42.8720      2.00000
      3     -19.5751      2.00000
      4     -19.5525      2.00000
      5     -19.2146      2.00000
      6     -18.7651      2.00000
      7     -18.6826      2.00000
      8     -18.6152      2.00000
      9       8.8711      2.00000
     10       8.9311      2.00000
     11       9.7073      2.00000
     12       9.9681      2.00000
     13      10.4465      2.00000
     14      10.7545      2.00000
     15      14.5205      0.00000
     16      14.7524      0.00000
     17      14.9791      0.00000
     18      15.3626      0.00000

 k-point    30 :       0.4500    0.3500    0.2500
  band No.  band energies     occupation 
      1     -42.9099      2.00000
      2     -42.8885      2.00000
      3     -19.6130      2.00000
      4     -19.6066      2.00000
      5     -19.0724      2.00000
      6     -18.9081      2.00000
      7     -18.6569      2.00000
      8     -18.6255      2.00000
      9       8.7354      2.00000
     10       8.7563      2.00000
     11       9.6868      2.00000
     12       9.8174      2.00000
     13      11.0512      2.07091
     14      11.2075      0.45974
     15      14.5914      0.00000
     16      14.6968      0.00000
     17      15.2335      0.00000
     18      15.3497      0.00000

 k-point    31 :       0.4500    0.4500    0.2500
  band No.  band energies     occupation 
      1     -42.8991      2.00000
      2     -42.8917      2.00000
      3     -19.6428      2.00000
      4     -19.6420      2.00000
      5     -18.9904      2.00000
      6     -18.9158      2.00000
      7     -18.6986      2.00000
      8     -18.6711      2.00000
      9       8.6418      2.00000
     10       8.6745      2.00000
     11       9.5297      2.00000
     12       9.6083      2.00000
     13      11.6669     -0.00000
     14      11.7273     -0.00000
     15      14.8759      0.00000
     16      14.9477      0.00000
     17      15.2395      0.00000
     18      15.3146      0.00000

 k-point    32 :       0.3500    0.3500    0.3500
  band No.  band energies     occupation 
      1     -42.9175      2.00000
      2     -42.8776      2.00000
      3     -19.5356      2.00000
      4     -19.4163      2.00000
      5     -19.3500      2.00000
      6     -18.8430      2.00000
      7     -18.7598      2.00000
      8     -18.6309      2.00000
      9       9.0048      2.00000
     10       9.7164      2.00000
     11       9.7167      2.00000
     12       9.8472      2.00000
     13      10.4152      2.00000
     14      10.4366      2.00000
     15      14.9832      0.00000
     16      15.0080      0.00000
     17      15.0289      0.00000
     18      15.0415      0.00000

 k-point    33 :       0.4500    0.3500    0.3500
  band No.  band energies     occupation 
      1     -42.9007      2.00000
      2     -42.8869      2.00000
      3     -19.5312      2.00000
      4     -19.4915      2.00000
      5     -19.1745      2.00000
      6     -18.9792      2.00000
      7     -18.7557      2.00000
      8     -18.6891      2.00000
      9       9.0362      2.00000
     10       9.2739      2.00000
     11       9.8347      2.00000
     12      10.0848      2.00000
     13      10.5922      2.00000
     14      10.8269      2.00001
     15      14.9400      0.00000
     16      14.9764      0.00000
     17      15.2489      0.00000
     18      15.2615      0.00000

 k-point    34 :       0.4500    0.4500    0.3500
  band No.  band energies     occupation 
      1     -42.8924      2.00000
      2     -42.8877      2.00000
      3     -19.4993      2.00000
      4     -19.4756      2.00000
      5     -19.1000      2.00000
      6     -18.9720      2.00000
      7     -18.8691      2.00000
      8     -18.7953      2.00000
      9       9.2252      2.00000
     10       9.4682      2.00000
     11       9.6456      2.00000
     12       9.9006      2.00000
     13      10.8983      2.00070
     14      10.9896      2.02600
     15      15.1510      0.00000
     16      15.1752      0.00000
     17      15.2773      0.00000
     18      15.2878      0.00000

 k-point    35 :       0.4500    0.4500    0.4500
  band No.  band energies     occupation 
      1     -42.8875      2.00000
      2     -42.8859      2.00000
      3     -19.3462      2.00000
      4     -19.2780      2.00000
      5     -19.2128      2.00000
      6     -19.0689      2.00000
      7     -18.9814      2.00000
      8     -18.9163      2.00000
      9       9.6027      2.00000
     10       9.8869      2.00000
     11       9.9168      2.00000
     12      10.3195      2.00000
     13      10.3683      2.00000
     14      10.4429      2.00000
     15      15.2951      0.00000
     16      15.2965      0.00000
     17      15.3205      0.00000
     18      15.3256      0.00000


--------------------------------------------------------------------------------------------------------


 soft charge-density along one line, spin component           1
         0         1         2         3         4         5         6         7         8         9
 total charge-density along one line
 
 pseudopotential strength for first ion, spin component:           1
  5.491 -19.450   0.000   0.000  -0.000  -0.000  -0.000   0.000
-19.450   8.443   0.000   0.000  -0.000  -0.000  -0.000   0.000
  0.000   0.000  -9.369  -0.000   0.000   5.458   0.000  -0.000
  0.000   0.000  -0.000  -9.338  -0.000   0.000   5.424   0.000
 -0.000  -0.000   0.000  -0.000  -9.369  -0.000   0.000   5.458
 -0.000  -0.000   5.458   0.000  -0.000   8.309  -0.000   0.000
 -0.000  -0.000   0.000   5.424   0.000  -0.000   8.329  -0.000
  0.000   0.000  -0.000   0.000   5.458   0.000  -0.000   8.309
  0.000   0.000   0.000   0.000   0.000  -0.000  -0.000  -0.000
 -0.000  -0.000   0.000   0.000   0.000  -0.000  -0.000  -0.000
  0.012   0.006  -0.000   0.000  -0.000   0.000  -0.000   0.000
 -0.000  -0.000   0.000  -0.000   0.000  -0.000   0.000  -0.000
  0.000   0.000  -0.000   0.000   0.000   0.000  -0.000   0.000
  0.000   0.000   0.000   0.000   0.000   0.000  -0.000  -0.000
 -0.000  -0.000   0.000   0.000   0.000  -0.000  -0.000  -0.000
  0.016   0.007  -0.000   0.000  -0.000   0.000  -0.000   0.000
 -0.000  -0.000   0.000  -0.000   0.000  -0.000   0.000  -0.000
  0.000   0.000  -0.000   0.000  -0.000   0.000  -0.000   0.000
 total augmentation occupancy for first ion, spin component:           1
  1.997  -0.037   0.000   0.000   0.000   0.000   0.000   0.000   0.000  -0.000  -0.000  -0.000   0.000  -0.000  -0.000   0.000
 -0.037   1.465   0.000   0.000   0.000   0.000   0.000   0.000  -0.000   0.000  -0.000  -0.000   0.000   0.000   0.000   0.000
  0.000   0.000   1.987   0.000  -0.000  -0.029  -0.000   0.000   0.000   0.000   0.000   0.000   0.000  -0.000   0.000  -0.000
  0.000   0.000   0.000   2.020   0.000  -0.000  -0.029  -0.000  -0.000   0.000   0.000   0.000   0.000   0.000   0.000   0.000
  0.000   0.000  -0.000   0.000   1.987   0.000  -0.000  -0.029   0.000   0.000   0.000   0.000   0.000   0.000   0.000   0.000
  0.000   0.000  -0.029  -0.000   0.000   0.063   0.000  -0.000   0.000   0.000   0.000   0.000  -0.000   0.000   0.000   0.000
  0.000   0.000  -0.000  -0.029  -0.000   0.000   0.064   0.000   0.000   0.000  -0.000   0.000   0.000   0.000   0.000  -0.000
  0.000   0.000   0.000  -0.000  -0.029  -0.000   0.000   0.063   0.000   0.000   0.000   0.000   0.000   0.000   0.000   0.000
 -0.000  -0.000   0.000   0.000   0.000   0.000   0.000   0.000   2.494   0.000   0.000   0.000  -0.000  -0.916  -0.000  -0.000
 -0.000   0.000   0.000   0.000   0.000   0.000   0.000   0.000   0.000   2.536   0.000  -0.000  -0.000  -0.000  -0.931  -0.000
 -0.000  -0.000   0.000  -0.000   0.000  -0.000   0.000   0.000   0.000   0.000   2.155   0.000   0.000  -0.000  -0.000  -0.854
  0.000   0.000  -0.000   0.000   0.000   0.000   0.000   0.000   0.000  -0.000   0.000   2.536   0.000  -0.000   0.000  -0.000
  0.000   0.000   0.000   0.000   0.000   0.000  -0.000  -0.000  -0.000  -0.000   0.000   0.000   2.108   0.000   0.000  -0.000
 -0.000   0.000   0.000   0.000   0.000   0.000   0.000   0.000  -0.916  -0.000  -0.000  -0.000   0.000   0.350   0.000   0.000
 -0.000   0.000   0.000   0.000   0.000   0.000   0.000   0.000  -0.000  -0.931  -0.000   0.000   0.000   0.000   0.356   0.000
  0.000   0.000   0.000   0.000   0.000  -0.000   0.000  -0.000  -0.000  -0.000  -0.854  -0.000  -0.000   0.000   0.000   0.348
 -0.000   0.000   0.000   0.000   0.000   0.000   0.000   0.000  -0.000   0.000  -0.000  -0.931  -0.000   0.000  -0.000   0.000
 -0.000  -0.000   0.000   0.000  -0.000   0.000   0.000  -0.000   0.000   0.000  -0.000  -0.000  -0.836  -0.000  -0.000   0.000


------------------------ aborting loop because EDIFF is reached ----------------------------------------


    CHARGE:  cpu time      0.0069: real time      0.0072
    FORLOC:  cpu time      0.0002: real time      0.0002
    FORNL :  cpu time      0.0268: real time      0.0269
    STRESS:  cpu time      0.0790: real time      0.0793
    FORCOR:  cpu time      0.0066: real time      0.0066
    FORHAR:  cpu time      0.0015: real time      0.0015
    MIXING:  cpu time      0.0007: real time      0.0007
    OFIELD:  cpu time      0.0000: real time      0.0000

  FORCE on cell =-STRESS in cart. coord.  units (eV):
  Direction    XX          YY          ZZ          XY          YZ          ZX
  --------------------------------------------------------------------------------------
  Alpha Z   165.99706   165.99706   165.99706
  Ewald    -894.35887  -894.35887  -895.49317    -0.00000    -0.00000    -0.00000
  Hartree   153.88029   153.88029   155.90379    -0.00000    -0.00000    -0.00000
  E(xc)    -118.59102  -118.59102  -118.54250    -0.00000     0.00000     0.00000
  Local     176.02955   176.02955   168.32679     0.00000     0.00000    -0.00000
  n-local    -4.91456   -27.69617   -41.09983     1.48574    -0.48871    -0.32335
  augment    36.35689    36.35689    37.05075     0.00000    -0.00000     0.00000
  Kinetic   471.62202   506.75430   543.48216     2.42052    -2.66514     1.34051
  Fock        0.00000     0.00000     0.00000     0.00000     0.00000     0.00000
  -------------------------------------------------------------------------------------
  Total      -0.07924    -0.07924    -0.08056    -0.00000     0.00000    -0.00000
  in kB      -3.53446    -3.53446    -3.59337    -0.00000     0.00000    -0.00000
  external pressure =       -3.55 kB  Pullay stress =        0.00 kB


 VOLUME and BASIS-vectors are now :
 -----------------------------------------------------------------------------
  energy-cutoff  :      430.00
  volume of cell :       35.92
      direct lattice vectors                 reciprocal lattice vectors
     3.290327528  0.000000000  0.000000000     0.303921112  0.000000000  0.000000000
    -0.000000000  3.290327528  0.000000000    -0.000000000  0.303921112  0.000000000
     0.000000000  0.000000000  3.317632379    -0.000000000 -0.000000000  0.301419773

  length of vectors
     3.290327528  3.290327528  3.317632379     0.303921112  0.303921112  0.301419773


 FORCES acting on ions
    electron-ion (+dipol)            ewald-force                    non-local-force                 convergence-correction
 -----------------------------------------------------------------------------------------------
   -.607E-14 -.653E-14 -.207E-13   -.780E-14 -.592E-14 -.218E-14   -.871E-24 0.448E-24 0.858E-24   -.159E-13 0.343E-13 -.115E-13
   0.187E-12 0.389E-12 -.298E-11   0.639E-14 0.407E-14 0.553E-14   -.122E-23 -.852E-24 0.607E-24   -.891E-15 0.421E-13 -.235E-13
 -----------------------------------------------------------------------------------------------
   0.181E-12 0.382E-12 -.300E-11   -.141E-14 -.185E-14 0.335E-14   -.209E-23 -.404E-24 0.146E-23   -.168E-13 0.764E-13 -.350E-13
 
 
 POSITION                                       TOTAL-FORCE (eV/Angst)
 -----------------------------------------------------------------------------------
     -0.00000     -0.00000     -0.00000        -0.000000     -0.000000      0.000000
      1.64516      1.64516      1.65882         0.000000      0.000000     -0.000000
 -----------------------------------------------------------------------------------
    total drift:                                0.000000      0.000000     -0.000000


--------------------------------------------------------------------------------------------------------



  FREE ENERGIE OF THE ION-ELECTRON SYSTEM (eV)
  ---------------------------------------------------
  free  energy   TOTEN  =       -20.48825303 eV

  energy  without entropy=      -20.48658421  energy(sigma->0) =      -20.48769675
 
 d Force = 0.0000000E+00[ 0.000E+00, 0.000E+00]  d Energy = 0.3901243E-03-0.390E-03
 d Force = 0.0000000E+00[ 0.000E+00, 0.000E+00]  d Ewald  = 0.8674305E-01-0.867E-01


--------------------------------------------------------------------------------------------------------


    POTLOK:  cpu time      0.0088: real time      0.0088


--------------------------------------------------------------------------------------------------------


 stress matrix after NEB project (eV)
     -0.07924      0.00000     -0.00000
     -0.00000     -0.07924     -0.00000
      0.00000      0.00000     -0.08056
  FORCES: max atom, RMS     0.000000    0.000000
  FORCE total and by dimension    0.000000    0.000000
  Stress total and by dimension    0.138006    0.080556


--------------------------------------------------------------------------------------------------------


    WAVPRE:  cpu time      0.0021: real time      0.0241
    FEWALD:  cpu time      0.0001: real time      0.0001
    GENKIN:  cpu time      0.0032: real time      0.0032

 real space projection operators:
  total allocation   :       2106.28 KBytes
  max/ min on nodes  :        529.31        522.84

    ORTHCH:  cpu time      0.0112: real time      0.0113
     LOOP+:  cpu time      0.3194: real time      0.3628


--------------------------------------- Iteration      5(   1)  ---------------------------------------


    POTLOK:  cpu time      0.0065: real time      0.0068
    SETDIJ:  cpu time      0.0022: real time      0.0022
     EDDAV:  cpu time      0.0582: real time      0.0588
       DOS:  cpu time      0.0008: real time      0.0008
    CHARGE:  cpu time      0.0061: real time      0.0061
    MIXING:  cpu time      0.0006: real time      0.0005
    --------------------------------------------
      LOOP:  cpu time      0.0745: real time      0.0754

 eigenvalue-minimisations  :  1334
 total energy-change (2. order) :-0.7861339E-03  (-0.3218820E-04)
 number of electron      25.9999725 magnetization 
 augmentation part        2.4368489 magnetization 

 Broyden mixing:
  rms(total) = 0.20375E-02    rms(broyden)= 0.20374E-02
  rms(prec ) = 0.42842E-02
  weight for this iteration     100.00

 Free energy of the ion-electron system (eV)
  ---------------------------------------------------
  alpha Z        PSCENC =       166.02926232
  Ewald energy   TEWEN  =     -2684.38462528
  -Hartree energ DENC   =      -463.70971318
  -exchange      EXHF   =         0.00000000
  -V(xc)+E(xc)   XCENC  =       112.31769364
  PAW double counting   =      2996.50946742    -2952.04683049
  entropy T*S    EENTRO =        -0.00166683
  eigenvalues    EBANDS =      -305.55690013
  atomic energy  EATOM  =      3110.35427263
  Solvation  Ediel_sol  =         0.00000000
  ---------------------------------------------------
  free energy    TOTEN  =       -20.48903990 eV

  energy without entropy =      -20.48737308  energy(sigma->0) =      -20.48848430


--------------------------------------------------------------------------------------------------------




--------------------------------------- Iteration      5(   2)  ---------------------------------------


    POTLOK:  cpu time      0.0072: real time      0.0159
    SETDIJ:  cpu time      0.0022: real time      0.0022
     EDDAV:  cpu time      0.0741: real time      0.0746
       DOS:  cpu time      0.0008: real time      0.0008
    CHARGE:  cpu time      0.0061: real time      0.0062
    MIXING:  cpu time      0.0006: real time      0.0006
    --------------------------------------------
      LOOP:  cpu time      0.0910: real time      0.1003

 eigenvalue-minimisations  :  1720
 total energy-change (2. order) : 0.4779743E-05  (-0.2565150E-05)
 number of electron      25.9999726 magnetization 
 augmentation part        2.4377043 magnetization 

 Broyden mixing:
  rms(total) = 0.88504E-03    rms(broyden)= 0.88502E-03
  rms(prec ) = 0.19729E-02
  weight for this iteration     100.00

 eigenvalues of (default mixing * dielectric matrix)
  average eigenvalue GAMMA=   1.3415
  1.3415

 Free energy of the ion-electron system (eV)
  ---------------------------------------------------
  alpha Z        PSCENC =       166.02926232
  Ewald energy   TEWEN  =     -2684.38462528
  -Hartree energ DENC   =      -463.64672038
  -exchange      EXHF   =         0.00000000
  -V(xc)+E(xc)   XCENC  =       112.31450584
  PAW double counting   =      2996.98888172    -2952.52940525
  entropy T*S    EENTRO =        -0.00166301
  eigenvalues    EBANDS =      -305.61354371
  atomic energy  EATOM  =      3110.35427263
  Solvation  Ediel_sol  =         0.00000000
  ---------------------------------------------------
  free energy    TOTEN  =       -20.48903512 eV

  energy without entropy =      -20.48737211  energy(sigma->0) =      -20.48848079


--------------------------------------------------------------------------------------------------------




--------------------------------------- Iteration      5(   3)  ---------------------------------------


    POTLOK:  cpu time      0.0070: real time      0.0072
    SETDIJ:  cpu time      0.0024: real time      0.0024
     EDDAV:  cpu time      0.0860: real time      0.0866
       DOS:  cpu time      0.0008: real time      0.0008
    CHARGE:  cpu time      0.0065: real time      0.0065
    MIXING:  cpu time      0.0006: real time      0.0007
    --------------------------------------------
      LOOP:  cpu time      0.1031: real time      0.1041

 eigenvalue-minimisations  :  2086
 total energy-change (2. order) :-0.2266377E-05  (-0.1223970E-05)
 number of electron      25.9999726 magnetization 
 augmentation part        2.4374233 magnetization 

 Broyden mixing:
  rms(total) = 0.55100E-03    rms(broyden)= 0.55097E-03
  rms(prec ) = 0.73693E-03
  weight for this iteration     100.00

 eigenvalues of (default mixing * dielectric matrix)
  average eigenvalue GAMMA=   1.2245
  1.2245  1.2245

 Free energy of the ion-electron system (eV)
  ---------------------------------------------------
  alpha Z        PSCENC =       166.02926232
  Ewald energy   TEWEN  =     -2684.38462528
  -Hartree energ DENC   =      -463.60233083
  -exchange      EXHF   =         0.00000000
  -V(xc)+E(xc)   XCENC  =       112.31229591
  PAW double counting   =      2997.04301297    -2952.58899679
  entropy T*S    EENTRO =        -0.00165987
  eigenvalues    EBANDS =      -305.65026843
  atomic energy  EATOM  =      3110.35427263
  Solvation  Ediel_sol  =         0.00000000
  ---------------------------------------------------
  free energy    TOTEN  =       -20.48903739 eV

  energy without entropy =      -20.48737752  energy(sigma->0) =      -20.48848410


--------------------------------------------------------------------------------------------------------




--------------------------------------- Iteration      5(   4)  ---------------------------------------


    POTLOK:  cpu time      0.0071: real time      0.0073
    SETDIJ:  cpu time      0.0024: real time      0.0024
     EDDAV:  cpu time      0.0414: real time      0.0416
       DOS:  cpu time      0.0015: real time      0.0015
    CHARGE:  cpu time      0.0073: real time      0.0074
    MIXING:  cpu time      0.0006: real time      0.0006
    --------------------------------------------
      LOOP:  cpu time      0.0604: real time      0.0609

 eigenvalue-minimisations  :   770
 total energy-change (2. order) :-0.1012640E-05  (-0.9321865E-07)
 number of electron      25.9999726 magnetization 
 augmentation part        2.4372832 magnetization 

 Broyden mixing:
  rms(total) = 0.18907E-03    rms(broyden)= 0.18907E-03
  rms(prec ) = 0.22301E-03
  weight for this iteration     100.00

 eigenvalues of (default mixing * dielectric matrix)
  average eigenvalue GAMMA=   1.5191
  1.3396  1.3396  1.8783

 Free energy of the ion-electron system (eV)
  ---------------------------------------------------
  alpha Z        PSCENC =       166.02926232
  Ewald energy   TEWEN  =     -2684.38462528
  -Hartree energ DENC   =      -463.61597609
  -exchange      EXHF   =         0.00000000
  -V(xc)+E(xc)   XCENC  =       112.31297781
  PAW double counting   =      2996.92964992    -2952.47090355
  entropy T*S    EENTRO =        -0.00166008
  eigenvalues    EBANDS =      -305.64203607
  atomic energy  EATOM  =      3110.35427263
  Solvation  Ediel_sol  =         0.00000000
  ---------------------------------------------------
  free energy    TOTEN  =       -20.48903840 eV

  energy without entropy =      -20.48737832  energy(sigma->0) =      -20.48848504


--------------------------------------------------------------------------------------------------------




--------------------------------------- Iteration      5(   5)  ---------------------------------------


    POTLOK:  cpu time      0.0071: real time      0.0073
    SETDIJ:  cpu time      0.0024: real time      0.0024
     EDDAV:  cpu time      0.0388: real time      0.0391
       DOS:  cpu time      0.0008: real time      0.0008
    CHARGE:  cpu time      0.0063: real time      0.0063
    MIXING:  cpu time      0.0009: real time      0.0009
    --------------------------------------------
      LOOP:  cpu time      0.0563: real time      0.0568

 eigenvalue-minimisations  :   690
 total energy-change (2. order) :-0.2290434E-05  (-0.4269838E-07)
 number of electron      25.9999727 magnetization 
 augmentation part        2.4372659 magnetization 

 Broyden mixing:
  rms(total) = 0.16650E-03    rms(broyden)= 0.16650E-03
  rms(prec ) = 0.18134E-03
  weight for this iteration     100.00

 eigenvalues of (default mixing * dielectric matrix)
  average eigenvalue GAMMA=   1.3591
  2.2267  1.3659  1.3659  0.4778

 Free energy of the ion-electron system (eV)
  ---------------------------------------------------
  alpha Z        PSCENC =       166.02926232
  Ewald energy   TEWEN  =     -2684.38462528
  -Hartree energ DENC   =      -463.61860702
  -exchange      EXHF   =         0.00000000
  -V(xc)+E(xc)   XCENC  =       112.31309798
  PAW double counting   =      2996.90702565    -2952.44241123
  entropy T*S    EENTRO =        -0.00165930
  eigenvalues    EBANDS =      -305.64539643
  atomic energy  EATOM  =      3110.35427263
  Solvation  Ediel_sol  =         0.00000000
  ---------------------------------------------------
  free energy    TOTEN  =       -20.48904069 eV

  energy without entropy =      -20.48738139  energy(sigma->0) =      -20.48848759


--------------------------------------------------------------------------------------------------------




--------------------------------------- Iteration      5(   6)  ---------------------------------------


    POTLOK:  cpu time      0.0072: real time      0.0074
    SETDIJ:  cpu time      0.0024: real time      0.0024
     EDDAV:  cpu time      0.0381: real time      0.0385
       DOS:  cpu time      0.0008: real time      0.0008
    --------------------------------------------
      LOOP:  cpu time      0.0485: real time      0.0490

 eigenvalue-minimisations  :   678
 total energy-change (2. order) :-0.3787122E-06  (-0.3083970E-07)
 number of electron      25.9999727 magnetization 
 augmentation part        2.4372659 magnetization 

 Free energy of the ion-electron system (eV)
  ---------------------------------------------------
  alpha Z        PSCENC =       166.02926232
  Ewald energy   TEWEN  =     -2684.38462528
  -Hartree energ DENC   =      -463.61991529
  -exchange      EXHF   =         0.00000000
  -V(xc)+E(xc)   XCENC  =       112.31316128
  PAW double counting   =      2996.88136978    -2952.41557847
  entropy T*S    EENTRO =        -0.00165921
  eigenvalues    EBANDS =      -305.64532882
  atomic energy  EATOM  =      3110.35427263
  Solvation  Ediel_sol  =         0.00000000
  ---------------------------------------------------
  free energy    TOTEN  =       -20.48904107 eV

  energy without entropy =      -20.48738186  energy(sigma->0) =      -20.48848800


--------------------------------------------------------------------------------------------------------




 average (electrostatic) potential at core
  the test charge radii are     1.0703
  (the norm of the test charge is              1.0000)
       1 -76.7352       2 -76.7352
 
 
 
 E-fermi :  11.1761     XC(G=0): -12.5174     alpha+bet :-19.3189

 Fermi energy:        11.1761115883

 k-point     1 :       0.0500    0.0500    0.0500
  band No.  band energies     occupation 
      1     -43.1426      2.00000
      2     -42.7359      2.00000
      3     -19.4109      2.00000
      4     -19.3861      2.00000
      5     -19.3054      2.00000
      6     -18.5254      2.00000
      7     -18.4855      2.00000
      8     -18.3880      2.00000
      9       5.4371      2.00000
     10       7.5658      2.00000
     11       7.6186      2.00000
     12      11.4987     -0.00005
     13      11.5265     -0.00001
     14      11.7645     -0.00000
     15      14.3197      0.00000
     16      14.5378      0.00000
     17      15.9472      0.00000
     18      16.6162      0.00000

 k-point     2 :       0.1500    0.0500    0.0500
  band No.  band energies     occupation 
      1     -43.1196      2.00000
      2     -42.7525      2.00000
      3     -19.4346      2.00000
      4     -19.3381      2.00000
      5     -19.2433      2.00000
      6     -18.6428      2.00000
      7     -18.5160      2.00000
      8     -18.4210      2.00000
      9       5.8377      2.00000
     10       7.8167      2.00000
     11       7.9300      2.00000
     12      11.3584     -0.02710
     13      11.4583     -0.00049
     14      12.0575     -0.00000
     15      13.9329      0.00000
     16      14.6194      0.00000
     17      14.8060      0.00000
     18      15.5207      0.00000

 k-point     3 :       0.2500    0.0500    0.0500
  band No.  band energies     occupation 
      1     -43.0767      2.00000
      2     -42.7850      2.00000
      3     -19.4437      2.00000
      4     -19.2495      2.00000
      5     -19.1453      2.00000
      6     -18.8198      2.00000
      7     -18.5940      2.00000
      8     -18.4944      2.00000
      9       6.5685      2.00000
     10       8.2475      2.00000
     11       8.4869      2.00000
     12      11.2977     -0.07089
     13      11.3752     -0.01647
     14      12.4848     -0.00000
     15      13.0766     -0.00000
     16      13.6774     -0.00000
     17      14.3164      0.00000
     18      15.0146      0.00000

 k-point     4 :       0.3500    0.0500    0.0500
  band No.  band energies     occupation 
      1     -43.0194      2.00000
      2     -42.8319      2.00000
      3     -19.4167      2.00000
      4     -19.1287      2.00000
      5     -19.0208      2.00000
      6     -19.0189      2.00000
      7     -18.7068      2.00000
      8     -18.6032      2.00000
      9       7.4884      2.00000
     10       8.8640      2.00000
     11       8.9720      2.00000
     12      11.2059      0.52043
     13      11.3958     -0.00805
     14      12.2579     -0.00000
     15      12.7694     -0.00000
     16      13.0528     -0.00000
     17      13.3019     -0.00000
     18      15.3137      0.00000

 k-point     5 :       0.4500    0.0500    0.0500
  band No.  band energies     occupation 
      1     -42.9548      2.00000
      2     -42.8901      2.00000
      3     -19.3375      2.00000
      4     -19.2010      2.00000
      5     -18.9882      2.00000
      6     -18.8801      2.00000
      7     -18.8427      2.00000
      8     -18.7362      2.00000
      9       8.3819      2.00000
     10       8.9570      2.00000
     11       9.6725      2.00000
     12      10.5524      2.00000
     13      11.6797     -0.00000
     14      12.1233     -0.00000
     15      12.1324     -0.00000
     16      12.5520     -0.00000
     17      13.7452     -0.00000
     18      14.5152      0.00000

 k-point     6 :       0.1500    0.1500    0.0500
  band No.  band energies     occupation 
      1     -43.0984      2.00000
      2     -42.7670      2.00000
      3     -19.4926      2.00000
      4     -19.2839      2.00000
      5     -19.1634      2.00000
      6     -18.7937      2.00000
      7     -18.4895      2.00000
      8     -18.4606      2.00000
      9       6.2020      2.00000
     10       8.0794      2.00000
     11       8.2066      2.00000
     12      11.0289      2.05779
     13      11.3104     -0.06729
     14      12.5693     -0.00000
     15      13.6780     -0.00000
     16      14.0939      0.00000
     17      14.4028      0.00000
     18      14.8607      0.00000

 k-point     7 :       0.2500    0.1500    0.0500
  band No.  band energies     occupation 
      1     -43.0590      2.00000
      2     -42.7956      2.00000
      3     -19.5362      2.00000
      4     -19.1940      2.00000
      5     -19.0522      2.00000
      6     -18.9889      2.00000
      7     -18.5450      2.00000
      8     -18.5079      2.00000
      9       6.8479      2.00000
     10       8.4317      2.00000
     11       8.7747      2.00000
     12      10.7967      2.00000
     13      11.1380      1.59625
     14      12.6530     -0.00000
     15      13.1937     -0.00000
     16      13.5979     -0.00000
     17      13.8761     -0.00000
     18      14.7972      0.00000

 k-point     8 :       0.3500    0.1500    0.0500
  band No.  band energies     occupation 
      1     -43.0065      2.00000
      2     -42.8373      2.00000
      3     -19.5384      2.00000
      4     -19.1902      2.00000
      5     -19.0735      2.00000
      6     -18.9274      2.00000
      7     -18.6560      2.00000
      8     -18.5770      2.00000
      9       7.6216      2.00000
     10       8.8091      2.00000
     11       9.3308      2.00000
     12      10.7136      2.00000
     13      10.9787      2.01736
     14      11.8994     -0.00000
     15      13.0471     -0.00000
     16      13.1722     -0.00000
     17      13.9167      0.00000
     18      15.3112      0.00000

 k-point     9 :       0.4500    0.1500    0.0500
  band No.  band energies     occupation 
      1     -42.9478      2.00000
      2     -42.8894      2.00000
      3     -19.4825      2.00000
      4     -19.3631      2.00000
      5     -18.9342      2.00000
      6     -18.7990      2.00000
      7     -18.7902      2.00000
      8     -18.6781      2.00000
      9       8.3370      2.00000
     10       8.8142      2.00000
     11       9.8657      2.00000
     12      10.4336      2.00000
     13      11.0361      2.06351
     14      11.3879     -0.01071
     15      12.8485     -0.00000
     16      12.9071     -0.00000
     17      14.6649      0.00000
     18      15.3488      0.00000

 k-point    10 :       0.2500    0.2500    0.0500
  band No.  band energies     occupation 
      1     -43.0262      2.00000
      2     -42.8169      2.00000
      3     -19.6222      2.00000
      4     -19.1957      2.00000
      5     -19.1147      2.00000
      6     -18.9275      2.00000
      7     -18.5921      2.00000
      8     -18.4960      2.00000
      9       7.2879      2.00000
     10       8.5478      2.00000
     11       9.4222      2.00000
     12      10.3869      2.00000
     13      11.0389      2.06546
     14      11.7381     -0.00000
     15      13.2429     -0.00000
     16      13.9925      0.00000
     17      14.1492      0.00000
     18      14.5903      0.00000

 k-point    11 :       0.3500    0.2500    0.0500
  band No.  band energies     occupation 
      1     -42.9831      2.00000
      2     -42.8485      2.00000
      3     -19.6645      2.00000
      4     -19.3940      2.00000
      5     -19.0126      2.00000
      6     -18.8010      2.00000
      7     -18.6763      2.00000
      8     -18.5219      2.00000
      9       7.7167      2.00000
     10       8.5323      2.00000
     11      10.1261      2.00000
     12      10.1834      2.00000
     13      11.0642      2.06698
     14      11.1441      1.51217
     15      13.0711     -0.00000
     16      13.9035     -0.00000
     17      14.9252      0.00000
     18      15.0491      0.00000

 k-point    12 :       0.4500    0.2500    0.0500
  band No.  band energies     occupation 
      1     -42.9354      2.00000
      2     -42.8890      2.00000
      3     -19.6431      2.00000
      4     -19.5505      2.00000
      5     -18.8974      2.00000
      6     -18.7814      2.00000
      7     -18.6844      2.00000
      8     -18.5879      2.00000
      9       8.0618      2.00000
     10       8.3459      2.00000
     11      10.2086      2.00000
     12      10.4060      2.00000
     13      10.8773      2.00020
     14      11.1479      1.45777
     15      13.4073     -0.00000
     16      13.7196     -0.00000
     17      15.4787      0.00000
     18      15.9642      0.00000

 k-point    13 :       0.3500    0.3500    0.0500
  band No.  band energies     occupation 
      1     -42.9529      2.00000
      2     -42.8665      2.00000
      3     -19.7487      2.00000
      4     -19.5774      2.00000
      5     -18.9402      2.00000
      6     -18.7235      2.00000
      7     -18.6837      2.00000
      8     -18.5027      2.00000
      9       7.7150      2.00000
     10       8.1899      2.00000
     11       9.8399      2.00000
     12      10.3799      2.00000
     13      11.0862      2.02251
     14      11.7731     -0.00000
     15      13.3513     -0.00000
     16      14.4669      0.00000
     17      14.8935      0.00000
     18      15.9305      0.00000

 k-point    14 :       0.4500    0.3500    0.0500
  band No.  band energies     occupation 
      1     -42.9208      2.00000
      2     -42.8910      2.00000
      3     -19.7668      2.00000
      4     -19.7082      2.00000
      5     -18.8622      2.00000
      6     -18.7874      2.00000
      7     -18.5896      2.00000
      8     -18.5269      2.00000
      9       7.7448      2.00000
     10       7.9021      2.00000
     11       9.7522      2.00000
     12       9.9364      2.00000
     13      11.8735     -0.00000
     14      12.1878     -0.00000
     15      13.9453      0.00000
     16      14.4103      0.00000
     17      15.3492      0.00000
     18      16.2992      0.00000

 k-point    15 :       0.4500    0.4500    0.0500
  band No.  band energies     occupation 
      1     -42.9071      2.00000
      2     -42.8968      2.00000
      3     -19.8255      2.00000
      4     -19.8055      2.00000
      5     -18.8296      2.00000
      6     -18.8037      2.00000
      7     -18.5287      2.00000
      8     -18.5069      2.00000
      9       7.5783      2.00000
     10       7.6298      2.00000
     11       9.5357      2.00000
     12       9.5991      2.00000
     13      12.9269     -0.00000
     14      13.1499     -0.00000
     15      14.4362      0.00000
     16      14.6709      0.00000
     17      15.1723      0.00000
     18      15.7109      0.00000

 k-point    16 :       0.1500    0.1500    0.1500
  band No.  band energies     occupation 
      1     -43.0793      2.00000
      2     -42.7801      2.00000
      3     -19.4428      2.00000
      4     -19.3898      2.00000
      5     -19.0382      2.00000
      6     -18.8981      2.00000
      7     -18.5375      2.00000
      8     -18.4556      2.00000
      9       6.5463      2.00000
     10       8.3746      2.00000
     11       8.4251      2.00000
     12      10.8947      2.00051
     13      10.9298      2.00273
     14      12.5435     -0.00000
     15      13.1760     -0.00000
     16      14.1735      0.00000
     17      14.3456      0.00000
     18      15.6735      0.00000

 k-point    17 :       0.2500    0.1500    0.1500
  band No.  band energies     occupation 
      1     -43.0430      2.00000
      2     -42.8053      2.00000
      3     -19.5128      2.00000
      4     -19.3036      2.00000
      5     -19.0831      2.00000
      6     -18.9165      2.00000
      7     -18.5909      2.00000
      8     -18.4896      2.00000
      9       7.1547      2.00000
     10       8.7351      2.00000
     11       8.9425      2.00000
     12      10.6448      2.00000
     13      10.6978      2.00000
     14      11.6065     -0.00000
     15      13.8619     -0.00000
     16      13.9278      0.00000
     17      14.5895      0.00000
     18      14.6950      0.00000

 k-point    18 :       0.3500    0.1500    0.1500
  band No.  band energies     occupation 
      1     -42.9949      2.00000
      2     -42.8421      2.00000
      3     -19.5465      2.00000
      4     -19.2697      2.00000
      5     -19.1728      2.00000
      6     -18.7984      2.00000
      7     -18.7103      2.00000
      8     -18.5313      2.00000
      9       7.8424      2.00000
     10       9.1706      2.00000
     11       9.2394      2.00000
     12      10.4278      2.00000
     13      10.6978      2.00000
     14      11.1847      0.85539
     15      13.3970     -0.00000
     16      13.7265     -0.00000
     17      14.7235      0.00000
     18      15.2325      0.00000

 k-point    19 :       0.4500    0.1500    0.1500
  band No.  band energies     occupation 
      1     -42.9415      2.00000
      2     -42.8888      2.00000
      3     -19.5186      2.00000
      4     -19.4231      2.00000
      5     -19.0193      2.00000
      6     -18.8594      2.00000
      7     -18.6904      2.00000
      8     -18.5993      2.00000
      9       8.4493      2.00000
     10       8.9507      2.00000
     11       9.6664      2.00000
     12      10.0998      2.00000
     13      10.9948      2.02788
     14      11.1951      0.68480
     15      13.1154     -0.00000
     16      13.2131     -0.00000
     17      15.1763      0.00000
     18      15.3415      0.00000

 k-point    20 :       0.2500    0.2500    0.1500
  band No.  band energies     occupation 
      1     -43.0127      2.00000
      2     -42.8238      2.00000
      3     -19.5670      2.00000
      4     -19.2627      2.00000
      5     -19.2535      2.00000
      6     -18.8031      2.00000
      7     -18.5845      2.00000
      8     -18.5507      2.00000
      9       7.6479      2.00000
     10       8.9500      2.00000
     11       9.4929      2.00000
     12      10.2613      2.00000
     13      10.5553      2.00000
     14      10.7811      2.00000
     15      14.2297      0.00000
     16      14.2450      0.00000
     17      14.5754      0.00000
     18      14.8534      0.00000

 k-point    21 :       0.3500    0.2500    0.1500
  band No.  band energies     occupation 
      1     -42.9732      2.00000
      2     -42.8517      2.00000
      3     -19.6186      2.00000
      4     -19.4208      2.00000
      5     -19.1475      2.00000
      6     -18.7053      2.00000
      7     -18.7003      2.00000
      8     -18.5523      2.00000
      9       8.0803      2.00000
     10       8.9045      2.00000
     11       9.9141      2.00000
     12      10.0614      2.00000
     13      10.6489      2.00000
     14      10.6717      2.00000
     15      13.7866     -0.00000
     16      14.0412      0.00000
     17      15.0165      0.00000
     18      15.8221      0.00000

 k-point    22 :       0.4500    0.2500    0.1500
  band No.  band energies     occupation 
      1     -42.9298      2.00000
      2     -42.8879      2.00000
      3     -19.6176      2.00000
      4     -19.5497      2.00000
      5     -19.0008      2.00000
      6     -18.8456      2.00000
      7     -18.6290      2.00000
      8     -18.5773      2.00000
      9       8.3695      2.00000
     10       8.6451      2.00000
     11       9.9394      2.00000
     12       9.9769      2.00000
     13      10.9675      2.01198
     14      10.9998      2.03179
     15      13.7090     -0.00000
     16      13.8168     -0.00000
     17      15.3382      0.00000
     18      15.5607      0.00000

 k-point    23 :       0.3500    0.3500    0.1500
  band No.  band energies     occupation 
      1     -42.9454      2.00000
      2     -42.8673      2.00000
      3     -19.6884      2.00000
      4     -19.5664      2.00000
      5     -19.0620      2.00000
      6     -18.7430      2.00000
      7     -18.6350      2.00000
      8     -18.5640      2.00000
      9       8.1274      2.00000
     10       8.5243      2.00000
     11       9.7750      2.00000
     12      10.0824      2.00000
     13      10.9809      2.01862
     14      11.1945      0.69453
     15      13.8712     -0.00000
     16      14.5298      0.00000
     17      14.9378      0.00000
     18      16.0267      0.00000

 k-point    24 :       0.4500    0.3500    0.1500
  band No.  band energies     occupation 
      1     -42.9160      2.00000
      2     -42.8891      2.00000
      3     -19.7121      2.00000
      4     -19.6705      2.00000
      5     -18.9491      2.00000
      6     -18.8347      2.00000
      7     -18.5914      2.00000
      8     -18.5709      2.00000
      9       8.1265      2.00000
     10       8.2440      2.00000
     11       9.6944      2.00000
     12       9.8193      2.00000
     13      11.6445     -0.00000
     14      11.7240     -0.00000
     15      14.1987      0.00000
     16      14.4687      0.00000
     17      15.2555      0.00000
     18      15.6821      0.00000

 k-point    25 :       0.4500    0.4500    0.1500
  band No.  band energies     occupation 
      1     -42.9033      2.00000
      2     -42.8940      2.00000
      3     -19.7622      2.00000
      4     -19.7481      2.00000
      5     -18.8895      2.00000
      6     -18.8467      2.00000
      7     -18.5762      2.00000
      8     -18.5723      2.00000
      9       7.9747      2.00000
     10       8.0077      2.00000
     11       9.5170      2.00000
     12       9.5712      2.00000
     13      12.4543     -0.00000
     14      12.5123     -0.00000
     15      14.6058      0.00000
     16      14.7563      0.00000
     17      15.2002      0.00000
     18      15.4489      0.00000

 k-point    26 :       0.2500    0.2500    0.2500
  band No.  band energies     occupation 
      1     -42.9880      2.00000
      2     -42.8379      2.00000
      3     -19.4619      2.00000
      4     -19.4010      2.00000
      5     -19.3491      2.00000
      6     -18.6995      2.00000
      7     -18.6548      2.00000
      8     -18.5728      2.00000
      9       8.2286      2.00000
     10       9.6074      2.00000
     11       9.6393      2.00000
     12       9.9472      2.00000
     13      10.0868      2.00000
     14      10.1163      2.00000
     15      14.4929      0.00000
     16      14.6046      0.00000
     17      14.9889      0.00000
     18      15.0820      0.00000

 k-point    27 :       0.3500    0.2500    0.2500
  band No.  band energies     occupation 
      1     -42.9553      2.00000
      2     -42.8588      2.00000
      3     -19.5477      2.00000
      4     -19.4705      2.00000
      5     -19.2666      2.00000
      6     -18.7504      2.00000
      7     -18.6338      2.00000
      8     -18.5952      2.00000
      9       8.6339      2.00000
     10       9.2570      2.00000
     11       9.7381      2.00000
     12       9.9477      2.00000
     13      10.1715      2.00000
     14      10.4689      2.00000
     15      14.3885      0.00000
     16      14.4013      0.00000
     17      14.9880      0.00000
     18      15.3527      0.00000

 k-point    28 :       0.4500    0.2500    0.2500
  band No.  band energies     occupation 
      1     -42.9200      2.00000
      2     -42.8867      2.00000
      3     -19.5858      2.00000
      4     -19.5575      2.00000
      5     -19.0956      2.00000
      6     -18.9164      2.00000
      7     -18.5977      2.00000
      8     -18.5877      2.00000
      9       8.7165      2.00000
     10       8.8717      2.00000
     11       9.8060      2.00000
     12       9.8572      2.00000
     13      10.7012      2.00000
     14      10.9174      2.00156
     15      14.1550      0.00000
     16      14.2005      0.00000
     17      15.2896      0.00000
     18      15.3560      0.00000

 k-point    29 :       0.3500    0.3500    0.2500
  band No.  band energies     occupation 
      1     -42.9319      2.00000
      2     -42.8699      2.00000
      3     -19.5734      2.00000
      4     -19.5506      2.00000
      5     -19.2120      2.00000
      6     -18.7619      2.00000
      7     -18.6806      2.00000
      8     -18.6126      2.00000
      9       8.8731      2.00000
     10       8.9328      2.00000
     11       9.7092      2.00000
     12       9.9704      2.00000
     13      10.4493      2.00000
     14      10.7572      2.00000
     15      14.5236      0.00000
     16      14.7562      0.00000
     17      14.9818      0.00000
     18      15.3662      0.00000

 k-point    30 :       0.4500    0.3500    0.2500
  band No.  band energies     occupation 
      1     -42.9078      2.00000
      2     -42.8865      2.00000
      3     -19.6113      2.00000
      4     -19.6049      2.00000
      5     -19.0697      2.00000
      6     -18.9052      2.00000
      7     -18.6546      2.00000
      8     -18.6230      2.00000
      9       8.7372      2.00000
     10       8.7581      2.00000
     11       9.6887      2.00000
     12       9.8195      2.00000
     13      11.0543      2.07090
     14      11.2104      0.45506
     15      14.5948      0.00000
     16      14.7003      0.00000
     17      15.2368      0.00000
     18      15.3531      0.00000

 k-point    31 :       0.4500    0.4500    0.2500
  band No.  band energies     occupation 
      1     -42.8970      2.00000
      2     -42.8896      2.00000
      3     -19.6412      2.00000
      4     -19.6404      2.00000
      5     -18.9875      2.00000
      6     -18.9127      2.00000
      7     -18.6966      2.00000
      8     -18.6689      2.00000
      9       8.6435      2.00000
     10       8.6763      2.00000
     11       9.5315      2.00000
     12       9.6102      2.00000
     13      11.6703     -0.00000
     14      11.7306     -0.00000
     15      14.8797      0.00000
     16      14.9517      0.00000
     17      15.2426      0.00000
     18      15.3179      0.00000

 k-point    32 :       0.3500    0.3500    0.3500
  band No.  band energies     occupation 
      1     -42.9154      2.00000
      2     -42.8756      2.00000
      3     -19.5336      2.00000
      4     -19.4145      2.00000
      5     -19.3475      2.00000
      6     -18.8410      2.00000
      7     -18.7568      2.00000
      8     -18.6283      2.00000
      9       9.0067      2.00000
     10       9.7185      2.00000
     11       9.7189      2.00000
     12       9.8499      2.00000
     13      10.4176      2.00000
     14      10.4393      2.00000
     15      14.9860      0.00000
     16      15.0110      0.00000
     17      15.0322      0.00000
     18      15.0450      0.00000

 k-point    33 :       0.4500    0.3500    0.3500
  band No.  band energies     occupation 
      1     -42.8986      2.00000
      2     -42.8849      2.00000
      3     -19.5293      2.00000
      4     -19.4896      2.00000
      5     -19.1720      2.00000
      6     -18.9768      2.00000
      7     -18.7531      2.00000
      8     -18.6865      2.00000
      9       9.0381      2.00000
     10       9.2759      2.00000
     11       9.8369      2.00000
     12      10.0871      2.00000
     13      10.5951      2.00000
     14      10.8298      2.00001
     15      14.9432      0.00000
     16      14.9796      0.00000
     17      15.2523      0.00000
     18      15.2649      0.00000

 k-point    34 :       0.4500    0.4500    0.3500
  band No.  band energies     occupation 
      1     -42.8903      2.00000
      2     -42.8856      2.00000
      3     -19.4975      2.00000
      4     -19.4740      2.00000
      5     -19.0973      2.00000
      6     -18.9689      2.00000
      7     -18.8672      2.00000
      8     -18.7929      2.00000
      9       9.2271      2.00000
     10       9.4701      2.00000
     11       9.6478      2.00000
     12       9.9027      2.00000
     13      10.9015      2.00072
     14      10.9927      2.02634
     15      15.1547      0.00000
     16      15.1789      0.00000
     17      15.2803      0.00000
     18      15.2909      0.00000

 k-point    35 :       0.4500    0.4500    0.4500
  band No.  band energies     occupation 
      1     -42.8855      2.00000
      2     -42.8838      2.00000
      3     -19.3443      2.00000
      4     -19.2762      2.00000
      5     -19.2104      2.00000
      6     -19.0671      2.00000
      7     -18.9784      2.00000
      8     -18.9136      2.00000
      9       9.6049      2.00000
     10       9.8890      2.00000
     11       9.9193      2.00000
     12      10.3218      2.00000
     13      10.3711      2.00000
     14      10.4456      2.00000
     15      15.2982      0.00000
     16      15.2996      0.00000
     17      15.3239      0.00000
     18      15.3290      0.00000


--------------------------------------------------------------------------------------------------------


 soft charge-density along one line, spin component           1
         0         1         2         3         4         5         6         7         8         9
 total charge-density along one line
 
 pseudopotential strength for first ion, spin component:           1
  5.491 -19.449   0.000   0.000   0.000  -0.000  -0.000  -0.000
-19.449   8.443   0.000   0.000   0.000  -0.000  -0.000  -0.000
  0.000   0.000  -9.368  -0.000   0.000   5.458   0.000  -0.000
  0.000   0.000  -0.000  -9.337  -0.000   0.000   5.423   0.000
  0.000   0.000   0.000  -0.000  -9.368  -0.000   0.000   5.458
 -0.000  -0.000   5.458   0.000  -0.000   8.309  -0.000   0.000
 -0.000  -0.000   0.000   5.423   0.000  -0.000   8.330  -0.000
 -0.000  -0.000  -0.000   0.000   5.458   0.000  -0.000   8.309
  0.000   0.000   0.000   0.000   0.000  -0.000  -0.000  -0.000
 -0.000  -0.000   0.000   0.000   0.000  -0.000  -0.000  -0.000
  0.012   0.006  -0.000   0.000  -0.000   0.000  -0.000   0.000
 -0.000  -0.000   0.000   0.000   0.000  -0.000  -0.000  -0.000
  0.000   0.000  -0.000   0.000   0.000   0.000  -0.000  -0.000
  0.000   0.000   0.000   0.000   0.000  -0.000  -0.000  -0.000
 -0.000  -0.000   0.000   0.000   0.000  -0.000  -0.000  -0.000
  0.016   0.008  -0.000   0.000  -0.000   0.000  -0.000   0.000
 -0.000  -0.000   0.000   0.000   0.000  -0.000  -0.000  -0.000
  0.000   0.000  -0.000   0.000   0.000   0.000  -0.000  -0.000
 total augmentation occupancy for first ion, spin component:           1
  1.997  -0.037  -0.000   0.000   0.000   0.000   0.000   0.000   0.000  -0.000  -0.000   0.000   0.000   0.000   0.000   0.000
 -0.037   1.465   0.000   0.000   0.000   0.000   0.000   0.000   0.000  -0.000  -0.000   0.000  -0.000   0.000   0.000   0.000
 -0.000   0.000   1.987   0.000  -0.000  -0.029  -0.000   0.000   0.000   0.000   0.000   0.000   0.000   0.000   0.000   0.000
 -0.000   0.000   0.000   2.020   0.000  -0.000  -0.029  -0.000   0.000   0.000   0.000   0.000   0.000   0.000   0.000  -0.000
  0.000   0.000  -0.000   0.000   1.987   0.000  -0.000  -0.029   0.000   0.000   0.000   0.000   0.000   0.000   0.000  -0.000
  0.000   0.000  -0.029  -0.000   0.000   0.063   0.000  -0.000   0.000   0.000   0.000   0.000  -0.000   0.000   0.000   0.000
  0.000   0.000  -0.000  -0.029  -0.000   0.000   0.064   0.000   0.000   0.000   0.000   0.000  -0.000   0.000   0.000  -0.000
  0.000   0.000   0.000  -0.000  -0.029  -0.000   0.000   0.063   0.000   0.000  -0.000   0.000  -0.000   0.000   0.000  -0.000
  0.000  -0.000   0.000   0.000   0.000   0.000   0.000   0.000   2.493   0.000   0.000   0.000  -0.000  -0.915  -0.000  -0.000
  0.000  -0.000   0.000   0.000   0.000   0.000   0.000   0.000   0.000   2.535   0.000  -0.000  -0.000  -0.000  -0.930  -0.000
 -0.000  -0.000   0.000   0.000   0.000   0.000   0.000   0.000   0.000   0.000   2.154   0.000   0.000  -0.000  -0.000  -0.854
  0.000   0.000   0.000   0.000   0.000   0.000   0.000   0.000   0.000  -0.000   0.000   2.535   0.000  -0.000   0.000  -0.000
  0.000   0.000   0.000   0.000   0.000  -0.000   0.000  -0.000  -0.000  -0.000   0.000   0.000   2.107   0.000   0.000  -0.000
  0.000   0.000   0.000   0.000   0.000   0.000   0.000   0.000  -0.915  -0.000  -0.000  -0.000   0.000   0.350   0.000   0.000
  0.000   0.000  -0.000   0.000   0.000   0.000   0.000   0.000  -0.000  -0.930  -0.000   0.000   0.000   0.000   0.356   0.000
  0.000   0.000  -0.000  -0.000   0.000   0.000   0.000  -0.000  -0.000  -0.000  -0.854  -0.000  -0.000   0.000   0.000   0.348
 -0.000  -0.000   0.000   0.000   0.000   0.000   0.000   0.000  -0.000   0.000  -0.000  -0.930  -0.000   0.000  -0.000   0.000
  0.000  -0.000   0.000   0.000  -0.000  -0.000   0.000  -0.000   0.000   0.000  -0.000  -0.000  -0.835  -0.000  -0.000   0.000


------------------------ aborting loop because EDIFF is reached ----------------------------------------


    CHARGE:  cpu time      0.0061: real time      0.0063
    FORLOC:  cpu time      0.0002: real time      0.0002
    FORNL :  cpu time      0.0281: real time      0.0284
    STRESS:  cpu time      0.0798: real time      0.0803
    FORCOR:  cpu time      0.0066: real time      0.0066
    FORHAR:  cpu time      0.0014: real time      0.0014
    MIXING:  cpu time      0.0006: real time      0.0006
    OFIELD:  cpu time      0.0000: real time      0.0000

  FORCE on cell =-STRESS in cart. coord.  units (eV):
  Direction    XX          YY          ZZ          XY          YZ          ZX
  --------------------------------------------------------------------------------------
  Alpha Z   166.02926   166.02926   166.02926
  Ewald    -894.41255  -894.41255  -895.55932     0.00000     0.00000     0.00000
  Hartree   153.85789   153.85789   155.90523    -0.00000    -0.00000    -0.00000
  E(xc)    -118.59207  -118.59207  -118.54300    -0.00000    -0.00000     0.00000
  Local     176.11415   176.11415   168.32028     0.00000     0.00000     0.00000
  n-local    -4.93144   -27.72046   -41.11553     1.48750    -0.48926    -0.32335
  augment    36.35275    36.35275    37.05474     0.00000     0.00000    -0.00000
  Kinetic   471.64616   506.78882   543.50104     2.42349    -2.66570     1.34270
  Fock        0.00000     0.00000     0.00000     0.00000     0.00000     0.00000
  -------------------------------------------------------------------------------------
  Total      -0.06131    -0.06131    -0.06234    -0.00000     0.00000    -0.00000
  in kB      -2.73518    -2.73518    -2.78131    -0.00000     0.00000    -0.00000
  external pressure =       -2.75 kB  Pullay stress =        0.00 kB


 VOLUME and BASIS-vectors are now :
 -----------------------------------------------------------------------------
  energy-cutoff  :      430.00
  volume of cell :       35.91
      direct lattice vectors                 reciprocal lattice vectors
     3.290008390  0.000000000  0.000000000     0.303950593  0.000000000  0.000000000
    -0.000000000  3.290008390  0.000000000    -0.000000000  0.303950593  0.000000000
     0.000000000  0.000000000  3.317632379    -0.000000000 -0.000000000  0.301419773

  length of vectors
     3.290008390  3.290008390  3.317632379     0.303950593  0.303950593  0.301419773


 FORCES acting on ions
    electron-ion (+dipol)            ewald-force                    non-local-force                 convergence-correction
 -----------------------------------------------------------------------------------------------
   -.358E-14 -.814E-14 -.207E-13   -.323E-14 -.611E-14 -.646E-14   -.100E-23 -.131E-23 -.889E-24   0.183E-13 0.267E-13 -.203E-13
   0.190E-12 0.390E-12 -.298E-11   0.421E-14 0.801E-14 0.951E-14   0.263E-23 0.330E-23 -.209E-23   -.482E-14 0.360E-13 -.105E-13
 -----------------------------------------------------------------------------------------------
   0.186E-12 0.382E-12 -.300E-11   0.987E-15 0.190E-14 0.306E-14   0.163E-23 0.198E-23 -.298E-23   0.135E-13 0.627E-13 -.308E-13
 
 
 POSITION                                       TOTAL-FORCE (eV/Angst)
 -----------------------------------------------------------------------------------
     -0.00000     -0.00000     -0.00000        -0.000000      0.000000      0.000000
      1.64500      1.64500      1.65882         0.000000     -0.000000     -0.000000
 -----------------------------------------------------------------------------------
    total drift:                                0.000000      0.000000     -0.000000


--------------------------------------------------------------------------------------------------------



  FREE ENERGIE OF THE ION-ELECTRON SYSTEM (eV)
  ---------------------------------------------------
  free  energy   TOTEN  =       -20.48904107 eV

  energy  without entropy=      -20.48738186  energy(sigma->0) =      -20.48848800
 
 d Force = 0.0000000E+00[ 0.000E+00, 0.000E+00]  d Energy = 0.7880457E-03-0.788E-03
 d Force = 0.0000000E+00[ 0.000E+00, 0.000E+00]  d Ewald  = 0.1735065E+00-0.174E+00


--------------------------------------------------------------------------------------------------------


    POTLOK:  cpu time      0.0087: real time      0.0088


--------------------------------------------------------------------------------------------------------


 stress matrix after NEB project (eV)
     -0.06131     -0.00000     -0.00000
     -0.00000     -0.06131     -0.00000
      0.00000      0.00000     -0.06234
  FORCES: max atom, RMS     0.000000    0.000000
  FORCE total and by dimension    0.000000    0.000000
  Stress total and by dimension    0.106784    0.062339


--------------------------------------------------------------------------------------------------------


    WAVPRE:  cpu time      0.0025: real time      0.0203
    FEWALD:  cpu time      0.0001: real time      0.0001
    GENKIN:  cpu time      0.0032: real time      0.0032

 real space projection operators:
  total allocation   :       2106.28 KBytes
  max/ min on nodes  :        529.31        522.84

    ORTHCH:  cpu time      0.0113: real time      0.0114
     LOOP+:  cpu time      0.5946: real time      0.6391


--------------------------------------- Iteration      6(   1)  ---------------------------------------


    POTLOK:  cpu time      0.0065: real time      0.0069
    SETDIJ:  cpu time      0.0022: real time      0.0022
     EDDAV:  cpu time      0.0592: real time      0.0595
       DOS:  cpu time      0.0007: real time      0.0008
    CHARGE:  cpu time      0.0064: real time      0.0064
    MIXING:  cpu time      0.0005: real time      0.0006
    --------------------------------------------
      LOOP:  cpu time      0.0755: real time      0.0764

 eigenvalue-minimisations  :  1378
 total energy-change (2. order) :-0.1591696E-02  (-0.1469184E-03)
 number of electron      25.9999800 magnetization 
 augmentation part        2.4362077 magnetization 

 Broyden mixing:
  rms(total) = 0.43610E-02    rms(broyden)= 0.43608E-02
  rms(prec ) = 0.89230E-02
  weight for this iteration     100.00

 Free energy of the ion-electron system (eV)
  ---------------------------------------------------
  alpha Z        PSCENC =       166.09370195
  Ewald energy   TEWEN  =     -2684.73172009
  -Hartree energ DENC   =      -463.67925732
  -exchange      EXHF   =         0.00000000
  -V(xc)+E(xc)   XCENC  =       112.32711391
  PAW double counting   =      2996.88834590    -2952.42253497
  entropy T*S    EENTRO =        -0.00165882
  eigenvalues    EBANDS =      -305.31889558
  atomic energy  EATOM  =      3110.35427263
  Solvation  Ediel_sol  =         0.00000000
  ---------------------------------------------------
  free energy    TOTEN  =       -20.49063239 eV

  energy without entropy =      -20.48897357  energy(sigma->0) =      -20.49007945


--------------------------------------------------------------------------------------------------------




--------------------------------------- Iteration      6(   2)  ---------------------------------------


    POTLOK:  cpu time      0.0071: real time      0.0073
    SETDIJ:  cpu time      0.0023: real time      0.0023
     EDDAV:  cpu time      0.0739: real time      0.0744
       DOS:  cpu time      0.0008: real time      0.0008
    CHARGE:  cpu time      0.0060: real time      0.0061
    MIXING:  cpu time      0.0006: real time      0.0006
    --------------------------------------------
      LOOP:  cpu time      0.0908: real time      0.0915

 eigenvalue-minimisations  :  1720
 total energy-change (2. order) : 0.2425653E-04  (-0.1227412E-04)
 number of electron      25.9999803 magnetization 
 augmentation part        2.4381416 magnetization 

 Broyden mixing:
  rms(total) = 0.18997E-02    rms(broyden)= 0.18996E-02
  rms(prec ) = 0.41953E-02
  weight for this iteration     100.00

 eigenvalues of (default mixing * dielectric matrix)
  average eigenvalue GAMMA=   1.3569
  1.3569

 Free energy of the ion-electron system (eV)
  ---------------------------------------------------
  alpha Z        PSCENC =       166.09370195
  Ewald energy   TEWEN  =     -2684.73172009
  -Hartree energ DENC   =      -463.54804851
  -exchange      EXHF   =         0.00000000
  -V(xc)+E(xc)   XCENC  =       112.32046554
  PAW double counting   =      2997.94455864    -2953.48683566
  entropy T*S    EENTRO =        -0.00165153
  eigenvalues    EBANDS =      -305.43535110
  atomic energy  EATOM  =      3110.35427263
  Solvation  Ediel_sol  =         0.00000000
  ---------------------------------------------------
  free energy    TOTEN  =       -20.49060813 eV

  energy without entropy =      -20.48895660  energy(sigma->0) =      -20.49005762


--------------------------------------------------------------------------------------------------------




--------------------------------------- Iteration      6(   3)  ---------------------------------------


    POTLOK:  cpu time      0.0070: real time      0.0072
    SETDIJ:  cpu time      0.0024: real time      0.0024
     EDDAV:  cpu time      0.0893: real time      0.0900
       DOS:  cpu time      0.0008: real time      0.0008
    CHARGE:  cpu time      0.0061: real time      0.0061
    MIXING:  cpu time      0.0006: real time      0.0006
    --------------------------------------------
      LOOP:  cpu time      0.1062: real time      0.1071

 eigenvalue-minimisations  :  2266
 total energy-change (2. order) : 0.1022786E-05  (-0.4750358E-05)
 number of electron      25.9999804 magnetization 
 augmentation part        2.4377243 magnetization 

 Broyden mixing:
  rms(total) = 0.10309E-02    rms(broyden)= 0.10309E-02
  rms(prec ) = 0.13443E-02
  weight for this iteration     100.00

 eigenvalues of (default mixing * dielectric matrix)
  average eigenvalue GAMMA=   1.2457
  1.2457  1.2457

 Free energy of the ion-electron system (eV)
  ---------------------------------------------------
  alpha Z        PSCENC =       166.09370195
  Ewald energy   TEWEN  =     -2684.73172009
  -Hartree energ DENC   =      -463.45248955
  -exchange      EXHF   =         0.00000000
  -V(xc)+E(xc)   XCENC  =       112.31570885
  PAW double counting   =      2998.09989092    -2953.65713898
  entropy T*S    EENTRO =        -0.00164553
  eigenvalues    EBANDS =      -305.51118730
  atomic energy  EATOM  =      3110.35427263
  Solvation  Ediel_sol  =         0.00000000
  ---------------------------------------------------
  free energy    TOTEN  =       -20.49060711 eV

  energy without entropy =      -20.48896158  energy(sigma->0) =      -20.49005860


--------------------------------------------------------------------------------------------------------




--------------------------------------- Iteration      6(   4)  ---------------------------------------


    POTLOK:  cpu time      0.0071: real time      0.0074
    SETDIJ:  cpu time      0.0022: real time      0.0022
     EDDAV:  cpu time      0.0702: real time      0.0708
       DOS:  cpu time      0.0008: real time      0.0008
    CHARGE:  cpu time      0.0065: real time      0.0065
    MIXING:  cpu time      0.0006: real time      0.0006
    --------------------------------------------
      LOOP:  cpu time      0.0875: real time      0.0883

 eigenvalue-minimisations  :  1492
 total energy-change (2. order) :-0.2491012E-05  (-0.4777394E-06)
 number of electron      25.9999803 magnetization 
 augmentation part        2.4373045 magnetization 

 Broyden mixing:
  rms(total) = 0.40921E-03    rms(broyden)= 0.40919E-03
  rms(prec ) = 0.46450E-03
  weight for this iteration     100.00

 eigenvalues of (default mixing * dielectric matrix)
  average eigenvalue GAMMA=   1.6538
  2.1685  1.3965  1.3965

 Free energy of the ion-electron system (eV)
  ---------------------------------------------------
  alpha Z        PSCENC =       166.09370195
  Ewald energy   TEWEN  =     -2684.73172009
  -Hartree energ DENC   =      -463.47879125
  -exchange      EXHF   =         0.00000000
  -V(xc)+E(xc)   XCENC  =       112.31702855
  PAW double counting   =      2997.85512149    -2953.40371579
  entropy T*S    EENTRO =        -0.00164587
  eigenvalues    EBANDS =      -305.49486122
  atomic energy  EATOM  =      3110.35427263
  Solvation  Ediel_sol  =         0.00000000
  ---------------------------------------------------
  free energy    TOTEN  =       -20.49060960 eV

  energy without entropy =      -20.48896373  energy(sigma->0) =      -20.49006098


--------------------------------------------------------------------------------------------------------




--------------------------------------- Iteration      6(   5)  ---------------------------------------


    POTLOK:  cpu time      0.0070: real time      0.0072
    SETDIJ:  cpu time      0.0025: real time      0.0025
     EDDAV:  cpu time      0.0473: real time      0.0477
       DOS:  cpu time      0.0008: real time      0.0008
    CHARGE:  cpu time      0.0061: real time      0.0061
    MIXING:  cpu time      0.0006: real time      0.0006
    --------------------------------------------
      LOOP:  cpu time      0.0644: real time      0.0649

 eigenvalue-minimisations  :   918
 total energy-change (2. order) :-0.4285526E-05  (-0.1506735E-06)
 number of electron      25.9999804 magnetization 
 augmentation part        2.4371848 magnetization 

 Broyden mixing:
  rms(total) = 0.29300E-03    rms(broyden)= 0.29298E-03
  rms(prec ) = 0.41028E-03
  weight for this iteration     100.00

 eigenvalues of (default mixing * dielectric matrix)
  average eigenvalue GAMMA=   1.7843
  3.0625  1.8240  1.1254  1.1254

 Free energy of the ion-electron system (eV)
  ---------------------------------------------------
  alpha Z        PSCENC =       166.09370195
  Ewald energy   TEWEN  =     -2684.73172009
  -Hartree energ DENC   =      -463.48029182
  -exchange      EXHF   =         0.00000000
  -V(xc)+E(xc)   XCENC  =       112.31706504
  PAW double counting   =      2997.75265149    -2953.28916213
  entropy T*S    EENTRO =        -0.00164421
  eigenvalues    EBANDS =      -305.50548675
  atomic energy  EATOM  =      3110.35427263
  Solvation  Ediel_sol  =         0.00000000
  ---------------------------------------------------
  free energy    TOTEN  =       -20.49061389 eV

  energy without entropy =      -20.48896968  energy(sigma->0) =      -20.49006582


--------------------------------------------------------------------------------------------------------




--------------------------------------- Iteration      6(   6)  ---------------------------------------


    POTLOK:  cpu time      0.0070: real time      0.0072
    SETDIJ:  cpu time      0.0023: real time      0.0023
     EDDAV:  cpu time      0.0385: real time      0.0389
       DOS:  cpu time      0.0012: real time      0.0012
    CHARGE:  cpu time      0.0065: real time      0.0065
    MIXING:  cpu time      0.0007: real time      0.0007
    --------------------------------------------
      LOOP:  cpu time      0.0561: real time      0.0568

 eigenvalue-minimisations  :   678
 total energy-change (2. order) :-0.1478905E-05  (-0.5827268E-07)
 number of electron      25.9999804 magnetization 
 augmentation part        2.4370643 magnetization 

 Broyden mixing:
  rms(total) = 0.16021E-03    rms(broyden)= 0.16020E-03
  rms(prec ) = 0.19914E-03
  weight for this iteration     100.00

 eigenvalues of (default mixing * dielectric matrix)
  average eigenvalue GAMMA=   1.4262
  2.2250  1.7340  1.3101  0.9309  0.9309

 Free energy of the ion-electron system (eV)
  ---------------------------------------------------
  alpha Z        PSCENC =       166.09370195
  Ewald energy   TEWEN  =     -2684.73172009
  -Hartree energ DENC   =      -463.49374745
  -exchange      EXHF   =         0.00000000
  -V(xc)+E(xc)   XCENC  =       112.31771736
  PAW double counting   =      2997.60896891    -2953.13680168
  entropy T*S    EENTRO =        -0.00164403
  eigenvalues    EBANDS =      -305.50136296
  atomic energy  EATOM  =      3110.35427263
  Solvation  Ediel_sol  =         0.00000000
  ---------------------------------------------------
  free energy    TOTEN  =       -20.49061537 eV

  energy without entropy =      -20.48897134  energy(sigma->0) =      -20.49006736


--------------------------------------------------------------------------------------------------------




--------------------------------------- Iteration      6(   7)  ---------------------------------------


    POTLOK:  cpu time      0.0071: real time      0.0073
    SETDIJ:  cpu time      0.0024: real time      0.0024
     EDDAV:  cpu time      0.0385: real time      0.0388
       DOS:  cpu time      0.0008: real time      0.0008
    --------------------------------------------
      LOOP:  cpu time      0.0487: real time      0.0492

 eigenvalue-minimisations  :   678
 total energy-change (2. order) : 0.5476518E-06  (-0.2248210E-07)
 number of electron      25.9999804 magnetization 
 augmentation part        2.4370643 magnetization 

 Free energy of the ion-electron system (eV)
  ---------------------------------------------------
  alpha Z        PSCENC =       166.09370195
  Ewald energy   TEWEN  =     -2684.73172009
  -Hartree energ DENC   =      -463.48887714
  -exchange      EXHF   =         0.00000000
  -V(xc)+E(xc)   XCENC  =       112.31748218
  PAW double counting   =      2997.67234619    -2953.20354228
  entropy T*S    EENTRO =        -0.00164414
  eigenvalues    EBANDS =      -305.50263412
  atomic energy  EATOM  =      3110.35427263
  Solvation  Ediel_sol  =         0.00000000
  ---------------------------------------------------
  free energy    TOTEN  =       -20.49061482 eV

  energy without entropy =      -20.48897068  energy(sigma->0) =      -20.49006677


--------------------------------------------------------------------------------------------------------




 average (electrostatic) potential at core
  the test charge radii are     1.0703
  (the norm of the test charge is              1.0000)
       1 -76.7288       2 -76.7288
 
 
 
 E-fermi :  11.1818     XC(G=0): -12.5194     alpha+bet :-19.3264

 Fermi energy:        11.1817728066

 k-point     1 :       0.0500    0.0500    0.0500
  band No.  band energies     occupation 
      1     -43.1367      2.00000
      2     -42.7294      2.00000
      3     -19.4059      2.00000
      4     -19.3810      2.00000
      5     -19.2987      2.00000
      6     -18.5196      2.00000
      7     -18.4797      2.00000
      8     -18.3797      2.00000
      9       5.4418      2.00000
     10       7.5685      2.00000
     11       7.6224      2.00000
     12      11.5037     -0.00005
     13      11.5321     -0.00001
     14      11.7700     -0.00000
     15      14.3236      0.00000
     16      14.5469      0.00000
     17      15.9546      0.00000
     18      16.6228      0.00000

 k-point     2 :       0.1500    0.0500    0.0500
  band No.  band energies     occupation 
      1     -43.1137      2.00000
      2     -42.7460      2.00000
      3     -19.4296      2.00000
      4     -19.3328      2.00000
      5     -19.2367      2.00000
      6     -18.6370      2.00000
      7     -18.5102      2.00000
      8     -18.4128      2.00000
      9       5.8426      2.00000
     10       7.8201      2.00000
     11       7.9336      2.00000
     12      11.3634     -0.02764
     13      11.4638     -0.00049
     14      12.0630     -0.00000
     15      13.9396      0.00000
     16      14.6256      0.00000
     17      14.8127      0.00000
     18      15.5275      0.00000

 k-point     3 :       0.2500    0.0500    0.0500
  band No.  band energies     occupation 
      1     -43.0707      2.00000
      2     -42.7786      2.00000
      3     -19.4387      2.00000
      4     -19.2441      2.00000
      5     -19.1385      2.00000
      6     -18.8143      2.00000
      7     -18.5882      2.00000
      8     -18.4864      2.00000
      9       6.5738      2.00000
     10       8.2512      2.00000
     11       8.4911      2.00000
     12      11.3025     -0.07082
     13      11.3805     -0.01667
     14      12.4904     -0.00000
     15      13.0831     -0.00000
     16      13.6834     -0.00000
     17      14.3224      0.00000
     18      15.0210      0.00000

 k-point     4 :       0.3500    0.0500    0.0500
  band No.  band energies     occupation 
      1     -43.0134      2.00000
      2     -42.8256      2.00000
      3     -19.4118      2.00000
      4     -19.1232      2.00000
      5     -19.0138      2.00000
      6     -19.0137      2.00000
      7     -18.7010      2.00000
      8     -18.5954      2.00000
      9       7.4941      2.00000
     10       8.8677      2.00000
     11       8.9773      2.00000
     12      11.2109      0.52927
     13      11.4007     -0.00828
     14      12.2636     -0.00000
     15      12.7749     -0.00000
     16      13.0586     -0.00000
     17      13.3074     -0.00000
     18      15.3184      0.00000

 k-point     5 :       0.4500    0.0500    0.0500
  band No.  band energies     occupation 
      1     -42.9487      2.00000
      2     -42.8839      2.00000
      3     -19.3325      2.00000
      4     -19.1959      2.00000
      5     -18.9826      2.00000
      6     -18.8729      2.00000
      7     -18.8370      2.00000
      8     -18.7287      2.00000
      9       8.3876      2.00000
     10       8.9624      2.00000
     11       9.6772      2.00000
     12      10.5575      2.00000
     13      11.6847     -0.00000
     14      12.1285     -0.00000
     15      12.1375     -0.00000
     16      12.5572     -0.00000
     17      13.7515     -0.00000
     18      14.5220      0.00000

 k-point     6 :       0.1500    0.1500    0.0500
  band No.  band energies     occupation 
      1     -43.0925      2.00000
      2     -42.7606      2.00000
      3     -19.4877      2.00000
      4     -19.2779      2.00000
      5     -19.1572      2.00000
      6     -18.7881      2.00000
      7     -18.4837      2.00000
      8     -18.4524      2.00000
      9       6.2071      2.00000
     10       8.0836      2.00000
     11       8.2097      2.00000
     12      11.0334      2.05672
     13      11.3159     -0.06736
     14      12.5749     -0.00000
     15      13.6840     -0.00000
     16      14.1026      0.00000
     17      14.4072      0.00000
     18      14.8669      0.00000

 k-point     7 :       0.2500    0.1500    0.0500
  band No.  band energies     occupation 
      1     -43.0530      2.00000
      2     -42.7893      2.00000
      3     -19.5314      2.00000
      4     -19.1877      2.00000
      5     -19.0461      2.00000
      6     -18.9835      2.00000
      7     -18.5377      2.00000
      8     -18.5013      2.00000
      9       6.8533      2.00000
     10       8.4362      2.00000
     11       8.7784      2.00000
     12      10.8009      2.00000
     13      11.1433      1.60041
     14      12.6584     -0.00000
     15      13.1997     -0.00000
     16      13.6050     -0.00000
     17      13.8819     -0.00000
     18      14.8033      0.00000

 k-point     8 :       0.3500    0.1500    0.0500
  band No.  band energies     occupation 
      1     -43.0005      2.00000
      2     -42.8310      2.00000
      3     -19.5337      2.00000
      4     -19.1851      2.00000
      5     -19.0669      2.00000
      6     -18.9213      2.00000
      7     -18.6487      2.00000
      8     -18.5707      2.00000
      9       7.6272      2.00000
     10       8.8141      2.00000
     11       9.3349      2.00000
     12      10.7178      2.00000
     13      10.9837      2.01703
     14      11.9043     -0.00000
     15      13.0537     -0.00000
     16      13.1780     -0.00000
     17      13.9232      0.00000
     18      15.3183      0.00000

 k-point     9 :       0.4500    0.1500    0.0500
  band No.  band energies     occupation 
      1     -42.9416      2.00000
      2     -42.8831      2.00000
      3     -19.4777      2.00000
      4     -19.3582      2.00000
      5     -18.9273      2.00000
      6     -18.7929      2.00000
      7     -18.7831      2.00000
      8     -18.6719      2.00000
      9       8.3425      2.00000
     10       8.8196      2.00000
     11       9.8701      2.00000
     12      10.4383      2.00000
     13      11.0404      2.06252
     14      11.3924     -0.01117
     15      12.8549     -0.00000
     16      12.9132     -0.00000
     17      14.6719      0.00000
     18      15.3564      0.00000

 k-point    10 :       0.2500    0.2500    0.0500
  band No.  band energies     occupation 
      1     -43.0201      2.00000
      2     -42.8106      2.00000
      3     -19.6175      2.00000
      4     -19.1906      2.00000
      5     -19.1079      2.00000
      6     -18.9217      2.00000
      7     -18.5840      2.00000
      8     -18.4903      2.00000
      9       7.2933      2.00000
     10       8.5525      2.00000
     11       9.4263      2.00000
     12      10.3907      2.00000
     13      11.0443      2.06532
     14      11.7429     -0.00000
     15      13.2487     -0.00000
     16      13.9996      0.00000
     17      14.1574      0.00000
     18      14.5954      0.00000

 k-point    11 :       0.3500    0.2500    0.0500
  band No.  band energies     occupation 
      1     -42.9769      2.00000
      2     -42.8422      2.00000
      3     -19.6599      2.00000
      4     -19.3892      2.00000
      5     -19.0055      2.00000
      6     -18.7952      2.00000
      7     -18.6684      2.00000
      8     -18.5162      2.00000
      9       7.7218      2.00000
     10       8.5370      2.00000
     11      10.1307      2.00000
     12      10.1870      2.00000
     13      11.0684      2.06802
     14      11.1498      1.51100
     15      13.0773     -0.00000
     16      13.9111     -0.00000
     17      14.9325      0.00000
     18      15.0558      0.00000

 k-point    12 :       0.4500    0.2500    0.0500
  band No.  band energies     occupation 
      1     -42.9292      2.00000
      2     -42.8828      2.00000
      3     -19.6386      2.00000
      4     -19.5459      2.00000
      5     -18.8900      2.00000
      6     -18.7737      2.00000
      7     -18.6787      2.00000
      8     -18.5822      2.00000
      9       8.0666      2.00000
     10       8.3506      2.00000
     11      10.2123      2.00000
     12      10.4102      2.00000
     13      10.8822      2.00019
     14      11.1535      1.45829
     15      13.4144     -0.00000
     16      13.7271     -0.00000
     17      15.4864      0.00000
     18      15.9715      0.00000

 k-point    13 :       0.3500    0.3500    0.0500
  band No.  band energies     occupation 
      1     -42.9468      2.00000
      2     -42.8602      2.00000
      3     -19.7443      2.00000
      4     -19.5728      2.00000
      5     -18.9328      2.00000
      6     -18.7157      2.00000
      7     -18.6780      2.00000
      8     -18.4970      2.00000
      9       7.7196      2.00000
     10       8.1942      2.00000
     11       9.8432      2.00000
     12      10.3836      2.00000
     13      11.0916      2.02338
     14      11.7798     -0.00000
     15      13.3584     -0.00000
     16      14.4758      0.00000
     17      14.8996      0.00000
     18      15.9385      0.00000

 k-point    14 :       0.4500    0.3500    0.0500
  band No.  band energies     occupation 
      1     -42.9146      2.00000
      2     -42.8847      2.00000
      3     -19.7624      2.00000
      4     -19.7037      2.00000
      5     -18.8546      2.00000
      6     -18.7797      2.00000
      7     -18.5839      2.00000
      8     -18.5212      2.00000
      9       7.7491      2.00000
     10       7.9063      2.00000
     11       9.7554      2.00000
     12       9.9398      2.00000
     13      11.8797     -0.00000
     14      12.1946     -0.00000
     15      13.9533      0.00000
     16      14.4189      0.00000
     17      15.3564      0.00000
     18      16.3077      0.00000

 k-point    15 :       0.4500    0.4500    0.0500
  band No.  band energies     occupation 
      1     -42.9009      2.00000
      2     -42.8906      2.00000
      3     -19.8212      2.00000
      4     -19.8011      2.00000
      5     -18.8219      2.00000
      6     -18.7960      2.00000
      7     -18.5230      2.00000
      8     -18.5013      2.00000
      9       7.5823      2.00000
     10       7.6338      2.00000
     11       9.5387      2.00000
     12       9.6022      2.00000
     13      12.9340     -0.00000
     14      13.1576     -0.00000
     15      14.4451      0.00000
     16      14.6801      0.00000
     17      15.1792      0.00000
     18      15.7187      0.00000

 k-point    16 :       0.1500    0.1500    0.1500
  band No.  band energies     occupation 
      1     -43.0733      2.00000
      2     -42.7737      2.00000
      3     -19.4379      2.00000
      4     -19.3838      2.00000
      5     -19.0320      2.00000
      6     -18.8922      2.00000
      7     -18.5317      2.00000
      8     -18.4478      2.00000
      9       6.5515      2.00000
     10       8.3778      2.00000
     11       8.4294      2.00000
     12      10.8992      2.00048
     13      10.9352      2.00269
     14      12.5493     -0.00000
     15      13.1822     -0.00000
     16      14.1779      0.00000
     17      14.3540      0.00000
     18      15.6797      0.00000

 k-point    17 :       0.2500    0.1500    0.1500
  band No.  band energies     occupation 
      1     -43.0370      2.00000
      2     -42.7989      2.00000
      3     -19.5078      2.00000
      4     -19.2976      2.00000
      5     -19.0775      2.00000
      6     -18.9101      2.00000
      7     -18.5848      2.00000
      8     -18.4823      2.00000
      9       7.1601      2.00000
     10       8.7392      2.00000
     11       8.9467      2.00000
     12      10.6492      2.00000
     13      10.7030      2.00000
     14      11.6118     -0.00000
     15      13.8684     -0.00000
     16      13.9345      0.00000
     17      14.5957      0.00000
     18      14.7014      0.00000

 k-point    18 :       0.3500    0.1500    0.1500
  band No.  band energies     occupation 
      1     -42.9889      2.00000
      2     -42.8358      2.00000
      3     -19.5416      2.00000
      4     -19.2645      2.00000
      5     -19.1667      2.00000
      6     -18.7919      2.00000
      7     -18.7039      2.00000
      8     -18.5243      2.00000
      9       7.8478      2.00000
     10       9.1747      2.00000
     11       9.2444      2.00000
     12      10.4326      2.00000
     13      10.7027      2.00000
     14      11.1898      0.86534
     15      13.4033     -0.00000
     16      13.7323     -0.00000
     17      14.7305      0.00000
     18      15.2379      0.00000

 k-point    19 :       0.4500    0.1500    0.1500
  band No.  band energies     occupation 
      1     -42.9353      2.00000
      2     -42.8825      2.00000
      3     -19.5137      2.00000
      4     -19.4181      2.00000
      5     -19.0131      2.00000
      6     -18.8531      2.00000
      7     -18.6838      2.00000
      8     -18.5925      2.00000
      9       8.4543      2.00000
     10       8.9555      2.00000
     11       9.6710      2.00000
     12      10.1045      2.00000
     13      11.0000      2.02755
     14      11.2004      0.69063
     15      13.1213     -0.00000
     16      13.2188     -0.00000
     17      15.1839      0.00000
     18      15.3493      0.00000

 k-point    20 :       0.2500    0.2500    0.1500
  band No.  band energies     occupation 
      1     -43.0067      2.00000
      2     -42.8175      2.00000
      3     -19.5623      2.00000
      4     -19.2564      2.00000
      5     -19.2483      2.00000
      6     -18.7968      2.00000
      7     -18.5767      2.00000
      8     -18.5450      2.00000
      9       7.6534      2.00000
     10       8.9547      2.00000
     11       9.4970      2.00000
     12      10.2652      2.00000
     13      10.5605      2.00000
     14      10.7859      2.00000
     15      14.2355      0.00000
     16      14.2532      0.00000
     17      14.5806      0.00000
     18      14.8606      0.00000

 k-point    21 :       0.3500    0.2500    0.1500
  band No.  band energies     occupation 
      1     -42.9670      2.00000
      2     -42.8454      2.00000
      3     -19.6139      2.00000
      4     -19.4158      2.00000
      5     -19.1410      2.00000
      6     -18.6990      2.00000
      7     -18.6930      2.00000
      8     -18.5462      2.00000
      9       8.0854      2.00000
     10       8.9091      2.00000
     11       9.9186      2.00000
     12      10.0654      2.00000
     13      10.6538      2.00000
     14      10.6772      2.00000
     15      13.7927     -0.00000
     16      14.0485      0.00000
     17      15.0233      0.00000
     18      15.8232      0.00000

 k-point    22 :       0.4500    0.2500    0.1500
  band No.  band energies     occupation 
      1     -42.9236      2.00000
      2     -42.8816      2.00000
      3     -19.6130      2.00000
      4     -19.5449      2.00000
      5     -18.9941      2.00000
      6     -18.8386      2.00000
      7     -18.6227      2.00000
      8     -18.5711      2.00000
      9       8.3742      2.00000
     10       8.6496      2.00000
     11       9.9439      2.00000
     12       9.9811      2.00000
     13      10.9731      2.01197
     14      11.0051      2.03147
     15      13.7157     -0.00000
     16      13.8239     -0.00000
     17      15.3460      0.00000
     18      15.5689      0.00000

 k-point    23 :       0.3500    0.3500    0.1500
  band No.  band energies     occupation 
      1     -42.9392      2.00000
      2     -42.8610      2.00000
      3     -19.6839      2.00000
      4     -19.5617      2.00000
      5     -19.0551      2.00000
      6     -18.7352      2.00000
      7     -18.6289      2.00000
      8     -18.5584      2.00000
      9       8.1321      2.00000
     10       8.5286      2.00000
     11       9.7786      2.00000
     12      10.0866      2.00000
     13      10.9864      2.01851
     14      11.2009      0.68267
     15      13.8781     -0.00000
     16      14.5384      0.00000
     17      14.9439      0.00000
     18      16.0352      0.00000

 k-point    24 :       0.4500    0.3500    0.1500
  band No.  band energies     occupation 
      1     -42.9098      2.00000
      2     -42.8828      2.00000
      3     -19.7076      2.00000
      4     -19.6659      2.00000
      5     -18.9419      2.00000
      6     -18.8272      2.00000
      7     -18.5854      2.00000
      8     -18.5651      2.00000
      9       8.1308      2.00000
     10       8.2481      2.00000
     11       9.6980      2.00000
     12       9.8232      2.00000
     13      11.6507     -0.00000
     14      11.7308     -0.00000
     15      14.2065      0.00000
     16      14.4769      0.00000
     17      15.2627      0.00000
     18      15.6901      0.00000

 k-point    25 :       0.4500    0.4500    0.1500
  band No.  band energies     occupation 
      1     -42.8971      2.00000
      2     -42.8878      2.00000
      3     -19.7578      2.00000
      4     -19.7436      2.00000
      5     -18.8819      2.00000
      6     -18.8390      2.00000
      7     -18.5705      2.00000
      8     -18.5668      2.00000
      9       7.9787      2.00000
     10       8.0116      2.00000
     11       9.5204      2.00000
     12       9.5747      2.00000
     13      12.4614     -0.00000
     14      12.5198     -0.00000
     15      14.6145      0.00000
     16      14.7654      0.00000
     17      15.2071      0.00000
     18      15.4564      0.00000

 k-point    26 :       0.2500    0.2500    0.2500
  band No.  band energies     occupation 
      1     -42.9819      2.00000
      2     -42.8316      2.00000
      3     -19.4571      2.00000
      4     -19.3949      2.00000
      5     -19.3437      2.00000
      6     -18.6930      2.00000
      7     -18.6493      2.00000
      8     -18.5652      2.00000
      9       8.2342      2.00000
     10       9.6117      2.00000
     11       9.6442      2.00000
     12       9.9519      2.00000
     13      10.0910      2.00000
     14      10.1212      2.00000
     15      14.4983      0.00000
     16      14.6126      0.00000
     17      14.9949      0.00000
     18      15.0902      0.00000

 k-point    27 :       0.3500    0.2500    0.2500
  band No.  band energies     occupation 
      1     -42.9491      2.00000
      2     -42.8525      2.00000
      3     -19.5428      2.00000
      4     -19.4654      2.00000
      5     -19.2605      2.00000
      6     -18.7441      2.00000
      7     -18.6272      2.00000
      8     -18.5884      2.00000
      9       8.6390      2.00000
     10       9.2612      2.00000
     11       9.7429      2.00000
     12       9.9523      2.00000
     13      10.1766      2.00000
     14      10.4742      2.00000
     15      14.3954      0.00000
     16      14.4076      0.00000
     17      14.9950      0.00000
     18      15.3607      0.00000

 k-point    28 :       0.4500    0.2500    0.2500
  band No.  band energies     occupation 
      1     -42.9138      2.00000
      2     -42.8804      2.00000
      3     -19.5809      2.00000
      4     -19.5525      2.00000
      5     -19.0894      2.00000
      6     -18.9101      2.00000
      7     -18.5911      2.00000
      8     -18.5811      2.00000
      9       8.7209      2.00000
     10       8.8759      2.00000
     11       9.8108      2.00000
     12       9.8618      2.00000
     13      10.7070      2.00000
     14      10.9232      2.00157
     15      14.1614      0.00000
     16      14.2071      0.00000
     17      15.2973      0.00000
     18      15.3640      0.00000

 k-point    29 :       0.3500    0.3500    0.2500
  band No.  band energies     occupation 
      1     -42.9257      2.00000
      2     -42.8636      2.00000
      3     -19.5688      2.00000
      4     -19.5457      2.00000
      5     -19.2055      2.00000
      6     -18.7543      2.00000
      7     -18.6751      2.00000
      8     -18.6062      2.00000
      9       8.8778      2.00000
     10       8.9368      2.00000
     11       9.7133      2.00000
     12       9.9753      2.00000
     13      10.4553      2.00000
     14      10.7628      2.00000
     15      14.5305      0.00000
     16      14.7645      0.00000
     17      14.9880      0.00000
     18      15.3741      0.00000

 k-point    30 :       0.4500    0.3500    0.2500
  band No.  band energies     occupation 
      1     -42.9016      2.00000
      2     -42.8802      2.00000
      3     -19.6067      2.00000
      4     -19.6001      2.00000
      5     -19.0629      2.00000
      6     -18.8982      2.00000
      7     -18.6486      2.00000
      8     -18.6167      2.00000
      9       8.7411      2.00000
     10       8.7623      2.00000
     11       9.6929      2.00000
     12       9.8241      2.00000
     13      11.0608      2.07085
     14      11.2167      0.44686
     15      14.6024      0.00000
     16      14.7081      0.00000
     17      15.2441      0.00000
     18      15.3608      0.00000

 k-point    31 :       0.4500    0.4500    0.2500
  band No.  band energies     occupation 
      1     -42.8908      2.00000
      2     -42.8834      2.00000
      3     -19.6367      2.00000
      4     -19.6358      2.00000
      5     -18.9802      2.00000
      6     -18.9050      2.00000
      7     -18.6911      2.00000
      8     -18.6630      2.00000
      9       8.6475      2.00000
     10       8.6803      2.00000
     11       9.5355      2.00000
     12       9.6143      2.00000
     13      11.6773     -0.00000
     14      11.7375     -0.00000
     15      14.8882      0.00000
     16      14.9604      0.00000
     17      15.2495      0.00000
     18      15.3251      0.00000

 k-point    32 :       0.3500    0.3500    0.3500
  band No.  band energies     occupation 
      1     -42.9092      2.00000
      2     -42.8693      2.00000
      3     -19.5284      2.00000
      4     -19.4098      2.00000
      5     -19.3413      2.00000
      6     -18.8357      2.00000
      7     -18.7494      2.00000
      8     -18.6216      2.00000
      9       9.0110      2.00000
     10       9.7230      2.00000
     11       9.7234      2.00000
     12       9.8559      2.00000
     13      10.4227      2.00000
     14      10.4449      2.00000
     15      14.9924      0.00000
     16      15.0178      0.00000
     17      15.0395      0.00000
     18      15.0527      0.00000

 k-point    33 :       0.4500    0.3500    0.3500
  band No.  band energies     occupation 
      1     -42.8924      2.00000
      2     -42.8786      2.00000
      3     -19.5243      2.00000
      4     -19.4847      2.00000
      5     -19.1659      2.00000
      6     -18.9706      2.00000
      7     -18.7466      2.00000
      8     -18.6800      2.00000
      9       9.0423      2.00000
     10       9.2802      2.00000
     11       9.8416      2.00000
     12      10.0920      2.00000
     13      10.6012      2.00000
     14      10.8358      2.00001
     15      14.9502      0.00000
     16      14.9867      0.00000
     17      15.2597      0.00000
     18      15.2724      0.00000

 k-point    34 :       0.4500    0.4500    0.3500
  band No.  band energies     occupation 
      1     -42.8841      2.00000
      2     -42.8794      2.00000
      3     -19.4927      2.00000
      4     -19.4693      2.00000
      5     -19.0904      2.00000
      6     -18.9613      2.00000
      7     -18.8619      2.00000
      8     -18.7869      2.00000
      9       9.2312      2.00000
     10       9.4742      2.00000
     11       9.6524      2.00000
     12       9.9074      2.00000
     13      10.9080      2.00075
     14      10.9993      2.02696
     15      15.1626      0.00000
     16      15.1870      0.00000
     17      15.2872      0.00000
     18      15.2980      0.00000

 k-point    35 :       0.4500    0.4500    0.4500
  band No.  band energies     occupation 
      1     -42.8792      2.00000
      2     -42.8776      2.00000
      3     -19.3390      2.00000
      4     -19.2714      2.00000
      5     -19.2043      2.00000
      6     -19.0620      2.00000
      7     -18.9711      2.00000
      8     -18.9070      2.00000
      9       9.6096      2.00000
     10       9.8935      2.00000
     11       9.9246      2.00000
     12      10.3266      2.00000
     13      10.3770      2.00000
     14      10.4512      2.00000
     15      15.3051      0.00000
     16      15.3065      0.00000
     17      15.3314      0.00000
     18      15.3366      0.00000


--------------------------------------------------------------------------------------------------------


 soft charge-density along one line, spin component           1
         0         1         2         3         4         5         6         7         8         9
 total charge-density along one line
 
 pseudopotential strength for first ion, spin component:           1
  5.490 -19.447   0.000   0.000  -0.000  -0.000  -0.000   0.000
-19.447   8.440   0.000   0.000  -0.000  -0.000  -0.000   0.000
  0.000   0.000  -9.367  -0.000   0.000   5.456   0.000  -0.000
  0.000   0.000  -0.000  -9.335  -0.000   0.000   5.420   0.000
 -0.000  -0.000   0.000  -0.000  -9.367  -0.000   0.000   5.456
 -0.000  -0.000   5.456   0.000  -0.000   8.311  -0.000   0.000
 -0.000  -0.000   0.000   5.420   0.000  -0.000   8.331  -0.000
  0.000   0.000  -0.000   0.000   5.456   0.000  -0.000   8.311
  0.000   0.000  -0.000   0.000   0.000   0.000  -0.000  -0.000
 -0.000  -0.000   0.000   0.000   0.000  -0.000  -0.000  -0.000
  0.012   0.006  -0.000   0.000   0.000   0.000  -0.000  -0.000
 -0.000  -0.000   0.000   0.000   0.000  -0.000  -0.000  -0.000
  0.000   0.000  -0.000   0.000  -0.000   0.000  -0.000   0.000
  0.000   0.000   0.000   0.000   0.000   0.000  -0.000  -0.000
 -0.000  -0.000   0.000   0.000   0.000  -0.000  -0.000  -0.000
  0.016   0.008  -0.000   0.000   0.000   0.000  -0.000  -0.000
 -0.000  -0.000   0.000   0.000   0.000  -0.000  -0.000  -0.000
  0.000   0.000  -0.000   0.000  -0.000   0.000  -0.000   0.000
 total augmentation occupancy for first ion, spin component:           1
  1.997  -0.037   0.000   0.000   0.000   0.000   0.000   0.000  -0.000   0.000  -0.000   0.000  -0.000  -0.000  -0.000   0.000
 -0.037   1.465   0.000   0.000  -0.000   0.000   0.000   0.000   0.000  -0.000  -0.000  -0.000  -0.000  -0.000   0.000   0.000
  0.000   0.000   1.986   0.000  -0.000  -0.029  -0.000   0.000   0.000  -0.000   0.000   0.000  -0.000   0.000  -0.000  -0.000
  0.000   0.000   0.000   2.021   0.000  -0.000  -0.029  -0.000   0.000   0.000  -0.000   0.000   0.000   0.000   0.000   0.000
  0.000   0.000  -0.000   0.000   1.986   0.000  -0.000  -0.029   0.000   0.000   0.000   0.000  -0.000   0.000   0.000  -0.000
  0.000   0.000  -0.029  -0.000   0.000   0.063   0.000  -0.000   0.000   0.000   0.000   0.000   0.000   0.000   0.000   0.000
  0.000   0.000  -0.000  -0.029  -0.000   0.000   0.064   0.000   0.000   0.000   0.000   0.000   0.000   0.000   0.000   0.000
  0.000   0.000   0.000  -0.000  -0.029  -0.000   0.000   0.063   0.000   0.000   0.000   0.000   0.000   0.000   0.000  -0.000
 -0.000   0.000   0.000   0.000   0.000   0.000   0.000   0.000   2.495   0.000   0.000   0.000  -0.000  -0.916  -0.000  -0.000
  0.000  -0.000   0.000   0.000   0.000   0.000   0.000   0.000   0.000   2.538   0.000  -0.000  -0.000  -0.000  -0.932  -0.000
 -0.000  -0.000  -0.000   0.000  -0.000   0.000   0.000   0.000   0.000   0.000   2.156   0.000   0.000  -0.000  -0.000  -0.855
  0.000   0.000   0.000   0.000   0.000   0.000   0.000   0.000   0.000  -0.000   0.000   2.538   0.000  -0.000   0.000  -0.000
 -0.000  -0.000   0.000   0.000   0.000  -0.000  -0.000  -0.000  -0.000  -0.000   0.000   0.000   2.108   0.000   0.000  -0.000
 -0.000  -0.000   0.000   0.000   0.000   0.000   0.000   0.000  -0.916  -0.000  -0.000  -0.000   0.000   0.350   0.000   0.000
 -0.000   0.000  -0.000   0.000   0.000   0.000   0.000   0.000  -0.000  -0.932  -0.000   0.000   0.000   0.000   0.356   0.000
  0.000   0.000  -0.000   0.000  -0.000   0.000  -0.000  -0.000  -0.000  -0.000  -0.855  -0.000  -0.000   0.000   0.000   0.349
 -0.000   0.000   0.000   0.000   0.000   0.000   0.000   0.000  -0.000   0.000  -0.000  -0.932  -0.000   0.000  -0.000   0.000
  0.000   0.000   0.000   0.000  -0.000  -0.000   0.000   0.000   0.000   0.000   0.000  -0.000  -0.836  -0.000  -0.000   0.000


------------------------ aborting loop because EDIFF is reached ----------------------------------------


    CHARGE:  cpu time      0.0061: real time      0.0062
    FORLOC:  cpu time      0.0002: real time      0.0002
    FORNL :  cpu time      0.0260: real time      0.0260
    STRESS:  cpu time      0.0804: real time      0.0808
    FORCOR:  cpu time      0.0065: real time      0.0065
    FORHAR:  cpu time      0.0015: real time      0.0015
    MIXING:  cpu time      0.0023: real time      0.0023
    OFIELD:  cpu time      0.0000: real time      0.0000

  FORCE on cell =-STRESS in cart. coord.  units (eV):
  Direction    XX          YY          ZZ          XY          YZ          ZX
  --------------------------------------------------------------------------------------
  Alpha Z   166.09370   166.09370   166.09370
  Ewald    -894.51996  -894.51996  -895.69161    -0.00000     0.00000     0.00000
  Hartree   153.79883   153.79883   155.89361    -0.00000    -0.00000    -0.00000
  E(xc)    -118.59611  -118.59611  -118.54592    -0.00000     0.00000     0.00000
  Local     176.26586   176.26586   168.29001     0.00000     0.00000    -0.00000
  n-local    -4.93710   -27.73629   -41.11276     1.49031    -0.49161    -0.32423
  augment    36.34458    36.34458    37.06285     0.00000    -0.00000     0.00000
  Kinetic   471.67081   506.83071   543.51407     2.42898    -2.66472     1.34850
  Fock        0.00000     0.00000     0.00000     0.00000     0.00000     0.00000
  -------------------------------------------------------------------------------------
  Total      -0.05237    -0.05237    -0.05327     0.00000     0.00000     0.00000
  in kB      -2.33747    -2.33747    -2.37781     0.00000     0.00000     0.00000
  external pressure =       -2.35 kB  Pullay stress =        0.00 kB


 VOLUME and BASIS-vectors are now :
 -----------------------------------------------------------------------------
  energy-cutoff  :      430.00
  volume of cell :       35.90
      direct lattice vectors                 reciprocal lattice vectors
     3.289370113  0.000000000  0.000000000     0.304009572  0.000000000  0.000000000
    -0.000000000  3.289370113  0.000000000    -0.000000000  0.304009572  0.000000000
     0.000000000  0.000000000  3.317632379    -0.000000000 -0.000000000  0.301419773

  length of vectors
     3.289370113  3.289370113  3.317632379     0.304009572  0.304009572  0.301419773


 FORCES acting on ions
    electron-ion (+dipol)            ewald-force                    non-local-force                 convergence-correction
 -----------------------------------------------------------------------------------------------
   -.445E-14 -.528E-14 -.184E-13   0.972E-14 0.638E-14 -.416E-14   -.616E-24 -.607E-24 -.596E-24   0.431E-14 0.236E-13 -.115E-13
   0.187E-12 0.390E-12 -.298E-11   -.922E-14 -.516E-14 0.383E-14   -.449E-24 -.464E-24 -.100E-23   0.140E-13 0.319E-13 -.165E-13
 -----------------------------------------------------------------------------------------------
   0.182E-12 0.385E-12 -.299E-11   0.506E-15 0.121E-14 -.336E-15   -.107E-23 -.107E-23 -.160E-23   0.183E-13 0.555E-13 -.280E-13
 
 
 POSITION                                       TOTAL-FORCE (eV/Angst)
 -----------------------------------------------------------------------------------
     -0.00000     -0.00000     -0.00000         0.000000      0.000000      0.000000
      1.64469      1.64469      1.65882        -0.000000     -0.000000     -0.000000
 -----------------------------------------------------------------------------------
    total drift:                                0.000000      0.000000     -0.000000


--------------------------------------------------------------------------------------------------------



  FREE ENERGIE OF THE ION-ELECTRON SYSTEM (eV)
  ---------------------------------------------------
  free  energy   TOTEN  =       -20.49061482 eV

  energy  without entropy=      -20.48897068  energy(sigma->0) =      -20.49006677
 
 d Force = 0.0000000E+00[ 0.000E+00, 0.000E+00]  d Energy = 0.1573745E-02-0.157E-02
 d Force = 0.0000000E+00[ 0.000E+00, 0.000E+00]  d Ewald  = 0.3470948E+00-0.347E+00


--------------------------------------------------------------------------------------------------------


    POTLOK:  cpu time      0.0088: real time      0.0088


--------------------------------------------------------------------------------------------------------


 stress matrix after NEB project (eV)
     -0.05237      0.00000      0.00000
      0.00000     -0.05237     -0.00000
      0.00000      0.00000     -0.05327
  FORCES: max atom, RMS     0.000000    0.000000
  FORCE total and by dimension    0.000000    0.000000
  Stress total and by dimension    0.091234    0.053275


--------------------------------------------------------------------------------------------------------


    WAVPRE:  cpu time      0.0021: real time      0.0263
    FEWALD:  cpu time      0.0001: real time      0.0001
    GENKIN:  cpu time      0.0032: real time      0.0032

 real space projection operators:
  total allocation   :       2106.28 KBytes
  max/ min on nodes  :        529.31        522.84

    ORTHCH:  cpu time      0.0110: real time      0.0111
     LOOP+:  cpu time      0.6892: real time      0.7195


--------------------------------------- Iteration      7(   1)  ---------------------------------------


    POTLOK:  cpu time      0.0065: real time      0.0068
    SETDIJ:  cpu time      0.0022: real time      0.0022
     EDDAV:  cpu time      0.0612: real time      0.0614
       DOS:  cpu time      0.0012: real time      0.0012
    CHARGE:  cpu time      0.0064: real time      0.0064
    MIXING:  cpu time      0.0006: real time      0.0006
    --------------------------------------------
      LOOP:  cpu time      0.0780: real time      0.0786

 eigenvalue-minimisations  :  1370
 total energy-change (2. order) :-0.3265192E-02  (-0.5926230E-03)
 number of electron      25.9999962 magnetization 
 augmentation part        2.4352709 magnetization 

 Broyden mixing:
  rms(total) = 0.89642E-02    rms(broyden)= 0.89639E-02
  rms(prec ) = 0.18169E-01
  weight for this iteration     100.00

 Free energy of the ion-electron system (eV)
  ---------------------------------------------------
  alpha Z        PSCENC =       166.22269380
  Ewald energy   TEWEN  =     -2685.42623694
  -Hartree energ DENC   =      -463.60929002
  -exchange      EXHF   =         0.00000000
  -V(xc)+E(xc)   XCENC  =       112.34548570
  PAW double counting   =      2997.66255509    -2953.19299431
  entropy T*S    EENTRO =        -0.00164539
  eigenvalues    EBANDS =      -304.84872111
  atomic energy  EATOM  =      3110.35427263
  Solvation  Ediel_sol  =         0.00000000
  ---------------------------------------------------
  free energy    TOTEN  =       -20.49388056 eV

  energy without entropy =      -20.49223517  energy(sigma->0) =      -20.49333210


--------------------------------------------------------------------------------------------------------




--------------------------------------- Iteration      7(   2)  ---------------------------------------


    POTLOK:  cpu time      0.0074: real time      0.0075
    SETDIJ:  cpu time      0.0025: real time      0.0026
     EDDAV:  cpu time      0.0731: real time      0.0732
       DOS:  cpu time      0.0008: real time      0.0008
    CHARGE:  cpu time      0.0060: real time      0.0060
    MIXING:  cpu time      0.0022: real time      0.0022
    --------------------------------------------
      LOOP:  cpu time      0.0920: real time      0.0924

 eigenvalue-minimisations  :  1710
 total energy-change (2. order) : 0.1035168E-03  (-0.5072047E-04)
 number of electron      25.9999969 magnetization 
 augmentation part        2.4392332 magnetization 

 Broyden mixing:
  rms(total) = 0.39640E-02    rms(broyden)= 0.39639E-02
  rms(prec ) = 0.86378E-02
  weight for this iteration     100.00

 eigenvalues of (default mixing * dielectric matrix)
  average eigenvalue GAMMA=   1.3735
  1.3735

 Free energy of the ion-electron system (eV)
  ---------------------------------------------------
  alpha Z        PSCENC =       166.22269380
  Ewald energy   TEWEN  =     -2685.42623694
  -Hartree energ DENC   =      -463.34366073
  -exchange      EXHF   =         0.00000000
  -V(xc)+E(xc)   XCENC  =       112.33204273
  PAW double counting   =      2999.83071620    -2955.37997828
  entropy T*S    EENTRO =        -0.00163131
  eigenvalues    EBANDS =      -305.08199515
  atomic energy  EATOM  =      3110.35427263
  Solvation  Ediel_sol  =         0.00000000
  ---------------------------------------------------
  free energy    TOTEN  =       -20.49377704 eV

  energy without entropy =      -20.49214573  energy(sigma->0) =      -20.49323327


--------------------------------------------------------------------------------------------------------




--------------------------------------- Iteration      7(   3)  ---------------------------------------


    POTLOK:  cpu time      0.0070: real time      0.0071
    SETDIJ:  cpu time      0.0024: real time      0.0024
     EDDAV:  cpu time      0.0897: real time      0.0901
       DOS:  cpu time      0.0008: real time      0.0008
    CHARGE:  cpu time      0.0073: real time      0.0073
    MIXING:  cpu time      0.0007: real time      0.0007
    --------------------------------------------
      LOOP:  cpu time      0.1078: real time      0.1084

 eigenvalue-minimisations  :  2260
 total energy-change (2. order) : 0.1870501E-04  (-0.1942998E-04)
 number of electron      25.9999971 magnetization 
 augmentation part        2.4383904 magnetization 

 Broyden mixing:
  rms(total) = 0.20313E-02    rms(broyden)= 0.20312E-02
  rms(prec ) = 0.26696E-02
  weight for this iteration     100.00

 eigenvalues of (default mixing * dielectric matrix)
  average eigenvalue GAMMA=   1.2544
  1.2544  1.2544

 Free energy of the ion-electron system (eV)
  ---------------------------------------------------
  alpha Z        PSCENC =       166.22269380
  Ewald energy   TEWEN  =     -2685.42623694
  -Hartree energ DENC   =      -463.14820634
  -exchange      EXHF   =         0.00000000
  -V(xc)+E(xc)   XCENC  =       112.32233119
  PAW double counting   =      3000.18571671    -2955.76883900
  entropy T*S    EENTRO =        -0.00161952
  eigenvalues    EBANDS =      -305.23387087
  atomic energy  EATOM  =      3110.35427263
  Solvation  Ediel_sol  =         0.00000000
  ---------------------------------------------------
  free energy    TOTEN  =       -20.49375834 eV

  energy without entropy =      -20.49213881  energy(sigma->0) =      -20.49321849


--------------------------------------------------------------------------------------------------------




--------------------------------------- Iteration      7(   4)  ---------------------------------------


    POTLOK:  cpu time      0.0071: real time      0.0073
    SETDIJ:  cpu time      0.0023: real time      0.0024
     EDDAV:  cpu time      0.0825: real time      0.0828
       DOS:  cpu time      0.0009: real time      0.0009
    CHARGE:  cpu time      0.0060: real time      0.0060
    MIXING:  cpu time      0.0007: real time      0.0007
    --------------------------------------------
      LOOP:  cpu time      0.0995: real time      0.1000

 eigenvalue-minimisations  :  1966
 total energy-change (2. order) :-0.6332995E-05  (-0.2002621E-05)
 number of electron      25.9999969 magnetization 
 augmentation part        2.4375232 magnetization 

 Broyden mixing:
  rms(total) = 0.76592E-03    rms(broyden)= 0.76588E-03
  rms(prec ) = 0.87338E-03
  weight for this iteration     100.00

 eigenvalues of (default mixing * dielectric matrix)
  average eigenvalue GAMMA=   1.6346
  2.1013  1.4012  1.4012

 Free energy of the ion-electron system (eV)
  ---------------------------------------------------
  alpha Z        PSCENC =       166.22269380
  Ewald energy   TEWEN  =     -2685.42623694
  -Hartree energ DENC   =      -463.20169976
  -exchange      EXHF   =         0.00000000
  -V(xc)+E(xc)   XCENC  =       112.32501649
  PAW double counting   =      2999.69155610    -2955.25729936
  entropy T*S    EENTRO =        -0.00162011
  eigenvalues    EBANDS =      -305.20044753
  atomic energy  EATOM  =      3110.35427263
  Solvation  Ediel_sol  =         0.00000000
  ---------------------------------------------------
  free energy    TOTEN  =       -20.49376467 eV

  energy without entropy =      -20.49214456  energy(sigma->0) =      -20.49322463


--------------------------------------------------------------------------------------------------------




--------------------------------------- Iteration      7(   5)  ---------------------------------------


    POTLOK:  cpu time      0.0071: real time      0.0073
    SETDIJ:  cpu time      0.0024: real time      0.0024
     EDDAV:  cpu time      0.0792: real time      0.0795
       DOS:  cpu time      0.0008: real time      0.0008
    CHARGE:  cpu time      0.0060: real time      0.0060
    MIXING:  cpu time      0.0010: real time      0.0010
    --------------------------------------------
      LOOP:  cpu time      0.0965: real time      0.0969

 eigenvalue-minimisations  :  1912
 total energy-change (2. order) :-0.9528412E-05  (-0.7645669E-06)
 number of electron      25.9999970 magnetization 
 augmentation part        2.4369399 magnetization 

 Broyden mixing:
  rms(total) = 0.66868E-03    rms(broyden)= 0.66859E-03
  rms(prec ) = 0.10753E-02
  weight for this iteration     100.00

 eigenvalues of (default mixing * dielectric matrix)
  average eigenvalue GAMMA=   1.7020
  2.4968  2.0084  1.2121  1.0907

 Free energy of the ion-electron system (eV)
  ---------------------------------------------------
  alpha Z        PSCENC =       166.22269380
  Ewald energy   TEWEN  =     -2685.42623694
  -Hartree energ DENC   =      -463.20364039
  -exchange      EXHF   =         0.00000000
  -V(xc)+E(xc)   XCENC  =       112.32504238
  PAW double counting   =      2999.52488672    -2955.06825225
  entropy T*S    EENTRO =        -0.00161687
  eigenvalues    EBANDS =      -305.22092328
  atomic energy  EATOM  =      3110.35427263
  Solvation  Ediel_sol  =         0.00000000
  ---------------------------------------------------
  free energy    TOTEN  =       -20.49377420 eV

  energy without entropy =      -20.49215733  energy(sigma->0) =      -20.49323524


--------------------------------------------------------------------------------------------------------




--------------------------------------- Iteration      7(   6)  ---------------------------------------


    POTLOK:  cpu time      0.0070: real time      0.0073
    SETDIJ:  cpu time      0.0024: real time      0.0024
     EDDAV:  cpu time      0.0462: real time      0.0464
       DOS:  cpu time      0.0009: real time      0.0009
    CHARGE:  cpu time      0.0065: real time      0.0065
    MIXING:  cpu time      0.0011: real time      0.0011
    --------------------------------------------
      LOOP:  cpu time      0.0640: real time      0.0645

 eigenvalue-minimisations  :   852
 total energy-change (2. order) :-0.2225956E-05  (-0.1101727E-06)
 number of electron      25.9999970 magnetization 
 augmentation part        2.4367978 magnetization 

 Broyden mixing:
  rms(total) = 0.82032E-04    rms(broyden)= 0.81999E-04
  rms(prec ) = 0.14737E-03
  weight for this iteration     100.00

 eigenvalues of (default mixing * dielectric matrix)
  average eigenvalue GAMMA=   1.5592
  2.5036  1.7360  1.4130  1.1372  1.0062

 Free energy of the ion-electron system (eV)
  ---------------------------------------------------
  alpha Z        PSCENC =       166.22269380
  Ewald energy   TEWEN  =     -2685.42623694
  -Hartree energ DENC   =      -463.23176289
  -exchange      EXHF   =         0.00000000
  -V(xc)+E(xc)   XCENC  =       112.32638693
  PAW double counting   =      2999.39073486    -2954.91463384
  entropy T*S    EENTRO =        -0.00161659
  eigenvalues    EBANDS =      -305.21361439
  atomic energy  EATOM  =      3110.35427263
  Solvation  Ediel_sol  =         0.00000000
  ---------------------------------------------------
  free energy    TOTEN  =       -20.49377642 eV

  energy without entropy =      -20.49215984  energy(sigma->0) =      -20.49323756


--------------------------------------------------------------------------------------------------------




--------------------------------------- Iteration      7(   7)  ---------------------------------------


    POTLOK:  cpu time      0.0072: real time      0.0073
    SETDIJ:  cpu time      0.0024: real time      0.0024
     EDDAV:  cpu time      0.0384: real time      0.0385
       DOS:  cpu time      0.0008: real time      0.0008
    --------------------------------------------
      LOOP:  cpu time      0.0487: real time      0.0490

 eigenvalue-minimisations  :   672
 total energy-change (2. order) : 0.2213392E-07  (-0.1655298E-07)
 number of electron      25.9999970 magnetization 
 augmentation part        2.4367978 magnetization 

 Free energy of the ion-electron system (eV)
  ---------------------------------------------------
  alpha Z        PSCENC =       166.22269380
  Ewald energy   TEWEN  =     -2685.42623694
  -Hartree energ DENC   =      -463.22884372
  -exchange      EXHF   =         0.00000000
  -V(xc)+E(xc)   XCENC  =       112.32624654
  PAW double counting   =      2999.39522088    -2954.92063077
  entropy T*S    EENTRO =        -0.00161656
  eigenvalues    EBANDS =      -305.21488226
  atomic energy  EATOM  =      3110.35427263
  Solvation  Ediel_sol  =         0.00000000
  ---------------------------------------------------
  free energy    TOTEN  =       -20.49377640 eV

  energy without entropy =      -20.49215984  energy(sigma->0) =      -20.49323755


--------------------------------------------------------------------------------------------------------




 average (electrostatic) potential at core
  the test charge radii are     1.0703
  (the norm of the test charge is              1.0000)
       1 -76.7158       2 -76.7158
 
 
 
 E-fermi :  11.1931     XC(G=0): -12.5234     alpha+bet :-19.3414

 Fermi energy:        11.1931482137

 k-point     1 :       0.0500    0.0500    0.0500
  band No.  band energies     occupation 
      1     -43.1249      2.00000
      2     -42.7164      2.00000
      3     -19.3958      2.00000
      4     -19.3705      2.00000
      5     -19.2850      2.00000
      6     -18.5077      2.00000
      7     -18.4679      2.00000
      8     -18.3629      2.00000
      9       5.4513      2.00000
     10       7.5738      2.00000
     11       7.6301      2.00000
     12      11.5136     -0.00006
     13      11.5433     -0.00001
     14      11.7811     -0.00000
     15      14.3316      0.00000
     16      14.5651      0.00000
     17      15.9697      0.00000
     18      16.6369      0.00000

 k-point     2 :       0.1500    0.0500    0.0500
  band No.  band energies     occupation 
      1     -43.1018      2.00000
      2     -42.7330      2.00000
      3     -19.4195      2.00000
      4     -19.3220      2.00000
      5     -19.2232      2.00000
      6     -18.6253      2.00000
      7     -18.4984      2.00000
      8     -18.3964      2.00000
      9       5.8526      2.00000
     10       7.8268      2.00000
     11       7.9409      2.00000
     12      11.3733     -0.02874
     13      11.4747     -0.00050
     14      12.0739     -0.00000
     15      13.9531      0.00000
     16      14.6380      0.00000
     17      14.8261      0.00000
     18      15.5410      0.00000

 k-point     3 :       0.2500    0.0500    0.0500
  band No.  band energies     occupation 
      1     -43.0587      2.00000
      2     -42.7657      2.00000
      3     -19.4287      2.00000
      4     -19.2331      2.00000
      5     -19.1248      2.00000
      6     -18.8031      2.00000
      7     -18.5764      2.00000
      8     -18.4703      2.00000
      9       6.5845      2.00000
     10       8.2586      2.00000
     11       8.4995      2.00000
     12      11.3121     -0.07052
     13      11.3911     -0.01708
     14      12.5017     -0.00000
     15      13.0961     -0.00000
     16      13.6954     -0.00000
     17      14.3346      0.00000
     18      15.0338      0.00000

 k-point     4 :       0.3500    0.0500    0.0500
  band No.  band energies     occupation 
      1     -43.0012      2.00000
      2     -42.8128      2.00000
      3     -19.4019      2.00000
      4     -19.1120      2.00000
      5     -19.0030      2.00000
      6     -18.9997      2.00000
      7     -18.6894      2.00000
      8     -18.5797      2.00000
      9       7.5054      2.00000
     10       8.8752      2.00000
     11       8.9879      2.00000
     12      11.2211      0.54721
     13      11.4106     -0.00875
     14      12.2751     -0.00000
     15      12.7858     -0.00000
     16      13.0705     -0.00000
     17      13.3185     -0.00000
     18      15.3324      0.00000

 k-point     5 :       0.4500    0.0500    0.0500
  band No.  band energies     occupation 
      1     -42.9362      2.00000
      2     -42.8713      2.00000
      3     -19.3226      2.00000
      4     -19.1857      2.00000
      5     -18.9712      2.00000
      6     -18.8582      2.00000
      7     -18.8255      2.00000
      8     -18.7136      2.00000
      9       8.3991      2.00000
     10       8.9732      2.00000
     11       9.6866      2.00000
     12      10.5676      2.00000
     13      11.6946     -0.00000
     14      12.1389     -0.00000
     15      12.1478     -0.00000
     16      12.5677     -0.00000
     17      13.7642     -0.00000
     18      14.5357      0.00000

 k-point     6 :       0.1500    0.1500    0.0500
  band No.  band energies     occupation 
      1     -43.0805      2.00000
      2     -42.7476      2.00000
      3     -19.4779      2.00000
      4     -19.2659      2.00000
      5     -19.1447      2.00000
      6     -18.7769      2.00000
      7     -18.4719      2.00000
      8     -18.4359      2.00000
      9       6.2175      2.00000
     10       8.0922      2.00000
     11       8.2160      2.00000
     12      11.0423      2.05452
     13      11.3270     -0.06749
     14      12.5864     -0.00000
     15      13.6962     -0.00000
     16      14.1200      0.00000
     17      14.4160      0.00000
     18      14.8794      0.00000

 k-point     7 :       0.2500    0.1500    0.0500
  band No.  band energies     occupation 
      1     -43.0409      2.00000
      2     -42.7764      2.00000
      3     -19.5217      2.00000
      4     -19.1749      2.00000
      5     -19.0338      2.00000
      6     -18.9728      2.00000
      7     -18.5232      2.00000
      8     -18.4879      2.00000
      9       6.8642      2.00000
     10       8.4453      2.00000
     11       8.7858      2.00000
     12      10.8093      2.00000
     13      11.1541      1.60867
     14      12.6693     -0.00000
     15      13.2118     -0.00000
     16      13.6195     -0.00000
     17      13.8936     -0.00000
     18      14.8156      0.00000

 k-point     8 :       0.3500    0.1500    0.0500
  band No.  band energies     occupation 
      1     -42.9882      2.00000
      2     -42.8182      2.00000
      3     -19.5241      2.00000
      4     -19.1749      2.00000
      5     -19.0536      2.00000
      6     -18.9090      2.00000
      7     -18.6340      2.00000
      8     -18.5579      2.00000
      9       7.6384      2.00000
     10       8.8243      2.00000
     11       9.3431      2.00000
     12      10.7262      2.00000
     13      10.9939      2.01637
     14      11.9140     -0.00000
     15      13.0670     -0.00000
     16      13.1895     -0.00000
     17      13.9362      0.00000
     18      15.3325      0.00000

 k-point     9 :       0.4500    0.1500    0.0500
  band No.  band energies     occupation 
      1     -42.9291      2.00000
      2     -42.8705      2.00000
      3     -19.4681      2.00000
      4     -19.3484      2.00000
      5     -18.9135      2.00000
      6     -18.7805      2.00000
      7     -18.7688      2.00000
      8     -18.6593      2.00000
      9       8.3536      2.00000
     10       8.8305      2.00000
     11       9.8789      2.00000
     12      10.4477      2.00000
     13      11.0491      2.06042
     14      11.4014     -0.01215
     15      12.8679     -0.00000
     16      12.9255     -0.00000
     17      14.6859      0.00000
     18      15.3716      0.00000

 k-point    10 :       0.2500    0.2500    0.0500
  band No.  band energies     occupation 
      1     -43.0079      2.00000
      2     -42.7977      2.00000
      3     -19.6081      2.00000
      4     -19.1804      2.00000
      5     -19.0942      2.00000
      6     -18.9099      2.00000
      7     -18.5678      2.00000
      8     -18.4786      2.00000
      9       7.3042      2.00000
     10       8.5620      2.00000
     11       9.4346      2.00000
     12      10.3983      2.00000
     13      11.0553      2.06504
     14      11.7526     -0.00000
     15      13.2604     -0.00000
     16      14.0137      0.00000
     17      14.1738      0.00000
     18      14.6057      0.00000

 k-point    11 :       0.3500    0.2500    0.0500
  band No.  band energies     occupation 
      1     -42.9646      2.00000
      2     -42.8295      2.00000
      3     -19.6507      2.00000
      4     -19.3794      2.00000
      5     -18.9912      2.00000
      6     -18.7836      2.00000
      7     -18.6525      2.00000
      8     -18.5045      2.00000
      9       7.7322      2.00000
     10       8.5465      2.00000
     11      10.1401      2.00000
     12      10.1942      2.00000
     13      11.0770      2.06959
     14      11.1614      1.50875
     15      13.0899     -0.00000
     16      13.9263      0.00000
     17      14.9472      0.00000
     18      15.0692      0.00000

 k-point    12 :       0.4500    0.2500    0.0500
  band No.  band energies     occupation 
      1     -42.9167      2.00000
      2     -42.8701      2.00000
      3     -19.6293      2.00000
      4     -19.5365      2.00000
      5     -18.8752      2.00000
      6     -18.7583      2.00000
      7     -18.6670      2.00000
      8     -18.5706      2.00000
      9       8.0764      2.00000
     10       8.3600      2.00000
     11      10.2196      2.00000
     12      10.4185      2.00000
     13      10.8920      2.00018
     14      11.1648      1.45949
     15      13.4286     -0.00000
     16      13.7422     -0.00000
     17      15.5020      0.00000
     18      15.9870      0.00000

 k-point    13 :       0.3500    0.3500    0.0500
  band No.  band energies     occupation 
      1     -42.9343      2.00000
      2     -42.8474      2.00000
      3     -19.7353      2.00000
      4     -19.5635      2.00000
      5     -18.9180      2.00000
      6     -18.6998      2.00000
      7     -18.6665      2.00000
      8     -18.4855      2.00000
      9       7.7289      2.00000
     10       8.2030      2.00000
     11       9.8498      2.00000
     12      10.3911      2.00000
     13      11.1025      2.02513
     14      11.7932     -0.00000
     15      13.3725     -0.00000
     16      14.4936      0.00000
     17      14.9118      0.00000
     18      15.9544      0.00000

 k-point    14 :       0.4500    0.3500    0.0500
  band No.  band energies     occupation 
      1     -42.9020      2.00000
      2     -42.8721      2.00000
      3     -19.7535      2.00000
      4     -19.6947      2.00000
      5     -18.8393      2.00000
      6     -18.7640      2.00000
      7     -18.5724      2.00000
      8     -18.5097      2.00000
      9       7.7577      2.00000
     10       7.9147      2.00000
     11       9.7619      2.00000
     12       9.9466      2.00000
     13      11.8920     -0.00000
     14      12.2083     -0.00000
     15      13.9693      0.00000
     16      14.4362      0.00000
     17      15.3710      0.00000
     18      16.3247      0.00000

 k-point    15 :       0.4500    0.4500    0.0500
  band No.  band energies     occupation 
      1     -42.8882      2.00000
      2     -42.8779      2.00000
      3     -19.8124      2.00000
      4     -19.7923      2.00000
      5     -18.8064      2.00000
      6     -18.7804      2.00000
      7     -18.5116      2.00000
      8     -18.4899      2.00000
      9       7.5903      2.00000
     10       7.6417      2.00000
     11       9.5449      2.00000
     12       9.6085      2.00000
     13      12.9482     -0.00000
     14      13.1731     -0.00000
     15      14.4629      0.00000
     16      14.6985      0.00000
     17      15.1931      0.00000
     18      15.7343      0.00000

 k-point    16 :       0.1500    0.1500    0.1500
  band No.  band energies     occupation 
      1     -43.0613      2.00000
      2     -42.7608      2.00000
      3     -19.4279      2.00000
      4     -19.3717      2.00000
      5     -19.0193      2.00000
      6     -18.8803      2.00000
      7     -18.5201      2.00000
      8     -18.4321      2.00000
      9       6.5618      2.00000
     10       8.3842      2.00000
     11       8.4381      2.00000
     12      10.9083      2.00042
     13      10.9460      2.00262
     14      12.5611     -0.00000
     15      13.1946     -0.00000
     16      14.1868      0.00000
     17      14.3710      0.00000
     18      15.6922      0.00000

 k-point    17 :       0.2500    0.1500    0.1500
  band No.  band energies     occupation 
      1     -43.0248      2.00000
      2     -42.7860      2.00000
      3     -19.4978      2.00000
      4     -19.2856      2.00000
      5     -19.0663      2.00000
      6     -18.8973      2.00000
      7     -18.5724      2.00000
      8     -18.4674      2.00000
      9       7.1709      2.00000
     10       8.7474      2.00000
     11       8.9552      2.00000
     12      10.6581      2.00000
     13      10.7133      2.00000
     14      11.6224     -0.00000
     15      13.8815     -0.00000
     16      13.9478      0.00000
     17      14.6081      0.00000
     18      14.7143      0.00000

 k-point    18 :       0.3500    0.1500    0.1500
  band No.  band energies     occupation 
      1     -42.9766      2.00000
      2     -42.8231      2.00000
      3     -19.5317      2.00000
      4     -19.2538      2.00000
      5     -19.1545      2.00000
      6     -18.7788      2.00000
      7     -18.6911      2.00000
      8     -18.5102      2.00000
      9       7.8586      2.00000
     10       9.1830      2.00000
     11       9.2545      2.00000
     12      10.4422      2.00000
     13      10.7124      2.00000
     14      11.1999      0.88528
     15      13.4160     -0.00000
     16      13.7439     -0.00000
     17      14.7446      0.00000
     18      15.2518      0.00000

 k-point    19 :       0.4500    0.1500    0.1500
  band No.  band energies     occupation 
      1     -42.9228      2.00000
      2     -42.8699      2.00000
      3     -19.5037      2.00000
      4     -19.4079      2.00000
      5     -19.0005      2.00000
      6     -18.8403      2.00000
      7     -18.6704      2.00000
      8     -18.5787      2.00000
      9       8.4646      2.00000
     10       8.9653      2.00000
     11       9.6803      2.00000
     12      10.1140      2.00000
     13      11.0105      2.02690
     14      11.2110      0.70234
     15      13.1331     -0.00000
     16      13.2302     -0.00000
     17      15.1991      0.00000
     18      15.3651      0.00000

 k-point    20 :       0.2500    0.2500    0.1500
  band No.  band energies     occupation 
      1     -42.9944      2.00000
      2     -42.8047      2.00000
      3     -19.5528      2.00000
      4     -19.2437      2.00000
      5     -19.2377      2.00000
      6     -18.7840      2.00000
      7     -18.5609      2.00000
      8     -18.5335      2.00000
      9       7.6644      2.00000
     10       8.9642      2.00000
     11       9.5053      2.00000
     12      10.2733      2.00000
     13      10.5710      2.00000
     14      10.7957      2.00000
     15      14.2473      0.00000
     16      14.2696      0.00000
     17      14.5910      0.00000
     18      14.8752      0.00000

 k-point    21 :       0.3500    0.2500    0.1500
  band No.  band energies     occupation 
      1     -42.9547      2.00000
      2     -42.8327      2.00000
      3     -19.6045      2.00000
      4     -19.4058      2.00000
      5     -19.1279      2.00000
      6     -18.6862      2.00000
      7     -18.6782      2.00000
      8     -18.5339      2.00000
      9       8.0958      2.00000
     10       8.9184      2.00000
     11       9.9278      2.00000
     12      10.0733      2.00000
     13      10.6635      2.00000
     14      10.6883      2.00000
     15      13.8050     -0.00000
     16      14.0631      0.00000
     17      15.0371      0.00000
     18      15.8346      0.00000

 k-point    22 :       0.4500    0.2500    0.1500
  band No.  band energies     occupation 
      1     -42.9111      2.00000
      2     -42.8690      2.00000
      3     -19.6036      2.00000
      4     -19.5353      2.00000
      5     -18.9805      2.00000
      6     -18.8245      2.00000
      7     -18.6099      2.00000
      8     -18.5585      2.00000
      9       8.3836      2.00000
     10       8.6586      2.00000
     11       9.9528      2.00000
     12       9.9895      2.00000
     13      10.9844      2.01194
     14      11.0157      2.03085
     15      13.7292     -0.00000
     16      13.8380     -0.00000
     17      15.3615      0.00000
     18      15.5853      0.00000

 k-point    23 :       0.3500    0.3500    0.1500
  band No.  band energies     occupation 
      1     -42.9267      2.00000
      2     -42.8483      2.00000
      3     -19.6748      2.00000
      4     -19.5522      2.00000
      5     -19.0414      2.00000
      6     -18.7196      2.00000
      7     -18.6164      2.00000
      8     -18.5470      2.00000
      9       8.1414      2.00000
     10       8.5371      2.00000
     11       9.7859      2.00000
     12      10.0951      2.00000
     13      10.9974      2.01830
     14      11.2138      0.65919
     15      13.8920     -0.00000
     16      14.5558      0.00000
     17      14.9562      0.00000
     18      16.0525      0.00000

 k-point    24 :       0.4500    0.3500    0.1500
  band No.  band energies     occupation 
      1     -42.8972      2.00000
      2     -42.8702      2.00000
      3     -19.6985      2.00000
      4     -19.6568      2.00000
      5     -18.9274      2.00000
      6     -18.8120      2.00000
      7     -18.5732      2.00000
      8     -18.5534      2.00000
      9       8.1393      2.00000
     10       8.2564      2.00000
     11       9.7052      2.00000
     12       9.8309      2.00000
     13      11.6632     -0.00000
     14      11.7442     -0.00000
     15      14.2222      0.00000
     16      14.4935      0.00000
     17      15.2773      0.00000
     18      15.7062      0.00000

 k-point    25 :       0.4500    0.4500    0.1500
  band No.  band energies     occupation 
      1     -42.8844      2.00000
      2     -42.8751      2.00000
      3     -19.7489      2.00000
      4     -19.7347      2.00000
      5     -18.8667      2.00000
      6     -18.8234      2.00000
      7     -18.5589      2.00000
      8     -18.5555      2.00000
      9       7.9868      2.00000
     10       8.0196      2.00000
     11       9.5273      2.00000
     12       9.5817      2.00000
     13      12.4757     -0.00000
     14      12.5347     -0.00000
     15      14.6321      0.00000
     16      14.7835      0.00000
     17      15.2210      0.00000
     18      15.4715      0.00000

 k-point    26 :       0.2500    0.2500    0.2500
  band No.  band energies     occupation 
      1     -42.9696      2.00000
      2     -42.8189      2.00000
      3     -19.4474      2.00000
      4     -19.3826      2.00000
      5     -19.3326      2.00000
      6     -18.6797      2.00000
      7     -18.6380      2.00000
      8     -18.5500      2.00000
      9       8.2454      2.00000
     10       9.6202      2.00000
     11       9.6541      2.00000
     12       9.9613      2.00000
     13      10.0996      2.00000
     14      10.1312      2.00000
     15      14.5090      0.00000
     16      14.6285      0.00000
     17      15.0070      0.00000
     18      15.1067      0.00000

 k-point    27 :       0.3500    0.2500    0.2500
  band No.  band energies     occupation 
      1     -42.9367      2.00000
      2     -42.8398      2.00000
      3     -19.5329      2.00000
      4     -19.4549      2.00000
      5     -19.2483      2.00000
      6     -18.7315      2.00000
      7     -18.6139      2.00000
      8     -18.5747      2.00000
      9       8.6493      2.00000
     10       9.2697      2.00000
     11       9.7525      2.00000
     12       9.9616      2.00000
     13      10.1868      2.00000
     14      10.4848      2.00000
     15      14.4091      0.00000
     16      14.4202      0.00000
     17      15.0091      0.00000
     18      15.3766      0.00000

 k-point    28 :       0.4500    0.2500    0.2500
  band No.  band energies     occupation 
      1     -42.9012      2.00000
      2     -42.8678      2.00000
      3     -19.5710      2.00000
      4     -19.5424      2.00000
      5     -19.0769      2.00000
      6     -18.8973      2.00000
      7     -18.5778      2.00000
      8     -18.5677      2.00000
      9       8.7297      2.00000
     10       8.8843      2.00000
     11       9.8203      2.00000
     12       9.8712      2.00000
     13      10.7187      2.00000
     14      10.9349      2.00159
     15      14.1742      0.00000
     16      14.2203      0.00000
     17      15.3129      0.00000
     18      15.3800      0.00000

 k-point    29 :       0.3500    0.3500    0.2500
  band No.  band energies     occupation 
      1     -42.9132      2.00000
      2     -42.8509      2.00000
      3     -19.5595      2.00000
      4     -19.5358      2.00000
      5     -19.1924      2.00000
      6     -18.7390      2.00000
      7     -18.6640      2.00000
      8     -18.5931      2.00000
      9       8.8872      2.00000
     10       8.9448      2.00000
     11       9.7214      2.00000
     12       9.9852      2.00000
     13      10.4675      2.00000
     14      10.7740      2.00000
     15      14.5443      0.00000
     16      14.7811      0.00000
     17      15.0005      0.00000
     18      15.3901      0.00000

 k-point    30 :       0.4500    0.3500    0.2500
  band No.  band energies     occupation 
      1     -42.8890      2.00000
      2     -42.8675      2.00000
      3     -19.5974      2.00000
      4     -19.5906      2.00000
      5     -19.0494      2.00000
      6     -18.8839      2.00000
      7     -18.6365      2.00000
      8     -18.6040      2.00000
      9       8.7491      2.00000
     10       8.7707      2.00000
     11       9.7014      2.00000
     12       9.8332      2.00000
     13      11.0739      2.07059
     14      11.2293      0.43075
     15      14.6175      0.00000
     16      14.7236      0.00000
     17      15.2587      0.00000
     18      15.3762      0.00000

 k-point    31 :       0.4500    0.4500    0.2500
  band No.  band energies     occupation 
      1     -42.8781      2.00000
      2     -42.8707      2.00000
      3     -19.6276      2.00000
      4     -19.6267      2.00000
      5     -18.9655      2.00000
      6     -18.8895      2.00000
      7     -18.6801      2.00000
      8     -18.6512      2.00000
      9       8.6554      2.00000
     10       8.6884      2.00000
     11       9.5434      2.00000
     12       9.6226      2.00000
     13      11.6915     -0.00000
     14      11.7514     -0.00000
     15      14.9052      0.00000
     16      14.9778      0.00000
     17      15.2633      0.00000
     18      15.3395      0.00000

 k-point    32 :       0.3500    0.3500    0.3500
  band No.  band energies     occupation 
      1     -42.8967      2.00000
      2     -42.8566      2.00000
      3     -19.5178      2.00000
      4     -19.4002      2.00000
      5     -19.3289      2.00000
      6     -18.8250      2.00000
      7     -18.7346      2.00000
      8     -18.6081      2.00000
      9       9.0196      2.00000
     10       9.7320      2.00000
     11       9.7326      2.00000
     12       9.8679      2.00000
     13      10.4329      2.00000
     14      10.4561      2.00000
     15      15.0051      0.00000
     16      15.0314      0.00000
     17      15.0543      0.00000
     18      15.0681      0.00000

 k-point    33 :       0.4500    0.3500    0.3500
  band No.  band energies     occupation 
      1     -42.8798      2.00000
      2     -42.8660      2.00000
      3     -19.5141      2.00000
      4     -19.4747      2.00000
      5     -19.1535      2.00000
      6     -18.9582      2.00000
      7     -18.7335      2.00000
      8     -18.6668      2.00000
      9       9.0508      2.00000
     10       9.2889      2.00000
     11       9.8511      2.00000
     12      10.1019      2.00000
     13      10.6135      2.00000
     14      10.8480      2.00001
     15      14.9643      0.00000
     16      15.0009      0.00000
     17      15.2747      0.00000
     18      15.2876      0.00000

 k-point    34 :       0.4500    0.4500    0.3500
  band No.  band energies     occupation 
      1     -42.8715      2.00000
      2     -42.8667      2.00000
      3     -19.4831      2.00000
      4     -19.4599      2.00000
      5     -19.0766      2.00000
      6     -18.9460      2.00000
      7     -18.8513      2.00000
      8     -18.7746      2.00000
      9       9.2395      2.00000
     10       9.4824      2.00000
     11       9.6617      2.00000
     12       9.9167      2.00000
     13      10.9212      2.00082
     14      11.0123      2.02823
     15      15.1787      0.00000
     16      15.2033      0.00000
     17      15.3011      0.00000
     18      15.3121      0.00000

 k-point    35 :       0.4500    0.4500    0.4500
  band No.  band energies     occupation 
      1     -42.8666      2.00000
      2     -42.8649      2.00000
      3     -19.3284      2.00000
      4     -19.2616      2.00000
      5     -19.1920      2.00000
      6     -19.0518      2.00000
      7     -18.9565      2.00000
      8     -18.8936      2.00000
      9       9.6192      2.00000
     10       9.9027      2.00000
     11       9.9353      2.00000
     12      10.3363      2.00000
     13      10.3890      2.00000
     14      10.4625      2.00000
     15      15.3191      0.00000
     16      15.3203      0.00000
     17      15.3464      0.00000
     18      15.3517      0.00000


--------------------------------------------------------------------------------------------------------


 soft charge-density along one line, spin component           1
         0         1         2         3         4         5         6         7         8         9
 total charge-density along one line
 
 pseudopotential strength for first ion, spin component:           1
  5.489 -19.441   0.000   0.000   0.000  -0.000  -0.000  -0.000
-19.441   8.436   0.000   0.000   0.000  -0.000  -0.000  -0.000
  0.000   0.000  -9.364  -0.000   0.000   5.453   0.000  -0.000
  0.000   0.000  -0.000  -9.331  -0.000   0.000   5.415   0.000
  0.000   0.000   0.000  -0.000  -9.364  -0.000   0.000   5.453
 -0.000  -0.000   5.453   0.000  -0.000   8.313  -0.000   0.000
 -0.000  -0.000   0.000   5.415   0.000  -0.000   8.335   0.000
 -0.000  -0.000  -0.000   0.000   5.453   0.000   0.000   8.313
  0.000   0.000   0.000   0.000   0.000  -0.000  -0.000  -0.000
 -0.000  -0.000   0.000   0.000   0.000  -0.000  -0.000  -0.000
  0.013   0.006  -0.000   0.000  -0.000   0.000  -0.000  -0.000
  0.000  -0.000   0.000   0.000   0.000  -0.000  -0.000  -0.000
 -0.000  -0.000  -0.000   0.000  -0.000   0.000  -0.000  -0.000
  0.000   0.000   0.000   0.000   0.000  -0.000  -0.000  -0.000
 -0.000  -0.000   0.000   0.000   0.000  -0.000  -0.000  -0.000
  0.017   0.008  -0.000   0.000  -0.000   0.000  -0.000  -0.000
  0.000  -0.000   0.000  -0.000   0.000  -0.000  -0.000  -0.000
 -0.000  -0.000  -0.000   0.000  -0.000   0.000  -0.000   0.000
 total augmentation occupancy for first ion, spin component:           1
  1.997  -0.037   0.000   0.000   0.000   0.000   0.000   0.000   0.000  -0.000  -0.000   0.000   0.000   0.000  -0.000   0.000
 -0.037   1.466   0.000   0.000   0.000   0.000   0.000   0.000  -0.000   0.000  -0.000  -0.000  -0.000   0.000   0.000   0.000
  0.000   0.000   1.986   0.000  -0.000  -0.029  -0.000   0.000   0.000   0.000   0.000   0.000   0.000   0.000   0.000   0.000
  0.000   0.000   0.000   2.022   0.000  -0.000  -0.029  -0.000   0.000   0.000   0.000   0.000   0.000   0.000   0.000   0.000
  0.000   0.000  -0.000   0.000   1.986   0.000  -0.000  -0.029   0.000   0.000   0.000   0.000   0.000   0.000   0.000   0.000
  0.000   0.000  -0.029  -0.000   0.000   0.063   0.000  -0.000   0.000   0.000   0.000  -0.000   0.000   0.000   0.000  -0.000
  0.000   0.000  -0.000  -0.029  -0.000   0.000   0.064   0.000   0.000   0.000  -0.000   0.000   0.000   0.000   0.000  -0.000
  0.000   0.000   0.000  -0.000  -0.029  -0.000   0.000   0.063   0.000   0.000   0.000   0.000   0.000   0.000   0.000   0.000
 -0.000  -0.000   0.000   0.000   0.000   0.000   0.000   0.000   2.499   0.000   0.000   0.000  -0.000  -0.918  -0.000  -0.000
  0.000  -0.000   0.000   0.000   0.000   0.000   0.000   0.000   0.000   2.544   0.000  -0.000  -0.000  -0.000  -0.935  -0.000
 -0.000  -0.000   0.000   0.000   0.000   0.000   0.000  -0.000   0.000   0.000   2.160   0.000  -0.000  -0.000  -0.000  -0.857
  0.000  -0.000   0.000   0.000   0.000  -0.000   0.000  -0.000   0.000  -0.000   0.000   2.544   0.000  -0.000   0.000  -0.000
  0.000  -0.000   0.000   0.000   0.000   0.000   0.000   0.000  -0.000  -0.000   0.000   0.000   2.109   0.000   0.000   0.000
  0.000   0.000   0.000   0.000   0.000   0.000   0.000   0.000  -0.918  -0.000  -0.000  -0.000   0.000   0.351   0.000   0.000
  0.000   0.000   0.000   0.000   0.000   0.000   0.000   0.000  -0.000  -0.935  -0.000   0.000   0.000   0.000   0.358   0.000
  0.000   0.000   0.000   0.000   0.000   0.000   0.000   0.000  -0.000  -0.000  -0.857  -0.000   0.000   0.000   0.000   0.350
  0.000  -0.000   0.000   0.000   0.000  -0.000   0.000   0.000  -0.000   0.000  -0.000  -0.935  -0.000   0.000  -0.000   0.000
  0.000   0.000   0.000   0.000   0.000   0.000  -0.000   0.000   0.000   0.000   0.000  -0.000  -0.837  -0.000  -0.000  -0.000


------------------------ aborting loop because EDIFF is reached ----------------------------------------


    CHARGE:  cpu time      0.0061: real time      0.0061
    FORLOC:  cpu time      0.0002: real time      0.0002
    FORNL :  cpu time      0.0262: real time      0.0263
    STRESS:  cpu time      0.0818: real time      0.0820
    FORCOR:  cpu time      0.0065: real time      0.0065
    FORHAR:  cpu time      0.0015: real time      0.0015
    MIXING:  cpu time      0.0010: real time      0.0010
    OFIELD:  cpu time      0.0000: real time      0.0000

  FORCE on cell =-STRESS in cart. coord.  units (eV):
  Direction    XX          YY          ZZ          XY          YZ          ZX
  --------------------------------------------------------------------------------------
  Alpha Z   166.22269   166.22269   166.22269
  Ewald    -894.73494  -894.73494  -895.95615     0.00000    -0.00000    -0.00000
  Hartree   153.67973   153.67973   155.86940    -0.00000    -0.00000    -0.00000
  E(xc)    -118.60433  -118.60433  -118.55189    -0.00000     0.00000     0.00000
  Local     176.56726   176.56726   168.22725     0.00000    -0.00000    -0.00000
  n-local    -4.94512   -27.76438   -41.10339     1.49638    -0.49577    -0.32563
  augment    36.32869    36.32869    37.07956     0.00000    -0.00000    -0.00000
  Kinetic   471.71805   506.91155   543.53645     2.43911    -2.66371     1.35968
  Fock        0.00000     0.00000     0.00000     0.00000     0.00000     0.00000
  -------------------------------------------------------------------------------------
  Total      -0.03649    -0.03649    -0.03714     0.00000     0.00000     0.00000
  in kB      -1.62975    -1.62975    -1.65916     0.00000     0.00000     0.00000
  external pressure =       -1.64 kB  Pullay stress =        0.00 kB


 VOLUME and BASIS-vectors are now :
 -----------------------------------------------------------------------------
  energy-cutoff  :      430.00
  volume of cell :       35.87
      direct lattice vectors                 reciprocal lattice vectors
     3.288093560  0.000000000  0.000000000     0.304127599  0.000000000  0.000000000
    -0.000000000  3.288093560  0.000000000    -0.000000000  0.304127599  0.000000000
     0.000000000  0.000000000  3.317632379    -0.000000000 -0.000000000  0.301419773

  length of vectors
     3.288093560  3.288093560  3.317632379     0.304127599  0.304127599  0.301419773


 FORCES acting on ions
    electron-ion (+dipol)            ewald-force                    non-local-force                 convergence-correction
 -----------------------------------------------------------------------------------------------
   -.164E-14 -.603E-14 -.192E-13   0.149E-13 0.102E-14 -.181E-14   0.281E-24 0.237E-25 -.234E-23   0.483E-14 0.216E-13 -.193E-13
   0.192E-12 0.390E-12 -.297E-11   -.159E-13 -.214E-14 0.393E-14   -.104E-23 -.613E-24 0.435E-26   -.589E-14 0.253E-13 -.750E-14
 -----------------------------------------------------------------------------------------------
   0.190E-12 0.384E-12 -.299E-11   -.973E-15 -.112E-14 0.212E-14   -.755E-24 -.589E-24 -.234E-23   -.106E-14 0.469E-13 -.268E-13
 
 
 POSITION                                       TOTAL-FORCE (eV/Angst)
 -----------------------------------------------------------------------------------
     -0.00000     -0.00000     -0.00000        -0.000000     -0.000000      0.000000
      1.64405      1.64405      1.65882         0.000000      0.000000     -0.000000
 -----------------------------------------------------------------------------------
    total drift:                                0.000000      0.000000     -0.000000


--------------------------------------------------------------------------------------------------------



  FREE ENERGIE OF THE ION-ELECTRON SYSTEM (eV)
  ---------------------------------------------------
  free  energy   TOTEN  =       -20.49377640 eV

  energy  without entropy=      -20.49215984  energy(sigma->0) =      -20.49323755
 
 d Force = 0.0000000E+00[ 0.000E+00, 0.000E+00]  d Energy = 0.3161583E-02-0.316E-02
 d Force = 0.0000000E+00[ 0.000E+00, 0.000E+00]  d Ewald  = 0.6945168E+00-0.695E+00


--------------------------------------------------------------------------------------------------------


    POTLOK:  cpu time      0.0087: real time      0.0087


--------------------------------------------------------------------------------------------------------


 stress matrix after NEB project (eV)
     -0.03649      0.00000      0.00000
      0.00000     -0.03649     -0.00000
     -0.00000      0.00000     -0.03714
  FORCES: max atom, RMS     0.000000    0.000000
  FORCE total and by dimension    0.000000    0.000000
  Stress total and by dimension    0.063578    0.037144


--------------------------------------------------------------------------------------------------------


    WAVPRE:  cpu time      0.0021: real time      0.0408
    FEWALD:  cpu time      0.0001: real time      0.0001
    GENKIN:  cpu time      0.0032: real time      0.0032

 real space projection operators:
  total allocation   :       2106.28 KBytes
  max/ min on nodes  :        529.31        522.84

    ORTHCH:  cpu time      0.0112: real time      0.0114
     LOOP+:  cpu time      0.7471: real time      0.7897


--------------------------------------- Iteration      8(   1)  ---------------------------------------


    POTLOK:  cpu time      0.0064: real time      0.0069
    SETDIJ:  cpu time      0.0022: real time      0.0022
     EDDAV:  cpu time      0.0599: real time      0.0604
       DOS:  cpu time      0.0008: real time      0.0008
    CHARGE:  cpu time      0.0063: real time      0.0064
    MIXING:  cpu time      0.0006: real time      0.0006
    --------------------------------------------
      LOOP:  cpu time      0.0763: real time      0.0772

 eigenvalue-minimisations  :  1356
 total energy-change (2. order) :-0.6862423E-02  (-0.2377816E-02)
 number of electron      26.0000331 magnetization 
 augmentation part        2.4334267 magnetization 

 Broyden mixing:
  rms(total) = 0.18054E-01    rms(broyden)= 0.18053E-01
  rms(prec ) = 0.36582E-01
  weight for this iteration     100.00

 Free energy of the ion-electron system (eV)
  ---------------------------------------------------
  alpha Z        PSCENC =       166.48112872
  Ewald energy   TEWEN  =     -2686.81658140
  -Hartree energ DENC   =      -463.46801069
  -exchange      EXHF   =         0.00000000
  -V(xc)+E(xc)   XCENC  =       112.38222068
  PAW double counting   =      2999.38780452    -2954.91296605
  entropy T*S    EENTRO =        -0.00162678
  eigenvalues    EBANDS =      -303.90688048
  atomic energy  EATOM  =      3110.35427263
  Solvation  Ediel_sol  =         0.00000000
  ---------------------------------------------------
  free energy    TOTEN  =       -20.50063885 eV

  energy without entropy =      -20.49901207  energy(sigma->0) =      -20.50009659


--------------------------------------------------------------------------------------------------------




--------------------------------------- Iteration      8(   2)  ---------------------------------------


    POTLOK:  cpu time      0.0070: real time      0.0073
    SETDIJ:  cpu time      0.0023: real time      0.0023
     EDDAV:  cpu time      0.0726: real time      0.0734
       DOS:  cpu time      0.0011: real time      0.0011
    CHARGE:  cpu time      0.0066: real time      0.0067
    MIXING:  cpu time      0.0014: real time      0.0015
    --------------------------------------------
      LOOP:  cpu time      0.0911: real time      0.0923

 eigenvalue-minimisations  :  1698
 total energy-change (2. order) : 0.4260332E-03  (-0.2059735E-03)
 number of electron      26.0000348 magnetization 
 augmentation part        2.4414265 magnetization 

 Broyden mixing:
  rms(total) = 0.80430E-02    rms(broyden)= 0.80428E-02
  rms(prec ) = 0.17472E-01
  weight for this iteration     100.00

 eigenvalues of (default mixing * dielectric matrix)
  average eigenvalue GAMMA=   1.3748
  1.3748

 Free energy of the ion-electron system (eV)
  ---------------------------------------------------
  alpha Z        PSCENC =       166.48112872
  Ewald energy   TEWEN  =     -2686.81658140
  -Hartree energ DENC   =      -462.93381917
  -exchange      EXHF   =         0.00000000
  -V(xc)+E(xc)   XCENC  =       112.35521045
  PAW double counting   =      3003.72567758    -2959.29049370
  entropy T*S    EENTRO =        -0.00160000
  eigenvalues    EBANDS =      -304.37400793
  atomic energy  EATOM  =      3110.35427263
  Solvation  Ediel_sol  =         0.00000000
  ---------------------------------------------------
  free energy    TOTEN  =       -20.50021281 eV

  energy without entropy =      -20.49861282  energy(sigma->0) =      -20.49967948


--------------------------------------------------------------------------------------------------------




--------------------------------------- Iteration      8(   3)  ---------------------------------------


    POTLOK:  cpu time      0.0070: real time      0.0072
    SETDIJ:  cpu time      0.0133: real time      0.0133
     EDDAV:  cpu time      0.1246: real time      0.1260
       DOS:  cpu time      0.0106: real time      0.0106
    CHARGE:  cpu time      0.0124: real time      0.0124
    MIXING:  cpu time      0.0088: real time      0.0089
    --------------------------------------------
      LOOP:  cpu time      0.1767: real time      0.1785

 eigenvalue-minimisations  :  2242
 total energy-change (2. order) : 0.1034923E-03  (-0.7831766E-04)
 number of electron      26.0000351 magnetization 
 augmentation part        2.4397339 magnetization 

 Broyden mixing:
  rms(total) = 0.40730E-02    rms(broyden)= 0.40729E-02
  rms(prec ) = 0.53382E-02
  weight for this iteration     100.00

 eigenvalues of (default mixing * dielectric matrix)
  average eigenvalue GAMMA=   1.2593
  1.2593  1.2593

 Free energy of the ion-electron system (eV)
  ---------------------------------------------------
  alpha Z        PSCENC =       166.48112872
  Ewald energy   TEWEN  =     -2686.81658140
  -Hartree energ DENC   =      -462.53952406
  -exchange      EXHF   =         0.00000000
  -V(xc)+E(xc)   XCENC  =       112.33563077
  PAW double counting   =      3004.41570587    -2960.05112412
  entropy T*S    EENTRO =        -0.00157691
  eigenvalues    EBANDS =      -304.67804082
  atomic energy  EATOM  =      3110.35427263
  Solvation  Ediel_sol  =         0.00000000
  ---------------------------------------------------
  free energy    TOTEN  =       -20.50010932 eV

  energy without entropy =      -20.49853241  energy(sigma->0) =      -20.49958368


--------------------------------------------------------------------------------------------------------




--------------------------------------- Iteration      8(   4)  ---------------------------------------


    POTLOK:  cpu time      0.0075: real time      0.0077
    SETDIJ:  cpu time      0.0092: real time      0.0092
     EDDAV:  cpu time      0.0889: real time      0.0898
       DOS:  cpu time      0.0009: real time      0.0009
    CHARGE:  cpu time      0.0065: real time      0.0066
    MIXING:  cpu time      0.0008: real time      0.0008
    --------------------------------------------
      LOOP:  cpu time      0.1138: real time      0.1149

 eigenvalue-minimisations  :  2012
 total energy-change (2. order) :-0.1814975E-04  (-0.8087647E-05)
 number of electron      26.0000348 magnetization 
 augmentation part        2.4379886 magnetization 

 Broyden mixing:
  rms(total) = 0.15134E-02    rms(broyden)= 0.15133E-02
  rms(prec ) = 0.17179E-02
  weight for this iteration     100.00

 eigenvalues of (default mixing * dielectric matrix)
  average eigenvalue GAMMA=   1.6335
  2.0975  1.4015  1.4015

 Free energy of the ion-electron system (eV)
  ---------------------------------------------------
  alpha Z        PSCENC =       166.48112872
  Ewald energy   TEWEN  =     -2686.81658140
  -Hartree energ DENC   =      -462.64719343
  -exchange      EXHF   =         0.00000000
  -V(xc)+E(xc)   XCENC  =       112.34103750
  PAW double counting   =      3003.41528832    -2959.01576968
  entropy T*S    EENTRO =        -0.00157769
  eigenvalues    EBANDS =      -304.61073244
  atomic energy  EATOM  =      3110.35427263
  Solvation  Ediel_sol  =         0.00000000
  ---------------------------------------------------
  free energy    TOTEN  =       -20.50012747 eV

  energy without entropy =      -20.49854978  energy(sigma->0) =      -20.49960157


--------------------------------------------------------------------------------------------------------




--------------------------------------- Iteration      8(   5)  ---------------------------------------


    POTLOK:  cpu time      0.0073: real time      0.0075
    SETDIJ:  cpu time      0.0023: real time      0.0023
     EDDAV:  cpu time      0.0935: real time      0.0943
       DOS:  cpu time      0.0008: real time      0.0008
    CHARGE:  cpu time      0.0061: real time      0.0061
    MIXING:  cpu time      0.0007: real time      0.0007
    --------------------------------------------
      LOOP:  cpu time      0.1106: real time      0.1118

 eigenvalue-minimisations  :  2236
 total energy-change (2. order) :-0.2411889E-04  (-0.3091902E-05)
 number of electron      26.0000348 magnetization 
 augmentation part        2.4367872 magnetization 

 Broyden mixing:
  rms(total) = 0.13398E-02    rms(broyden)= 0.13396E-02
  rms(prec ) = 0.21644E-02
  weight for this iteration     100.00

 eigenvalues of (default mixing * dielectric matrix)
  average eigenvalue GAMMA=   1.6983
  2.4981  1.9783  1.2693  1.0473

 Free energy of the ion-electron system (eV)
  ---------------------------------------------------
  alpha Z        PSCENC =       166.48112872
  Ewald energy   TEWEN  =     -2686.81658140
  -Hartree energ DENC   =      -462.65049506
  -exchange      EXHF   =         0.00000000
  -V(xc)+E(xc)   XCENC  =       112.34106509
  PAW double counting   =      3003.07248812    -2958.62911877
  entropy T*S    EENTRO =        -0.00157106
  eigenvalues    EBANDS =      -304.65133986
  atomic energy  EATOM  =      3110.35427263
  Solvation  Ediel_sol  =         0.00000000
  ---------------------------------------------------
  free energy    TOTEN  =       -20.50015159 eV

  energy without entropy =      -20.49858052  energy(sigma->0) =      -20.49962790


--------------------------------------------------------------------------------------------------------




--------------------------------------- Iteration      8(   6)  ---------------------------------------


    POTLOK:  cpu time      0.0073: real time      0.0075
    SETDIJ:  cpu time      0.0024: real time      0.0024
     EDDAV:  cpu time      0.1137: real time      0.1144
       DOS:  cpu time      0.0158: real time      0.0158
    CHARGE:  cpu time      0.0209: real time      0.0209
    MIXING:  cpu time      0.0064: real time      0.0064
    --------------------------------------------
      LOOP:  cpu time      0.1664: real time      0.1674

 eigenvalue-minimisations  :  1250
 total energy-change (2. order) :-0.4603729E-05  (-0.4753837E-06)
 number of electron      26.0000348 magnetization 
 augmentation part        2.4364743 magnetization 

 Broyden mixing:
  rms(total) = 0.10766E-03    rms(broyden)= 0.10758E-03
  rms(prec ) = 0.24261E-03
  weight for this iteration     100.00

 eigenvalues of (default mixing * dielectric matrix)
  average eigenvalue GAMMA=   1.6575
  2.8961  1.8407  1.3299  1.3299  0.8910

 Free energy of the ion-electron system (eV)
  ---------------------------------------------------
  alpha Z        PSCENC =       166.48112872
  Ewald energy   TEWEN  =     -2686.81658140
  -Hartree energ DENC   =      -462.70601380
  -exchange      EXHF   =         0.00000000
  -V(xc)+E(xc)   XCENC  =       112.34371658
  PAW double counting   =      3002.81952213    -2958.33737593
  entropy T*S    EENTRO =        -0.00157032
  eigenvalues    EBANDS =      -304.63725480
  atomic energy  EATOM  =      3110.35427263
  Solvation  Ediel_sol  =         0.00000000
  ---------------------------------------------------
  free energy    TOTEN  =       -20.50015619 eV

  energy without entropy =      -20.49858587  energy(sigma->0) =      -20.49963275


--------------------------------------------------------------------------------------------------------




--------------------------------------- Iteration      8(   7)  ---------------------------------------


    POTLOK:  cpu time      0.0116: real time      0.0119
    SETDIJ:  cpu time      0.0117: real time      0.0118
     EDDAV:  cpu time      0.0388: real time      0.0390
       DOS:  cpu time      0.0008: real time      0.0008
    --------------------------------------------
      LOOP:  cpu time      0.0629: real time      0.0635

 eigenvalue-minimisations  :   676
 total energy-change (2. order) :-0.3118362E-06  (-0.3904381E-07)
 number of electron      26.0000348 magnetization 
 augmentation part        2.4364743 magnetization 

 Free energy of the ion-electron system (eV)
  ---------------------------------------------------
  alpha Z        PSCENC =       166.48112872
  Ewald energy   TEWEN  =     -2686.81658140
  -Hartree energ DENC   =      -462.70513849
  -exchange      EXHF   =         0.00000000
  -V(xc)+E(xc)   XCENC  =       112.34366733
  PAW double counting   =      3002.77214500    -2958.28873008
  entropy T*S    EENTRO =        -0.00157017
  eigenvalues    EBANDS =      -304.63935005
  atomic energy  EATOM  =      3110.35427263
  Solvation  Ediel_sol  =         0.00000000
  ---------------------------------------------------
  free energy    TOTEN  =       -20.50015650 eV

  energy without entropy =      -20.49858634  energy(sigma->0) =      -20.49963312


--------------------------------------------------------------------------------------------------------




 average (electrostatic) potential at core
  the test charge radii are     1.0703
  (the norm of the test charge is              1.0000)
       1 -76.6898       2 -76.6898
 
 
 
 E-fermi :  11.2160     XC(G=0): -12.5314     alpha+bet :-19.3715

 Fermi energy:        11.2159552328

 k-point     1 :       0.0500    0.0500    0.0500
  band No.  band energies     occupation 
      1     -43.1013      2.00000
      2     -42.6903      2.00000
      3     -19.3755      2.00000
      4     -19.3496      2.00000
      5     -19.2577      2.00000
      6     -18.4839      2.00000
      7     -18.4442      2.00000
      8     -18.3294      2.00000
      9       5.4704      2.00000
     10       7.5844      2.00000
     11       7.6455      2.00000
     12      11.5336     -0.00007
     13      11.5658     -0.00001
     14      11.8033     -0.00000
     15      14.3475      0.00000
     16      14.6015      0.00000
     17      15.9997      0.00000
     18      16.6653      0.00000

 k-point     2 :       0.1500    0.0500    0.0500
  band No.  band energies     occupation 
      1     -43.0781      2.00000
      2     -42.7070      2.00000
      3     -19.3992      2.00000
      4     -19.3005      2.00000
      5     -19.1962      2.00000
      6     -18.6020      2.00000
      7     -18.4748      2.00000
      8     -18.3634      2.00000
      9       5.8726      2.00000
     10       7.8402      2.00000
     11       7.9554      2.00000
     12      11.3932     -0.03107
     13      11.4966     -0.00053
     14      12.0959     -0.00000
     15      13.9800      0.00000
     16      14.6630      0.00000
     17      14.8530      0.00000
     18      15.5680      0.00000

 k-point     3 :       0.2500    0.0500    0.0500
  band No.  band energies     occupation 
      1     -43.0347      2.00000
      2     -42.7399      2.00000
      3     -19.4087      2.00000
      4     -19.2113      2.00000
      5     -19.0974      2.00000
      6     -18.7807      2.00000
      7     -18.5529      2.00000
      8     -18.4380      2.00000
      9       6.6059      2.00000
     10       8.2734      2.00000
     11       8.5163      2.00000
     12      11.3313     -0.06919
     13      11.4124     -0.01791
     14      12.5242     -0.00000
     15      13.1221     -0.00000
     16      13.7195     -0.00000
     17      14.3589      0.00000
     18      15.0597      0.00000

 k-point     4 :       0.3500    0.0500    0.0500
  band No.  band energies     occupation 
      1     -42.9767      2.00000
      2     -42.7872      2.00000
      3     -19.3822      2.00000
      4     -19.0898      2.00000
      5     -18.9817      2.00000
      6     -18.9714      2.00000
      7     -18.6661      2.00000
      8     -18.5483      2.00000
      9       7.5281      2.00000
     10       8.8902      2.00000
     11       9.0091      2.00000
     12      11.2414      0.58442
     13      11.4304     -0.00976
     14      12.2982     -0.00000
     15      12.8077     -0.00000
     16      13.0942     -0.00000
     17      13.3408     -0.00000
     18      15.3618      0.00000

 k-point     5 :       0.4500    0.0500    0.0500
  band No.  band energies     occupation 
      1     -42.9114      2.00000
      2     -42.8460      2.00000
      3     -19.3027      2.00000
      4     -19.1654      2.00000
      5     -18.9486      2.00000
      6     -18.8289      2.00000
      7     -18.8025      2.00000
      8     -18.6832      2.00000
      9       8.4221      2.00000
     10       8.9948      2.00000
     11       9.7055      2.00000
     12      10.5879      2.00000
     13      11.7145     -0.00000
     14      12.1598     -0.00000
     15      12.1684     -0.00000
     16      12.5887     -0.00000
     17      13.7895     -0.00000
     18      14.5631      0.00000

 k-point     6 :       0.1500    0.1500    0.0500
  band No.  band energies     occupation 
      1     -43.0566      2.00000
      2     -42.7217      2.00000
      3     -19.4582      2.00000
      4     -19.2419      2.00000
      5     -19.1194      2.00000
      6     -18.7544      2.00000
      7     -18.4485      2.00000
      8     -18.4029      2.00000
      9       6.2382      2.00000
     10       8.1093      2.00000
     11       8.2287      2.00000
     12      11.0601      2.04997
     13      11.3493     -0.06777
     14      12.6092     -0.00000
     15      13.7206     -0.00000
     16      14.1548      0.00000
     17      14.4336      0.00000
     18      14.9044      0.00000

 k-point     7 :       0.2500    0.1500    0.0500
  band No.  band energies     occupation 
      1     -43.0167      2.00000
      2     -42.7506      2.00000
      3     -19.5024      2.00000
      4     -19.1496      2.00000
      5     -19.0091      2.00000
      6     -18.9513      2.00000
      7     -18.4950      2.00000
      8     -18.4602      2.00000
      9       6.8860      2.00000
     10       8.4635      2.00000
     11       8.8007      2.00000
     12      10.8260      2.00000
     13      11.1756      1.62527
     14      12.6911     -0.00000
     15      13.2360     -0.00000
     16      13.6483     -0.00000
     17      13.9170     -0.00000
     18      14.8402      0.00000

 k-point     8 :       0.3500    0.1500    0.0500
  band No.  band energies     occupation 
      1     -42.9637      2.00000
      2     -42.7926      2.00000
      3     -19.5050      2.00000
      4     -19.1544      2.00000
      5     -19.0272      2.00000
      6     -18.8843      2.00000
      7     -18.6049      2.00000
      8     -18.5320      2.00000
      9       7.6608      2.00000
     10       8.8445      2.00000
     11       9.3596      2.00000
     12      10.7431      2.00000
     13      11.0142      2.01509
     14      11.9336     -0.00000
     15      13.0936     -0.00000
     16      13.2127     -0.00000
     17      13.9624      0.00000
     18      15.3612      0.00000

 k-point     9 :       0.4500    0.1500    0.0500
  band No.  band energies     occupation 
      1     -42.9042      2.00000
      2     -42.8452      2.00000
      3     -19.4489      2.00000
      4     -19.3288      2.00000
      5     -18.8861      2.00000
      6     -18.7554      2.00000
      7     -18.7404      2.00000
      8     -18.6339      2.00000
      9       8.3759      2.00000
     10       8.8522      2.00000
     11       9.8966      2.00000
     12      10.4665      2.00000
     13      11.0666      2.05586
     14      11.4193     -0.01433
     15      12.8937     -0.00000
     16      12.9502     -0.00000
     17      14.7140      0.00000
     18      15.4021      0.00000

 k-point    10 :       0.2500    0.2500    0.0500
  band No.  band energies     occupation 
      1     -42.9835      2.00000
      2     -42.7720      2.00000
      3     -19.5893      2.00000
      4     -19.1599      2.00000
      5     -19.0670      2.00000
      6     -18.8863      2.00000
      7     -18.5354      2.00000
      8     -18.4554      2.00000
      9       7.3260      2.00000
     10       8.5810      2.00000
     11       9.4511      2.00000
     12      10.4136      2.00000
     13      11.0772      2.06445
     14      11.7719     -0.00000
     15      13.2837     -0.00000
     16      14.0418      0.00000
     17      14.2069      0.00000
     18      14.6263      0.00000

 k-point    11 :       0.3500    0.2500    0.0500
  band No.  band energies     occupation 
      1     -42.9399      2.00000
      2     -42.8039      2.00000
      3     -19.6322      2.00000
      4     -19.3599      2.00000
      5     -18.9627      2.00000
      6     -18.7602      2.00000
      7     -18.6208      2.00000
      8     -18.4813      2.00000
      9       7.7530      2.00000
     10       8.5654      2.00000
     11      10.1588      2.00000
     12      10.2087      2.00000
     13      11.0941      2.07091
     14      11.1845      1.50438
     15      13.1151     -0.00000
     16      13.9568      0.00000
     17      14.9765      0.00000
     18      15.0961      0.00000

 k-point    12 :       0.4500    0.2500    0.0500
  band No.  band energies     occupation 
      1     -42.8917      2.00000
      2     -42.8448      2.00000
      3     -19.6109      2.00000
      4     -19.5177      2.00000
      5     -18.8455      2.00000
      6     -18.7276      2.00000
      7     -18.6438      2.00000
      8     -18.5473      2.00000
      9       8.0958      2.00000
     10       8.3788      2.00000
     11      10.2343      2.00000
     12      10.4351      2.00000
     13      10.9117      2.00015
     14      11.1874      1.46207
     15      13.4570     -0.00000
     16      13.7725     -0.00000
     17      15.5331      0.00000
     18      16.0183      0.00000

 k-point    13 :       0.3500    0.3500    0.0500
  band No.  band energies     occupation 
      1     -42.9094      2.00000
      2     -42.8220      2.00000
      3     -19.7173      2.00000
      4     -19.5449      2.00000
      5     -18.8883      2.00000
      6     -18.6681      2.00000
      7     -18.6435      2.00000
      8     -18.4625      2.00000
      9       7.7474      2.00000
     10       8.2206      2.00000
     11       9.8632      2.00000
     12      10.4060      2.00000
     13      11.1242      2.02855
     14      11.8199     -0.00000
     15      13.4009     -0.00000
     16      14.5292      0.00000
     17      14.9363      0.00000
     18      15.9863      0.00000

 k-point    14 :       0.4500    0.3500    0.0500
  band No.  band energies     occupation 
      1     -42.8769      2.00000
      2     -42.8468      2.00000
      3     -19.7357      2.00000
      4     -19.6767      2.00000
      5     -18.8088      2.00000
      6     -18.7328      2.00000
      7     -18.5495      2.00000
      8     -18.4868      2.00000
      9       7.7748      2.00000
     10       7.9315      2.00000
     11       9.7749      2.00000
     12       9.9601      2.00000
     13      11.9166     -0.00000
     14      12.2356     -0.00000
     15      14.0015      0.00000
     16      14.4707      0.00000
     17      15.4000      0.00000
     18      16.3587      0.00000

 k-point    15 :       0.4500    0.4500    0.0500
  band No.  band energies     occupation 
      1     -42.8630      2.00000
      2     -42.8526      2.00000
      3     -19.7949      2.00000
      4     -19.7747      2.00000
      5     -18.7753      2.00000
      6     -18.7491      2.00000
      7     -18.4887      2.00000
      8     -18.4670      2.00000
      9       7.6062      2.00000
     10       7.6576      2.00000
     11       9.5572      2.00000
     12       9.6210      2.00000
     13      12.9767     -0.00000
     14      13.2040     -0.00000
     15      14.4985      0.00000
     16      14.7354      0.00000
     17      15.2209      0.00000
     18      15.7656      0.00000

 k-point    16 :       0.1500    0.1500    0.1500
  band No.  band energies     occupation 
      1     -43.0373      2.00000
      2     -42.7349      2.00000
      3     -19.4081      2.00000
      4     -19.3476      2.00000
      5     -18.9939      2.00000
      6     -18.8566      2.00000
      7     -18.4968      2.00000
      8     -18.4007      2.00000
      9       6.5826      2.00000
     10       8.3969      2.00000
     11       8.4554      2.00000
     12      10.9265      2.00033
     13      10.9676      2.00249
     14      12.5848     -0.00000
     15      13.2195     -0.00000
     16      14.2045      0.00000
     17      14.4049      0.00000
     18      15.7174      0.00000

 k-point    17 :       0.2500    0.1500    0.1500
  band No.  band energies     occupation 
      1     -43.0006      2.00000
      2     -42.7603      2.00000
      3     -19.4778      2.00000
      4     -19.2616      2.00000
      5     -19.0439      2.00000
      6     -18.8715      2.00000
      7     -18.5478      2.00000
      8     -18.4375      2.00000
      9       7.1925      2.00000
     10       8.7637      2.00000
     11       8.9723      2.00000
     12      10.6759      2.00000
     13      10.7340      2.00000
     14      11.6437     -0.00000
     15      13.9077     -0.00000
     16      13.9747      0.00000
     17      14.6329      0.00000
     18      14.7402      0.00000

 k-point    18 :       0.3500    0.1500    0.1500
  band No.  band energies     occupation 
      1     -42.9520      2.00000
      2     -42.7976      2.00000
      3     -19.5119      2.00000
      4     -19.2326      2.00000
      5     -19.1301      2.00000
      6     -18.7525      2.00000
      7     -18.6656      2.00000
      8     -18.4818      2.00000
      9       7.8801      2.00000
     10       9.1994      2.00000
     11       9.2747      2.00000
     12      10.4614      2.00000
     13      10.7320      2.00000
     14      11.2203      0.92578
     15      13.4414     -0.00000
     16      13.7672     -0.00000
     17      14.7728      0.00000
     18      15.2799      0.00000

 k-point    19 :       0.4500    0.1500    0.1500
  band No.  band energies     occupation 
      1     -42.8979      2.00000
      2     -42.8446      2.00000
      3     -19.4838      2.00000
      4     -19.3875      2.00000
      5     -18.9756      2.00000
      6     -18.8149      2.00000
      7     -18.6435      2.00000
      8     -18.5512      2.00000
      9       8.4850      2.00000
     10       8.9848      2.00000
     11       9.6990      2.00000
     12      10.1331      2.00000
     13      11.0316      2.02561
     14      11.2324      0.72625
     15      13.1568     -0.00000
     16      13.2530     -0.00000
     17      15.2295      0.00000
     18      15.3968      0.00000

 k-point    20 :       0.2500    0.2500    0.1500
  band No.  band energies     occupation 
      1     -42.9700      2.00000
      2     -42.7791      2.00000
      3     -19.5337      2.00000
      4     -19.2183      2.00000
      5     -19.2166      2.00000
      6     -18.7584      2.00000
      7     -18.5293      2.00000
      8     -18.5105      2.00000
      9       7.6864      2.00000
     10       8.9833      2.00000
     11       9.5220      2.00000
     12      10.2893      2.00000
     13      10.5921      2.00000
     14      10.8151      2.00000
     15      14.2708      0.00000
     16      14.3025      0.00000
     17      14.6118      0.00000
     18      14.9044      0.00000

 k-point    21 :       0.3500    0.2500    0.1500
  band No.  band energies     occupation 
      1     -42.9299      2.00000
      2     -42.8072      2.00000
      3     -19.5858      2.00000
      4     -19.3858      2.00000
      5     -19.1017      2.00000
      6     -18.6606      2.00000
      7     -18.6488      2.00000
      8     -18.5091      2.00000
      9       8.1166      2.00000
     10       8.9370      2.00000
     11       9.9461      2.00000
     12      10.0892      2.00000
     13      10.6829      2.00000
     14      10.7106      2.00000
     15      13.8296     -0.00000
     16      14.0924      0.00000
     17      15.0648      0.00000
     18      15.8627      0.00000

 k-point    22 :       0.4500    0.2500    0.1500
  band No.  band energies     occupation 
      1     -42.8860      2.00000
      2     -42.8437      2.00000
      3     -19.5848      2.00000
      4     -19.5161      2.00000
      5     -18.9534      2.00000
      6     -18.7963      2.00000
      7     -18.5844      2.00000
      8     -18.5332      2.00000
      9       8.4025      2.00000
     10       8.6767      2.00000
     11       9.9707      2.00000
     12      10.0062      2.00000
     13      11.0071      2.01189
     14      11.0369      2.02960
     15      13.7563     -0.00000
     16      13.8663     -0.00000
     17      15.3927      0.00000
     18      15.6182      0.00000

 k-point    23 :       0.3500    0.3500    0.1500
  band No.  band energies     occupation 
      1     -42.9018      2.00000
      2     -42.8229      2.00000
      3     -19.6566      2.00000
      4     -19.5332      2.00000
      5     -19.0139      2.00000
      6     -18.6882      2.00000
      7     -18.5913      2.00000
      8     -18.5243      2.00000
      9       8.1601      2.00000
     10       8.5541      2.00000
     11       9.8004      2.00000
     12      10.1121      2.00000
     13      11.0194      2.01786
     14      11.2395      0.61294
     15      13.9198     -0.00000
     16      14.5905      0.00000
     17      14.9808      0.00000
     18      16.0870      0.00000

 k-point    24 :       0.4500    0.3500    0.1500
  band No.  band energies     occupation 
      1     -42.8721      2.00000
      2     -42.8449      2.00000
      3     -19.6805      2.00000
      4     -19.6384      2.00000
      5     -18.8986      2.00000
      6     -18.7817      2.00000
      7     -18.5489      2.00000
      8     -18.5300      2.00000
      9       8.1563      2.00000
     10       8.2729      2.00000
     11       9.7197      2.00000
     12       9.8463      2.00000
     13      11.6881     -0.00000
     14      11.7713     -0.00000
     15      14.2538      0.00000
     16      14.5266      0.00000
     17      15.3065      0.00000
     18      15.7386      0.00000

 k-point    25 :       0.4500    0.4500    0.1500
  band No.  band energies     occupation 
      1     -42.8592      2.00000
      2     -42.8498      2.00000
      3     -19.7312      2.00000
      4     -19.7169      2.00000
      5     -18.8364      2.00000
      6     -18.7922      2.00000
      7     -18.5358      2.00000
      8     -18.5329      2.00000
      9       8.0028      2.00000
     10       8.0354      2.00000
     11       9.5409      2.00000
     12       9.5957      2.00000
     13      12.5043     -0.00000
     14      12.5647     -0.00000
     15      14.6672      0.00000
     16      14.8197      0.00000
     17      15.2488      0.00000
     18      15.5016      0.00000

 k-point    26 :       0.2500    0.2500    0.2500
  band No.  band energies     occupation 
      1     -42.9450      2.00000
      2     -42.7934      2.00000
      3     -19.4280      2.00000
      4     -19.3580      2.00000
      5     -19.3106      2.00000
      6     -18.6531      2.00000
      7     -18.6155      2.00000
      8     -18.5195      2.00000
      9       8.2678      2.00000
     10       9.6372      2.00000
     11       9.6740      2.00000
     12       9.9800      2.00000
     13      10.1168      2.00000
     14      10.1512      2.00000
     15      14.5305      0.00000
     16      14.6604      0.00000
     17      15.0311      0.00000
     18      15.1397      0.00000

 k-point    27 :       0.3500    0.2500    0.2500
  band No.  band energies     occupation 
      1     -42.9119      2.00000
      2     -42.8144      2.00000
      3     -19.5132      2.00000
      4     -19.4340      2.00000
      5     -19.2238      2.00000
      6     -18.7063      2.00000
      7     -18.5872      2.00000
      8     -18.5470      2.00000
      9       8.6699      2.00000
     10       9.2868      2.00000
     11       9.7717      2.00000
     12       9.9802      2.00000
     13      10.2072      2.00000
     14      10.5060      2.00000
     15      14.4365      0.00000
     16      14.4455      0.00000
     17      15.0373      0.00000
     18      15.4086      0.00000

 k-point    28 :       0.4500    0.2500    0.2500
  band No.  band energies     occupation 
      1     -42.8762      2.00000
      2     -42.8425      2.00000
      3     -19.5512      2.00000
      4     -19.5223      2.00000
      5     -19.0519      2.00000
      6     -18.8718      2.00000
      7     -18.5510      2.00000
      8     -18.5408      2.00000
      9       8.7475      2.00000
     10       8.9010      2.00000
     11       9.8394      2.00000
     12       9.8899      2.00000
     13      10.7421      2.00000
     14      10.9584      2.00164
     15      14.1998      0.00000
     16      14.2469      0.00000
     17      15.3440      0.00000
     18      15.4121      0.00000

 k-point    29 :       0.3500    0.3500    0.2500
  band No.  band energies     occupation 
      1     -42.8882      2.00000
      2     -42.8256      2.00000
      3     -19.5409      2.00000
      4     -19.5160      2.00000
      5     -19.1664      2.00000
      6     -18.7082      2.00000
      7     -18.6418      2.00000
      8     -18.5669      2.00000
      9       8.9061      2.00000
     10       8.9608      2.00000
     11       9.7378      2.00000
     12      10.0050      2.00000
     13      10.4920      2.00000
     14      10.7964      2.00000
     15      14.5720      0.00000
     16      14.8143      0.00000
     17      15.0254      0.00000
     18      15.4220      0.00000

 k-point    30 :       0.4500    0.3500    0.2500
  band No.  band energies     occupation 
      1     -42.8639      2.00000
      2     -42.8423      2.00000
      3     -19.5788      2.00000
      4     -19.5716      2.00000
      5     -19.0223      2.00000
      6     -18.8555      2.00000
      7     -18.6122      2.00000
      8     -18.5786      2.00000
      9       8.7649      2.00000
     10       8.7875      2.00000
     11       9.7182      2.00000
     12       9.8514      2.00000
     13      11.1001      2.06945
     14      11.2544      0.39933
     15      14.6477      0.00000
     16      14.7548      0.00000
     17      15.2881      0.00000
     18      15.4070      0.00000

 k-point    31 :       0.4500    0.4500    0.2500
  band No.  band energies     occupation 
      1     -42.8529      2.00000
      2     -42.8454      2.00000
      3     -19.6095      2.00000
      4     -19.6084      2.00000
      5     -18.9363      2.00000
      6     -18.8585      2.00000
      7     -18.6582      2.00000
      8     -18.6276      2.00000
      9       8.6712      2.00000
     10       8.7047      2.00000
     11       9.5594      2.00000
     12       9.6391      2.00000
     13      11.7199     -0.00000
     14      11.7792     -0.00000
     15      14.9392      0.00000
     16      15.0126      0.00000
     17      15.2911      0.00000
     18      15.3685      0.00000

 k-point    32 :       0.3500    0.3500    0.3500
  band No.  band energies     occupation 
      1     -42.8716      2.00000
      2     -42.8313      2.00000
      3     -19.4967      2.00000
      4     -19.3810      2.00000
      5     -19.3039      2.00000
      6     -18.8035      2.00000
      7     -18.7049      2.00000
      8     -18.5812      2.00000
      9       9.0367      2.00000
     10       9.7501      2.00000
     11       9.7511      2.00000
     12       9.8920      2.00000
     13      10.4533      2.00000
     14      10.4785      2.00000
     15      15.0305      0.00000
     16      15.0587      0.00000
     17      15.0837      0.00000
     18      15.0989      0.00000

 k-point    33 :       0.4500    0.3500    0.3500
  band No.  band energies     occupation 
      1     -42.8546      2.00000
      2     -42.8407      2.00000
      3     -19.4937      2.00000
      4     -19.4548      2.00000
      5     -19.1287      2.00000
      6     -18.9334      2.00000
      7     -18.7071      2.00000
      8     -18.6404      2.00000
      9       9.0677      2.00000
     10       9.3064      2.00000
     11       9.8701      2.00000
     12      10.1216      2.00000
     13      10.6381      2.00000
     14      10.8722      2.00001
     15      14.9924      0.00000
     16      15.0292      0.00000
     17      15.3046      0.00000
     18      15.3179      0.00000

 k-point    34 :       0.4500    0.4500    0.3500
  band No.  band energies     occupation 
      1     -42.8462      2.00000
      2     -42.8414      2.00000
      3     -19.4639      2.00000
      4     -19.4412      2.00000
      5     -19.0492      2.00000
      6     -18.9155      2.00000
      7     -18.8301      2.00000
      8     -18.7499      2.00000
      9       9.2562      2.00000
     10       9.4990      2.00000
     11       9.6803      2.00000
     12       9.9354      2.00000
     13      10.9477      2.00098
     14      11.0385      2.03085
     15      15.2107      0.00000
     16      15.2359      0.00000
     17      15.3288      0.00000
     18      15.3404      0.00000

 k-point    35 :       0.4500    0.4500    0.4500
  band No.  band energies     occupation 
      1     -42.8413      2.00000
      2     -42.8397      2.00000
      3     -19.3073      2.00000
      4     -19.2421      2.00000
      5     -19.1676      2.00000
      6     -19.0315      2.00000
      7     -18.9271      2.00000
      8     -18.8668      2.00000
      9       9.6382      2.00000
     10       9.9210      2.00000
     11       9.9567      2.00000
     12      10.3557      2.00000
     13      10.4130      2.00000
     14      10.4852      2.00000
     15      15.3471      0.00000
     16      15.3481      0.00000
     17      15.3765      0.00000
     18      15.3820      0.00000


--------------------------------------------------------------------------------------------------------


 soft charge-density along one line, spin component           1
         0         1         2         3         4         5         6         7         8         9
 total charge-density along one line
 
 pseudopotential strength for first ion, spin component:           1
  5.487 -19.431   0.000   0.000   0.000  -0.000  -0.000  -0.000
-19.431   8.426   0.000   0.000   0.000  -0.000  -0.000  -0.000
  0.000   0.000  -9.359  -0.000   0.000   5.446   0.000  -0.000
  0.000   0.000  -0.000  -9.324  -0.000   0.000   5.406   0.000
  0.000   0.000   0.000  -0.000  -9.359  -0.000   0.000   5.446
 -0.000  -0.000   5.446   0.000  -0.000   8.317  -0.000   0.000
 -0.000  -0.000   0.000   5.406   0.000  -0.000   8.341   0.000
 -0.000  -0.000  -0.000   0.000   5.446   0.000   0.000   8.317
  0.000   0.000   0.000   0.000   0.000  -0.000  -0.000  -0.000
 -0.000  -0.000   0.000   0.000   0.000  -0.000  -0.000  -0.000
  0.014   0.007  -0.000   0.000  -0.000   0.000  -0.000   0.000
 -0.000  -0.000   0.000   0.000   0.000  -0.000  -0.000  -0.000
  0.000   0.000  -0.000   0.000  -0.000   0.000  -0.000  -0.000
  0.000   0.000   0.000   0.000   0.000  -0.000  -0.000  -0.000
 -0.000  -0.000   0.000   0.000   0.000  -0.000  -0.000  -0.000
  0.019   0.009  -0.000   0.000  -0.000   0.000  -0.000   0.000
 -0.000  -0.000   0.000   0.000   0.000  -0.000  -0.000  -0.000
  0.000   0.000  -0.000   0.000   0.000   0.000  -0.000   0.000
 total augmentation occupancy for first ion, spin component:           1
  1.997  -0.037   0.000   0.000   0.000   0.000   0.000   0.000  -0.000   0.000  -0.000  -0.000   0.000  -0.000  -0.000   0.000
 -0.037   1.466   0.000   0.000   0.000   0.000   0.000   0.000   0.000   0.000  -0.000   0.000   0.000   0.000   0.000   0.000
  0.000   0.000   1.985   0.000  -0.000  -0.029  -0.000   0.000   0.000   0.000   0.000   0.000   0.000   0.000   0.000   0.000
  0.000   0.000   0.000   2.024   0.000  -0.000  -0.029  -0.000  -0.000   0.000   0.000   0.000   0.000   0.000   0.000  -0.000
  0.000   0.000  -0.000   0.000   1.985   0.000  -0.000  -0.029   0.000   0.000   0.000   0.000   0.000   0.000   0.000   0.000
  0.000   0.000  -0.029  -0.000   0.000   0.063   0.000  -0.000   0.000   0.000  -0.000   0.000   0.000   0.000   0.000   0.000
  0.000   0.000  -0.000  -0.029  -0.000   0.000   0.065   0.000   0.000   0.000   0.000   0.000   0.000   0.000   0.000   0.000
  0.000   0.000   0.000  -0.000  -0.029  -0.000   0.000   0.063  -0.000   0.000   0.000   0.000   0.000   0.000   0.000   0.000
  0.000   0.000   0.000   0.000   0.000   0.000   0.000  -0.000   2.505   0.000   0.000   0.000  -0.000  -0.922  -0.000  -0.000
  0.000   0.000   0.000   0.000   0.000   0.000   0.000   0.000   0.000   2.554   0.000  -0.000  -0.000  -0.000  -0.941  -0.000
 -0.000  -0.000  -0.000   0.000   0.000   0.000   0.000   0.000   0.000   0.000   2.167   0.000   0.000  -0.000  -0.000  -0.861
 -0.000   0.000   0.000   0.000   0.000   0.000   0.000   0.000   0.000  -0.000   0.000   2.554   0.000  -0.000   0.000  -0.000
  0.000   0.000   0.000   0.000   0.000   0.000   0.000   0.000  -0.000  -0.000   0.000   0.000   2.112   0.000   0.000  -0.000
 -0.000  -0.000   0.000   0.000   0.000   0.000   0.000   0.000  -0.922  -0.000  -0.000  -0.000   0.000   0.354   0.000   0.000
 -0.000  -0.000   0.000   0.000   0.000   0.000   0.000   0.000  -0.000  -0.941  -0.000   0.000   0.000   0.000   0.361   0.000
  0.000   0.000  -0.000  -0.000  -0.000   0.000   0.000   0.000  -0.000  -0.000  -0.861  -0.000  -0.000   0.000   0.000   0.352
  0.000   0.000   0.000   0.000   0.000   0.000   0.000   0.000  -0.000   0.000  -0.000  -0.941  -0.000   0.000  -0.000   0.000
 -0.000  -0.000   0.000   0.000   0.000   0.000   0.000   0.000   0.000   0.000  -0.000  -0.000  -0.839  -0.000  -0.000   0.000


------------------------ aborting loop because EDIFF is reached ----------------------------------------


    CHARGE:  cpu time      0.0061: real time      0.0061
    FORLOC:  cpu time      0.0002: real time      0.0002
    FORNL :  cpu time      0.0262: real time      0.0263
    STRESS:  cpu time      0.0807: real time      0.0811
    FORCOR:  cpu time      0.0066: real time      0.0067
    FORHAR:  cpu time      0.0015: real time      0.0015
    MIXING:  cpu time      0.0022: real time      0.0022
    OFIELD:  cpu time      0.0000: real time      0.0000

  FORCE on cell =-STRESS in cart. coord.  units (eV):
  Direction    XX          YY          ZZ          XY          YZ          ZX
  --------------------------------------------------------------------------------------
  Alpha Z   166.48113   166.48113   166.48113
  Ewald    -895.16565  -895.16565  -896.48508     0.00000    -0.00000    -0.00000
  Hartree   153.44002   153.44002   155.81949    -0.00000    -0.00000    -0.00000
  E(xc)    -118.62068  -118.62068  -118.56375    -0.00000    -0.00000     0.00000
  Local     177.16810   177.16810   168.09885     0.00000    -0.00000    -0.00000
  n-local    -4.95612   -27.81493   -41.07783     1.50863    -0.50416    -0.32822
  augment    36.29987    36.29987    37.11599    -0.00000    -0.00000     0.00000
  Kinetic   471.80756   507.06770   543.57271     2.45845    -2.66174     1.38217
  Fock        0.00000     0.00000     0.00000     0.00000     0.00000     0.00000
  -------------------------------------------------------------------------------------
  Total      -0.00558    -0.00558    -0.00569    -0.00000    -0.00000    -0.00000
  in kB      -0.24973    -0.24973    -0.25463    -0.00000    -0.00000    -0.00000
  external pressure =       -0.25 kB  Pullay stress =        0.00 kB


 VOLUME and BASIS-vectors are now :
 -----------------------------------------------------------------------------
  energy-cutoff  :      430.00
  volume of cell :       35.81
      direct lattice vectors                 reciprocal lattice vectors
     3.285540453  0.000000000  0.000000000     0.304363929  0.000000000  0.000000000
    -0.000000000  3.285540453  0.000000000    -0.000000000  0.304363929  0.000000000
     0.000000000  0.000000000  3.317632379    -0.000000000 -0.000000000  0.301419773

  length of vectors
     3.285540453  3.285540453  3.317632379     0.304363929  0.304363929  0.301419773


 FORCES acting on ions
    electron-ion (+dipol)            ewald-force                    non-local-force                 convergence-correction
 -----------------------------------------------------------------------------------------------
   0.404E-14 -.831E-14 -.199E-13   -.272E-13 -.125E-13 -.489E-14   -.564E-24 -.562E-24 -.135E-23   0.215E-13 0.121E-13 -.228E-13
   0.196E-12 0.391E-12 -.297E-11   0.300E-13 0.992E-14 0.537E-14   0.811E-25 0.462E-24 0.532E-24   -.357E-14 0.263E-13 -.107E-13
 -----------------------------------------------------------------------------------------------
   0.200E-12 0.383E-12 -.299E-11   0.275E-14 -.255E-14 0.481E-15   -.483E-24 -.996E-25 -.822E-24   0.179E-13 0.384E-13 -.335E-13
 
 
 POSITION                                       TOTAL-FORCE (eV/Angst)
 -----------------------------------------------------------------------------------
     -0.00000     -0.00000     -0.00000         0.000000      0.000000     -0.000000
      1.64277      1.64277      1.65882        -0.000000     -0.000000      0.000000
 -----------------------------------------------------------------------------------
    total drift:                                0.000000      0.000000     -0.000000


--------------------------------------------------------------------------------------------------------



  FREE ENERGIE OF THE ION-ELECTRON SYSTEM (eV)
  ---------------------------------------------------
  free  energy   TOTEN  =       -20.50015650 eV

  energy  without entropy=      -20.49858634  energy(sigma->0) =      -20.49963312
 
 d Force = 0.0000000E+00[ 0.000E+00, 0.000E+00]  d Energy = 0.6380104E-02-0.638E-02
 d Force = 0.0000000E+00[ 0.000E+00, 0.000E+00]  d Ewald  = 0.1390344E+01-0.139E+01


--------------------------------------------------------------------------------------------------------


    POTLOK:  cpu time      0.0090: real time      0.0090


--------------------------------------------------------------------------------------------------------


 stress matrix after NEB project (eV)
     -0.00558      0.00000     -0.00000
     -0.00000     -0.00558     -0.00000
      0.00000     -0.00000     -0.00569
  FORCES: max atom, RMS     0.000000    0.000000
  FORCE total and by dimension    0.000000    0.000000
  Stress total and by dimension    0.009732    0.005692


--------------------------------------------------------------------------------------------------------


  
 reached required accuracy - stopping structural energy minimisation
     LOOP+:  cpu time      0.9427: real time      0.9828
    4ORBIT:  cpu time      0.0000: real time      0.0000

 total amount of memory used by VASP MPI-rank0    33324. kBytes
=======================================================================

   base      :      30000. kBytes
   nonlr-proj:        871. kBytes
   fftplans  :        578. kBytes
   grid      :        822. kBytes
   one-center:         15. kBytes
   wavefun   :       1038. kBytes
 
  
  
 General timing and accounting informations for this job:
 ========================================================
  
                  Total CPU time used (sec):        6.507
                            User time (sec):        6.240
                          System time (sec):        0.268
                         Elapsed time (sec):        8.793
  
                   Maximum memory used (kb):       69120.
                   Average memory used (kb):          N/A
  
                          Minor page faults:        22764
                          Major page faults:            3
                 Voluntary context switches:         1481
