srun: ROUTE: split_hostlist: hl=k18r1n[09-10] tree_width 0
srun: ROUTE: split_hostlist: hl=k18r1n[09-10] tree_width 0
srun: ROUTE: split_hostlist: hl=k18r1n[09-10] tree_width 0
srun: ROUTE: split_hostlist: hl=k18r1n[09-10] tree_width 0
 running on   64 total cores
 distrk:  each k-point on    8 cores,    8 groups
 distr:  one band on    4 cores,    2 groups
 vasp.6.3.2 27Jun22 (build Jun 20 2023 10:49:10) complex                        
  
 POSCAR found type information on POSCAR Nb
 POSCAR found :  1 types and       2 ions
 scaLAPACK will be used
 -----------------------------------------------------------------------------
|                                                                             |
|               ----> ADVICE to this user running VASP <----                  |
|                                                                             |
|     You have a (more or less) 'small supercell' and for smaller cells       |
|     it is recommended to use the reciprocal-space projection scheme!        |
|     The real-space optimization is not efficient for small cells and it     |
|     is also less accurate ...                                               |
|     Therefore, set LREAL=.FALSE. in the INCAR file.                         |
|                                                                             |
 -----------------------------------------------------------------------------

 LDA part: xc-table for Pade appr. of Perdew
 POSCAR found type information on POSCAR Nb
 POSCAR found :  1 types and       2 ions
 POSCAR, INCAR and KPOINTS ok, starting setup
 FFT: planning ... GRIDC
 FFT: planning ... GRID_SOFT
 FFT: planning ... GRID
 WAVECAR not read
 entering main loop
       N       E                     dE             d eps       ncg     rms          rms(c)
DAV:   1     0.259946291727E+03    0.25995E+03   -0.13586E+04  1260   0.132E+03
DAV:   2    -0.433165071276E+01   -0.26428E+03   -0.26021E+03  1492   0.520E+02
DAV:   3    -0.206648120592E+02   -0.16333E+02   -0.15853E+02  2408   0.957E+01
DAV:   4    -0.212830131891E+02   -0.61820E+00   -0.61563E+00  1668   0.162E+01
DAV:   5    -0.213080582447E+02   -0.25045E-01   -0.24975E-01  2122   0.307E+00    0.102E+01
DAV:   6    -0.205111293347E+02    0.79693E+00   -0.15779E+00  1690   0.126E+01    0.348E+00
DAV:   7    -0.204153636092E+02    0.95766E-01   -0.72800E-01  2254   0.755E+00    0.149E+00
DAV:   8    -0.204261750901E+02   -0.10811E-01   -0.45155E-02  1766   0.214E+00    0.384E-01
DAV:   9    -0.204258416574E+02    0.33343E-03   -0.80988E-03  1790   0.100E+00    0.477E-02
DAV:  10    -0.204258122115E+02    0.29446E-04   -0.29805E-04  1816   0.152E-01    0.341E-02
DAV:  11    -0.204258131560E+02   -0.94453E-06   -0.30119E-05  1682   0.763E-02    0.551E-03
DAV:  12    -0.204258138779E+02   -0.72188E-06   -0.12705E-06  1214   0.108E-02
   1 F= -.20425814E+02 E0= -.20424773E+02  d E =-.204258E+02
 curvature:   0.00 expect dE= 0.000E+00 dE for cont linesearch  0.000E+00
 trial: gam= 0.00000 g(F)=  0.939E-61 g(S)=  0.552E-02 ort = 0.000E+00 (trialstep = 0.100E+01)
 search vector abs. value=  0.552E-02
 bond charge predicted
       N       E                     dE             d eps       ncg     rms          rms(c)
DAV:   1    -0.205471789917E+02   -0.12137E+00   -0.26428E+00  1340   0.200E+01    0.192E+00
DAV:   2    -0.204996403104E+02    0.47539E-01   -0.23046E-01  1726   0.541E+00    0.853E-01
DAV:   3    -0.204850562161E+02    0.14584E-01   -0.84742E-02  2276   0.268E+00    0.428E-01
DAV:   4    -0.204863155393E+02   -0.12593E-02   -0.89778E-03  2002   0.757E-01    0.155E-01
DAV:   5    -0.204875217149E+02   -0.12062E-02   -0.34259E-03  2280   0.413E-01    0.139E-01
DAV:   6    -0.204876652273E+02   -0.14351E-03   -0.51358E-04  1626   0.206E-01    0.104E-02
DAV:   7    -0.204876714909E+02   -0.62635E-05   -0.42313E-05  1862   0.429E-02    0.840E-03
DAV:   8    -0.204876686086E+02    0.28823E-05   -0.20763E-06  1038   0.153E-02    0.160E-03
DAV:   9    -0.204876685861E+02    0.22490E-07   -0.24164E-07   764   0.584E-03
   2 F= -.20487669E+02 E0= -.20487111E+02  d E =-.618547E-01
 trial-energy change:   -0.061855  1 .order   -0.003285   -0.005518   -0.001052
 step:   1.0029(harm=  1.2356)  dis= 0.00000  next Energy=   -20.487670 (dE=-0.619E-01)
 bond charge predicted
       N       E                     dE             d eps       ncg     rms          rms(c)
DAV:   1    -0.204878631923E+02   -0.19458E-03   -0.22643E-05  1382   0.599E-02    0.603E-03
DAV:   2    -0.204878629020E+02    0.29022E-06   -0.17297E-06   844   0.160E-02
   3 F= -.20487863E+02 E0= -.20487306E+02  d E =-.620490E-01
 curvature:  -0.02 expect dE=-0.393E-05 dE for cont linesearch -0.393E-05
 ZBRENT: increasing intervall
 opt :   1.0088  next Energy=   -20.487871 (dE=-0.621E-01)
 bond charge predicted
       N       E                     dE             d eps       ncg     rms          rms(c)
DAV:   1    -0.204882537697E+02   -0.39058E-03   -0.81411E-05  1328   0.113E-01    0.106E-02
DAV:   2    -0.204882530264E+02    0.74338E-06   -0.73274E-06  1720   0.308E-02
   4 F= -.20488253E+02 E0= -.20487697E+02  d E =-.624391E-01
 curvature:  -0.03 expect dE=-0.924E-05 dE for cont linesearch -0.924E-05
 ZBRENT: increasing intervall
 opt :   1.0206  next Energy=   -20.488270 (dE=-0.625E-01)
 bond charge predicted
       N       E                     dE             d eps       ncg     rms          rms(c)
DAV:   1    -0.204890399037E+02   -0.78613E-03   -0.32188E-04  1334   0.224E-01    0.204E-02
DAV:   2    -0.204890351239E+02    0.47797E-05   -0.25652E-05  1720   0.598E-02    0.885E-03
DAV:   3    -0.204890373903E+02   -0.22664E-05   -0.12240E-05  2086   0.310E-02    0.551E-03
DAV:   4    -0.204890384030E+02   -0.10126E-05   -0.93219E-07   770   0.961E-03    0.189E-03
DAV:   5    -0.204890406934E+02   -0.22904E-05   -0.42698E-07   690   0.782E-03    0.166E-03
DAV:   6    -0.204890410721E+02   -0.37871E-06   -0.30840E-07   678   0.487E-03
   5 F= -.20489041E+02 E0= -.20488488E+02  d E =-.632272E-01
 curvature:  -0.05 expect dE=-0.986E-05 dE for cont linesearch -0.986E-05
 ZBRENT: increasing intervall
 opt :   1.0442  next Energy=   -20.489058 (dE=-0.632E-01)
 bond charge predicted
       N       E                     dE             d eps       ncg     rms          rms(c)
DAV:   1    -0.204906323890E+02   -0.15917E-02   -0.14692E-03  1378   0.473E-01    0.436E-02
DAV:   2    -0.204906081325E+02    0.24257E-04   -0.12274E-04  1720   0.126E-01    0.190E-02
DAV:   3    -0.204906071097E+02    0.10228E-05   -0.47504E-05  2266   0.632E-02    0.103E-02
DAV:   4    -0.204906096007E+02   -0.24910E-05   -0.47774E-06  1492   0.175E-02    0.409E-03
DAV:   5    -0.204906138862E+02   -0.42855E-05   -0.15067E-06   918   0.111E-02    0.293E-03
DAV:   6    -0.204906153651E+02   -0.14789E-05   -0.58273E-07   678   0.800E-03    0.160E-03
DAV:   7    -0.204906148175E+02    0.54765E-06   -0.22482E-07   678   0.562E-03
   6 F= -.20490615E+02 E0= -.20490067E+02  d E =-.648009E-01
 curvature:  -0.09 expect dE=-0.122E-04 dE for cont linesearch -0.122E-04
 ZBRENT: increasing intervall
 opt :   1.0914  next Energy=   -20.490648 (dE=-0.648E-01)
 bond charge predicted
       N       E                     dE             d eps       ncg     rms          rms(c)
DAV:   1    -0.204938805572E+02   -0.32652E-02   -0.59262E-03  1370   0.949E-01    0.896E-02
DAV:   2    -0.204937770403E+02    0.10352E-03   -0.50720E-04  1710   0.255E-01    0.396E-02
DAV:   3    -0.204937583353E+02    0.18705E-04   -0.19430E-04  2260   0.128E-01    0.203E-02
DAV:   4    -0.204937646683E+02   -0.63330E-05   -0.20026E-05  1966   0.359E-02    0.766E-03
DAV:   5    -0.204937741967E+02   -0.95284E-05   -0.76457E-06  1912   0.198E-02    0.669E-03
DAV:   6    -0.204937764227E+02   -0.22260E-05   -0.11017E-06   852   0.107E-02    0.820E-04
DAV:   7    -0.204937764005E+02    0.22134E-07   -0.16553E-07   672   0.598E-03
   7 F= -.20493776E+02 E0= -.20493238E+02  d E =-.679625E-01
 curvature:  -0.25 expect dE=-0.162E-04 dE for cont linesearch -0.162E-04
 ZBRENT: increasing intervall
 opt :   1.1857  next Energy=   -20.493808 (dE=-0.680E-01)
 bond charge predicted
       N       E                     dE             d eps       ncg     rms          rms(c)
DAV:   1    -0.205006388455E+02   -0.68624E-02   -0.23778E-02  1356   0.190E+00    0.181E-01
DAV:   2    -0.205002128123E+02    0.42603E-03   -0.20597E-03  1698   0.513E-01    0.804E-02
DAV:   3    -0.205001093200E+02    0.10349E-03   -0.78318E-04  2242   0.256E-01    0.407E-02
DAV:   4    -0.205001274698E+02   -0.18150E-04   -0.80876E-05  2012   0.728E-02    0.151E-02
DAV:   5    -0.205001515887E+02   -0.24119E-04   -0.30919E-05  2236   0.393E-02    0.134E-02
DAV:   6    -0.205001561924E+02   -0.46037E-05   -0.47538E-06  1250   0.203E-02    0.108E-03
DAV:   7    -0.205001565042E+02   -0.31184E-06   -0.39044E-07   676   0.903E-03
   8 F= -.20500157E+02 E0= -.20499633E+02  d E =-.743426E-01
 curvature:  -0.49 expect dE=-0.742E-06 dE for cont linesearch -0.742E-06
 trial: gam=-0.01623 g(F)=  0.276E-59 g(S)=  0.150E-05 ort = 0.911E-04 (trialstep = 0.104E+01)
 search vector abs. value=  0.510E-09
 reached required accuracy - stopping structural energy minimisation
srun: ROUTE: split_hostlist: hl=k18r1n[09-10] tree_width 0
