<?xml version="1.0" encoding="ISO-8859-1"?>
<modeling>
 <generator>
  <i name="program" type="string">vasp </i>
  <i name="version" type="string">6.3.2  </i>
  <i name="subversion" type="string">27Jun22 (build Jun 20 2023 10:49:10) complex                          parallel </i>
  <i name="platform" type="string">LinuxIFC </i>
  <i name="date" type="string">2025 08 31 </i>
  <i name="time" type="string">10:38:07 </i>
 </generator>
 <incar>
  <i type="string" name="SYSTEM">ni3al</i>
  <i type="int" name="ISTART">     0</i>
  <i type="string" name="PREC">Accurate</i>
  <i type="string" name="ALGO">Normal</i>
  <i name="AMIN">      0.01000000</i>
  <i type="int" name="ICHARG">     2</i>
  <i type="int" name="NELM">   150</i>
  <i type="int" name="IBRION">     2</i>
  <i name="EDIFF">      0.00000100</i>
  <i name="EDIFFG">     -0.01000000</i>
  <i type="int" name="NSW">   300</i>
  <i type="int" name="ISIF">     3</i>
  <i name="ENCUT">    430.00000000</i>
  <i type="string" name="LREAL">Auto</i>
  <i type="int" name="ISMEAR">     1</i>
  <i name="SIGMA">      0.10000000</i>
  <i type="int" name="LMAXMIX">     4</i>
  <i type="logical" name="LWAVE"> F  </i>
  <i type="logical" name="LCHARG"> F  </i>
 </incar>
 <primitive_cell>
  <structure name="primitive_cell" >
   <crystal>
    <varray name="basis" >
     <v>       1.65881619       1.65881619      -1.65881619 </v>
     <v>      -1.65881619       1.65881619       1.65881619 </v>
     <v>       1.65881619      -1.65881619       1.65881619 </v>
    </varray>
    <i name="volume">     18.25806662 </i>
    <varray name="rec_basis" >
     <v>       0.30141977       0.30141977      -0.00000000 </v>
     <v>      -0.00000000       0.30141977       0.30141977 </v>
     <v>       0.30141977       0.00000000       0.30141977 </v>
    </varray>
   </crystal>
   <varray name="positions" >
    <v>       0.00000000       0.00000000       0.00000000 </v>
   </varray>
  </structure>
  <varray name="primitive_index" >
   <v type="int" >        1 </v>
  </varray>
 </primitive_cell>
 <kpoints>
  <generation param="Monkhorst-Pack">
   <v type="int" name="divisions">      10       10       10 </v>
   <v name="usershift">      0.00000000       0.00000000       0.00000000 </v>
   <v name="genvec1">      0.10000000       0.00000000       0.00000000 </v>
   <v name="genvec2">      0.00000000       0.10000000       0.00000000 </v>
   <v name="genvec3">     -0.00000000      -0.00000000       0.10000000 </v>
   <v name="shift">      0.50000000       0.50000000       0.50000000 </v>
  </generation>
  <varray name="kpointlist" >
   <v>       0.05000000       0.05000000       0.05000000 </v>
   <v>       0.15000000       0.05000000       0.05000000 </v>
   <v>       0.25000000       0.05000000       0.05000000 </v>
   <v>       0.35000000       0.05000000       0.05000000 </v>
   <v>       0.45000000       0.05000000       0.05000000 </v>
   <v>       0.15000000       0.15000000       0.05000000 </v>
   <v>       0.25000000       0.15000000       0.05000000 </v>
   <v>       0.35000000       0.15000000       0.05000000 </v>
   <v>       0.45000000       0.15000000       0.05000000 </v>
   <v>       0.25000000       0.25000000       0.05000000 </v>
   <v>       0.35000000       0.25000000       0.05000000 </v>
   <v>       0.45000000       0.25000000       0.05000000 </v>
   <v>       0.35000000       0.35000000       0.05000000 </v>
   <v>       0.45000000       0.35000000       0.05000000 </v>
   <v>       0.45000000       0.45000000       0.05000000 </v>
   <v>       0.15000000       0.15000000       0.15000000 </v>
   <v>       0.25000000       0.15000000       0.15000000 </v>
   <v>       0.35000000       0.15000000       0.15000000 </v>
   <v>       0.45000000       0.15000000       0.15000000 </v>
   <v>       0.25000000       0.25000000       0.15000000 </v>
   <v>       0.35000000       0.25000000       0.15000000 </v>
   <v>       0.45000000       0.25000000       0.15000000 </v>
   <v>       0.35000000       0.35000000       0.15000000 </v>
   <v>       0.45000000       0.35000000       0.15000000 </v>
   <v>       0.45000000       0.45000000       0.15000000 </v>
   <v>       0.25000000       0.25000000       0.25000000 </v>
   <v>       0.35000000       0.25000000       0.25000000 </v>
   <v>       0.45000000       0.25000000       0.25000000 </v>
   <v>       0.35000000       0.35000000       0.25000000 </v>
   <v>       0.45000000       0.35000000       0.25000000 </v>
   <v>       0.45000000       0.45000000       0.25000000 </v>
   <v>       0.35000000       0.35000000       0.35000000 </v>
   <v>       0.45000000       0.35000000       0.35000000 </v>
   <v>       0.45000000       0.45000000       0.35000000 </v>
   <v>       0.45000000       0.45000000       0.45000000 </v>
  </varray>
  <varray name="weights" >
   <v>       0.00800000 </v>
   <v>       0.02400000 </v>
   <v>       0.02400000 </v>
   <v>       0.02400000 </v>
   <v>       0.02400000 </v>
   <v>       0.02400000 </v>
   <v>       0.04800000 </v>
   <v>       0.04800000 </v>
   <v>       0.04800000 </v>
   <v>       0.02400000 </v>
   <v>       0.04800000 </v>
   <v>       0.04800000 </v>
   <v>       0.02400000 </v>
   <v>       0.04800000 </v>
   <v>       0.02400000 </v>
   <v>       0.00800000 </v>
   <v>       0.02400000 </v>
   <v>       0.02400000 </v>
   <v>       0.02400000 </v>
   <v>       0.02400000 </v>
   <v>       0.04800000 </v>
   <v>       0.04800000 </v>
   <v>       0.02400000 </v>
   <v>       0.04800000 </v>
   <v>       0.02400000 </v>
   <v>       0.00800000 </v>
   <v>       0.02400000 </v>
   <v>       0.02400000 </v>
   <v>       0.02400000 </v>
   <v>       0.04800000 </v>
   <v>       0.02400000 </v>
   <v>       0.00800000 </v>
   <v>       0.02400000 </v>
   <v>       0.02400000 </v>
   <v>       0.00800000 </v>
  </varray>
 </kpoints>
 <parameters>
  <separator name="general" >
   <i type="string" name="SYSTEM">ni3al</i>
   <i type="logical" name="LCOMPAT"> F  </i>
  </separator>
  <separator name="electronic" >
   <i type="string" name="PREC">accura</i>
   <i name="ENMAX">    430.00000000</i>
   <i name="ENAUG">    455.65900000</i>
   <i name="EDIFF">      0.00000100</i>
   <i type="int" name="IALGO">    38</i>
   <i type="int" name="IWAVPR">    11</i>
   <i type="int" name="NBANDS">    18</i>
   <i type="int" name="NBANDSLOW">    -1</i>
   <i type="int" name="NBANDSHIGH">    -1</i>
   <i name="NELECT">     26.00000000</i>
   <i type="int" name="TURBO">     0</i>
   <i type="int" name="IRESTART">     0</i>
   <i type="int" name="NREBOOT">     0</i>
   <i type="int" name="NMIN">     0</i>
   <i name="EREF">      0.00000000</i>
   <separator name="electronic smearing" >
    <i type="int" name="ISMEAR">     1</i>
    <i name="SIGMA">      0.10000000</i>
    <i name="KSPACING">      0.50000000</i>
    <i type="logical" name="KGAMMA"> T  </i>
    <i type="logical" name="KBLOWUP"> T  </i>
   </separator>
   <separator name="electronic projectors" >
    <i type="logical" name="LREAL"> T  </i>
    <v name="ROPT">     -0.00025000</v>
    <i type="int" name="LMAXPAW">  -100</i>
    <i type="int" name="LMAXMIX">     4</i>
    <i type="logical" name="NLSPLINE"> F  </i>
   </separator>
   <separator name="electronic startup" >
    <i type="int" name="ISTART">     0</i>
    <i type="int" name="ICHARG">     2</i>
    <i type="int" name="INIWAV">     1</i>
   </separator>
   <separator name="electronic spin" >
    <i type="int" name="ISPIN">     1</i>
    <i type="logical" name="LNONCOLLINEAR"> F  </i>
    <v name="MAGMOM">      1.00000000      1.00000000</v>
    <i name="NUPDOWN">     -1.00000000</i>
    <i type="logical" name="LSORBIT"> F  </i>
    <v name="SAXIS">      0.00000000      0.00000000      1.00000000</v>
    <i type="logical" name="LSPIRAL"> F  </i>
    <v name="QSPIRAL">      0.00000000      0.00000000      0.00000000</v>
    <i type="logical" name="LZEROZ"> F  </i>
   </separator>
   <separator name="electronic exchange-correlation" >
    <i type="logical" name="LASPH"> F  </i>
    <i type="logical" name="LMETAGGA"> F  </i>
   </separator>
   <separator name="electronic convergence" >
    <i type="int" name="NELM">   150</i>
    <i type="int" name="NELMDL">    -5</i>
    <i type="int" name="NELMIN">     2</i>
    <i name="ENINI">    430.00000000</i>
    <separator name="electronic convergence detail" >
     <i type="logical" name="LDIAG"> T  </i>
     <i type="logical" name="LSUBROT"> F  </i>
     <i name="WEIMIN">      0.00100000</i>
     <i name="EBREAK">      0.00000001</i>
     <i name="DEPER">      0.30000000</i>
     <i type="int" name="NRMM">     4</i>
     <i name="TIME">      0.40000000</i>
    </separator>
   </separator>
   <separator name="electronic mixer" >
    <i name="AMIX">      0.40000000</i>
    <i name="BMIX">      1.00000000</i>
    <i name="AMIN">      0.01000000</i>
    <i name="AMIX_MAG">      1.60000000</i>
    <i name="BMIX_MAG">      1.00000000</i>
    <separator name="electronic mixer details" >
     <i type="int" name="IMIX">     4</i>
     <i type="logical" name="MIXFIRST"> F  </i>
     <i type="int" name="MAXMIX">   -45</i>
     <i name="WC">    100.00000000</i>
     <i type="int" name="INIMIX">     1</i>
     <i type="int" name="MIXPRE">     1</i>
     <i type="int" name="MREMOVE">     5</i>
    </separator>
   </separator>
   <separator name="electronic dipolcorrection" >
    <i type="logical" name="LDIPOL"> F  </i>
    <i type="logical" name="LMONO"> F  </i>
    <i type="int" name="IDIPOL">     0</i>
    <i name="EPSILON">      1.00000000</i>
    <v name="DIPOL">   -100.00000000   -100.00000000   -100.00000000</v>
    <i name="EFIELD">      0.00000000</i>
   </separator>
  </separator>
  <separator name="grids" >
   <i type="int" name="NGX">    24</i>
   <i type="int" name="NGY">    24</i>
   <i type="int" name="NGZ">    24</i>
   <i type="int" name="NGXF">    48</i>
   <i type="int" name="NGYF">    48</i>
   <i type="int" name="NGZF">    48</i>
   <i type="logical" name="ADDGRID"> F  </i>
  </separator>
  <separator name="ionic" >
   <i type="int" name="NSW">   300</i>
   <i type="int" name="IBRION">     2</i>
   <i type="int" name="MDALGO">     0</i>
   <i type="int" name="ISIF">     3</i>
   <i name="PSTRESS">      0.00000000</i>
   <i name="EDIFFG">     -0.01000000</i>
   <i type="int" name="NFREE">     1</i>
   <i name="POTIM">      0.50000000</i>
   <i name="SMASS">     -3.00000000</i>
   <i name="SCALEE">      1.00000000</i>
  </separator>
  <separator name="ionic md" >
   <i name="TEBEG">      0.00010000</i>
   <i name="TEEND">      0.00010000</i>
   <i type="int" name="NBLOCK">     1</i>
   <i type="int" name="KBLOCK">   300</i>
   <i type="int" name="NPACO">   256</i>
   <i name="APACO">     10.00000000</i>
  </separator>
  <separator name="symmetry" >
   <i type="int" name="ISYM">     2</i>
   <i name="SYMPREC">      0.00001000</i>
  </separator>
  <separator name="dos" >
   <i type="int" name="LORBIT">     0</i>
   <v name="RWIGS">     -1.00000000</v>
   <i type="int" name="NEDOS">   301</i>
   <i name="EMIN">     10.00000000</i>
   <i name="EMAX">    -10.00000000</i>
   <i name="EFERMI">      0.00000000</i>
  </separator>
  <separator name="writing" >
   <i type="int" name="NWRITE">     2</i>
   <i type="logical" name="LWAVE"> F  </i>
   <i type="logical" name="LDOWNSAMPLE"> F  </i>
   <i type="logical" name="LCHARG"> F  </i>
   <i type="logical" name="LPARD"> F  </i>
   <i type="logical" name="LVTOT"> F  </i>
   <i type="logical" name="LVHAR"> F  </i>
   <i type="logical" name="LELF"> F  </i>
   <i type="logical" name="LOPTICS"> F  </i>
   <v name="STM">      0.00000000      0.00000000      0.00000000      0.00000000      0.00000000      0.00000000      0.00000000</v>
  </separator>
  <separator name="performance" >
   <i type="int" name="NPAR">     2</i>
   <i type="int" name="NSIM">     4</i>
   <i type="int" name="NBLK">    -1</i>
   <i type="logical" name="LPLANE"> T  </i>
   <i type="logical" name="LSCALAPACK"> T  </i>
   <i type="logical" name="LSCAAWARE"> F  </i>
   <i type="logical" name="LSCALU"> F  </i>
   <i type="logical" name="LASYNC"> F  </i>
   <i type="logical" name="LORBITALREAL"> F  </i>
  </separator>
  <separator name="miscellaneous" >
   <i type="int" name="IDIOT">     3</i>
   <i type="int" name="PHON_NSTRUCT">    -1</i>
   <i type="logical" name="LMUSIC"> F  </i>
   <v name="POMASS">     92.91000000</v>
   <v name="DARWINR">      0.00000000</v>
   <v name="DARWINV">      1.00000000</v>
   <i type="logical" name="LCORR"> T  </i>
  </separator>
  <i type="logical" name="GGA_COMPAT"> T  </i>
  <i type="logical" name="LBERRY"> F  </i>
  <i type="int" name="ICORELEVEL">     0</i>
  <i type="logical" name="LDAU"> F  </i>
  <i type="int" name="I_CONSTRAINED_M">     0</i>
  <separator name="electronic exchange-correlation" >
   <i type="string" name="GGA">--</i>
   <i type="int" name="VOSKOWN">     0</i>
   <i type="logical" name="LHFCALC"> F  </i>
   <i type="string" name="PRECFOCK"></i>
   <i type="logical" name="LSYMGRAD"> F  </i>
   <i type="logical" name="LHFONE"> F  </i>
   <i type="logical" name="LRHFCALC"> F  </i>
   <i type="logical" name="LTHOMAS"> F  </i>
   <i type="logical" name="LMODELHF"> F  </i>
   <i type="logical" name="LFOCKACE"> F  </i>
   <i name="ENCUT4O">     -1.00000000</i>
   <i type="int" name="EXXOEP">     0</i>
   <i type="int" name="FOURORBIT">     0</i>
   <i name="AEXX">      0.00000000</i>
   <i name="HFALPHA">      0.00000000</i>
   <i name="MCALPHA">      0.00000000</i>
   <i name="ALDAX">      1.00000000</i>
   <i name="AGGAX">      1.00000000</i>
   <i name="ALDAC">      1.00000000</i>
   <i name="AGGAC">      1.00000000</i>
   <i type="int" name="NKREDX">     1</i>
   <i type="int" name="NKREDY">     1</i>
   <i type="int" name="NKREDZ">     1</i>
   <i type="logical" name="SHIFTRED"> F  </i>
   <i type="logical" name="ODDONLY"> F  </i>
   <i type="logical" name="EVENONLY"> F  </i>
   <i type="int" name="LMAXFOCK">     0</i>
   <i type="int" name="NMAXFOCKAE">     0</i>
   <i type="logical" name="LFOCKAEDFT"> F  </i>
   <i name="HFSCREEN">      0.00000000</i>
   <i name="HFSCREENC">      0.00000000</i>
   <i type="int" name="NBANDSGWLOW">     0</i>
  </separator>
  <separator name="vdW DFT" >
   <i type="logical" name="LUSE_VDW"> F  </i>
   <i name="Zab_VDW">     -0.84910000</i>
   <i name="PARAM1">      0.12340000</i>
   <i name="PARAM2">      1.00000000</i>
   <i name="PARAM3">      0.00000000</i>
  </separator>
  <separator name="model GW" >
   <i type="int" name="MODEL_GW">     0</i>
   <i name="MODEL_EPS0">     10.95483997</i>
   <i name="MODEL_ALPHA">      1.00000000</i>
  </separator>
  <separator name="linear response parameters" >
   <i type="logical" name="LEPSILON"> F  </i>
   <i type="logical" name="LRPA"> F  </i>
   <i type="logical" name="LNABLA"> F  </i>
   <i type="logical" name="LVEL"> F  </i>
   <i name="CSHIFT">      0.10000000</i>
   <i name="OMEGAMAX">     -1.00000000</i>
   <i name="DEG_THRESHOLD">      0.00200000</i>
   <i name="RTIME">     -0.10000000</i>
   <i name="WPLASMAI">      0.00000000</i>
   <v name="DFIELD">      0.00000000      0.00000000      0.00000000</v>
   <v name="WPLASMA">      0.00000000      0.00000000      0.00000000      0.00000000      0.00000000      0.00000000      0.00000000      0.00000000      0.00000000</v>
  </separator>
  <separator name="orbital magnetization" >
   <i type="logical" name="NUCIND"> F  </i>
   <v name="MAGPOS">      0.00000000      0.00000000      0.00000000</v>
   <i type="logical" name="LNICSALL"> T  </i>
   <i type="logical" name="ORBITALMAG"> F  </i>
   <i type="logical" name="LMAGBLOCH"> F  </i>
   <i type="logical" name="LCHIMAG"> F  </i>
   <i type="logical" name="LGAUGE"> T  </i>
   <i type="int" name="MAGATOM">     0</i>
   <v name="MAGDIPOL">      0.00000000      0.00000000      0.00000000</v>
   <v name="AVECCONST">      0.00000000      0.00000000      0.00000000</v>
  </separator>
  <separator name="response functions" >
   <i type="logical" name="LFINITE_TEMPERATURE"> F  </i>
   <i type="logical" name="LADDER"> F  </i>
   <i type="logical" name="LRPAFORCE"> F  </i>
   <i type="logical" name="LFXC"> F  </i>
   <i type="logical" name="LHARTREE"> T  </i>
   <i type="int" name="IBSE">     0</i>
   <v type="int" name="KPOINT">    -1     0     0     0</v>
   <i type="logical" name="LTCTC"> F  </i>
   <i type="logical" name="LTCTE"> F  </i>
   <i type="logical" name="LTETE"> F  </i>
   <i type="logical" name="LTRIPLET"> F  </i>
   <i type="logical" name="LFXCEPS"> F  </i>
   <i type="logical" name="LFXHEG"> F  </i>
   <i type="int" name="NATURALO">     2</i>
   <i type="logical" name="LHOLEGF"> F  </i>
   <i type="logical" name="L2ORDER"> F  </i>
   <i type="logical" name="LDMP1"> F  </i>
   <i type="logical" name="LMP2LT"> F  </i>
   <i type="logical" name="LSMP2LT"> F  </i>
   <i type="logical" name="LGWLF"> F  </i>
   <i name="ENCUTGW">     -2.00000000</i>
   <i name="ENCUTGWSOFT">     -2.00000000</i>
   <i name="ENCUTLF">     -1.00000000</i>
   <i type="logical" name="LESF_SPLINES"> F  </i>
   <i type="int" name="LMAXMP2">    -1</i>
   <i name="SCISSOR">      0.00000000</i>
   <i type="int" name="NOMEGA">     0</i>
   <i type="int" name="NOMEGAR">     0</i>
   <i type="int" name="NBANDSGW">    -1</i>
   <i type="int" name="NBANDSO">    -1</i>
   <i type="int" name="NBANDSV">    -1</i>
   <i type="int" name="NELMGW">     1</i>
   <i type="int" name="NELMHF">     1</i>
   <i type="int" name="DIM">     3</i>
   <i type="int" name="IESPILON">     4</i>
   <i type="int" name="ANTIRES">     0</i>
   <i name="OMEGAMAX">    -30.00000000</i>
   <i name="OMEGAMIN">    -30.00000000</i>
   <i name="OMEGATL">   -200.00000000</i>
   <i type="int" name="OMEGAGRID">     0</i>
   <i name="CSHIFT">     -0.10000000</i>
   <i type="logical" name="LSELFENERGY"> F  </i>
   <i type="logical" name="LSPECTRAL"> F  </i>
   <i type="logical" name="LSPECTRALGW"> F  </i>
   <i type="logical" name="LSINGLES"> F  </i>
   <i type="logical" name="LFERMIGW"> F  </i>
   <i type="logical" name="ODDONLYGW"> F  </i>
   <i type="logical" name="EVENONLYGW"> F  </i>
   <i type="int" name="NKREDLFX">     1</i>
   <i type="int" name="NKREDLFY">     1</i>
   <i type="int" name="NKREDLFZ">     1</i>
   <i type="int" name="MAXMEM">  2800</i>
   <i type="int" name="TELESCOPE">     0</i>
   <i type="int" name="NTAUPAR">    -1</i>
   <i type="int" name="NOMEGAPAR">    -1</i>
   <i name="DAMP_NEWTON">      0.80000001</i>
   <i name="LAMBDA">      1.00000000</i>
  </separator>
  <separator name="External order field" >
   <i name="OFIELD_KAPPA">      0.00000000</i>
   <v name="OFIELD_K">      0.00000000      0.00000000      0.00000000</v>
   <i name="OFIELD_Q6_NEAR">      0.00000000</i>
   <i name="OFIELD_Q6_FAR">      0.00000000</i>
   <i name="OFIELD_A">      0.00000000</i>
  </separator>
  <separator name="optional k-points parameters" >
   <i type="int" name="KPOINTS_OPT_MODE">     1</i>
   <i type="logical" name="LKPOINTS_OPT"> F  </i>
  </separator>
  <separator name="solvation model" >
   <i type="logical" name="LSOL"> F  </i>
  </separator>
 </parameters>
 <atominfo>
  <atoms>       2 </atoms>
  <types>       1 </types>
  <array name="atoms" >
   <dimension dim="1">ion</dimension>
   <field type="string">element</field>
   <field type="int">atomtype</field>
   <set>
    <rc><c>Nb</c><c>   1</c></rc>
    <rc><c>Nb</c><c>   1</c></rc>
   </set>
  </array>
  <array name="atomtypes" >
   <dimension dim="1">type</dimension>
   <field type="int">atomspertype</field>
   <field type="string">element</field>
   <field>mass</field>
   <field>valence</field>
   <field type="string">pseudopotential</field>
   <set>
    <rc><c>   2</c><c>Nb</c><c>     92.91000000</c><c>     13.00000000</c><c>  PAW_PBE Nb_sv 25May2007               </c></rc>
   </set>
  </array>
 </atominfo>
 <structure name="initialpos" >
  <crystal>
   <varray name="basis" >
    <v>       3.31763238       0.00000000       0.00000000 </v>
    <v>      -0.00000000       3.31763238       0.00000000 </v>
    <v>       0.00000000       0.00000000       3.31763238 </v>
   </varray>
   <i name="volume">     36.51613323 </i>
   <varray name="rec_basis" >
    <v>       0.30141977       0.00000000       0.00000000 </v>
    <v>       0.00000000       0.30141977       0.00000000 </v>
    <v>      -0.00000000      -0.00000000       0.30141977 </v>
   </varray>
  </crystal>
  <varray name="positions" >
   <v>       0.00000000       0.00000000       0.00000000 </v>
   <v>       0.50000000       0.50000000       0.50000000 </v>
  </varray>
 </structure>
 <calculation>
  <scstep>
   <time name="dav">    0.07    0.09</time>
   <time name="total">    0.09    0.11</time>
   <energy>
    <i name="alphaZ">    163.27591539 </i>
    <i name="ewald">  -2669.46625210 </i>
    <i name="hartreedc">   -499.45206775 </i>
    <i name="XCdc">    113.82277907 </i>
    <i name="pawpsdc">   2467.59193485 </i>
    <i name="pawaedc">  -2429.45357547 </i>
    <i name="eentropy">     -0.00054432 </i>
    <i name="bandstr">      3.27382944 </i>
    <i name="atom">   3110.35427263 </i>
    <i name="e_fr_energy">    259.94629173 </i>
    <i name="e_wo_entrp">    259.94683605 </i>
    <i name="e_0_energy">    259.94647317 </i>
   </energy>
  </scstep>
  <scstep>
   <time name="dav">    0.07    0.08</time>
   <time name="total">    0.07    0.08</time>
   <energy>
    <i name="e_fr_energy">     -4.33165071 </i>
    <i name="e_wo_entrp">     -4.32962972 </i>
    <i name="e_0_energy">     -4.33097705 </i>
   </energy>
  </scstep>
  <scstep>
   <time name="dav">    0.10    0.10</time>
   <time name="total">    0.10    0.10</time>
   <energy>
    <i name="e_fr_energy">    -20.66481206 </i>
    <i name="e_wo_entrp">    -20.66211885 </i>
    <i name="e_0_energy">    -20.66391432 </i>
   </energy>
  </scstep>
  <scstep>
   <time name="dav">    0.07    0.07</time>
   <time name="total">    0.07    0.07</time>
   <energy>
    <i name="e_fr_energy">    -21.28301319 </i>
    <i name="e_wo_entrp">    -21.27925771 </i>
    <i name="e_0_energy">    -21.28176136 </i>
   </energy>
  </scstep>
  <scstep>
   <time name="dav">    0.09    0.09</time>
   <time name="total">    0.10    0.11</time>
   <energy>
    <i name="e_fr_energy">    -21.30805824 </i>
    <i name="e_wo_entrp">    -21.30426072 </i>
    <i name="e_0_energy">    -21.30679240 </i>
   </energy>
  </scstep>
  <scstep>
   <time name="dav">    0.07    0.07</time>
   <time name="total">    0.09    0.09</time>
   <energy>
    <i name="e_fr_energy">    -20.51112933 </i>
    <i name="e_wo_entrp">    -20.50859235 </i>
    <i name="e_0_energy">    -20.51028367 </i>
   </energy>
  </scstep>
  <scstep>
   <time name="dav">    0.09    0.09</time>
   <time name="total">    0.11    0.11</time>
   <energy>
    <i name="e_fr_energy">    -20.41536361 </i>
    <i name="e_wo_entrp">    -20.41212613 </i>
    <i name="e_0_energy">    -20.41428445 </i>
   </energy>
  </scstep>
  <scstep>
   <time name="dav">    0.08    0.08</time>
   <time name="total">    0.09    0.09</time>
   <energy>
    <i name="e_fr_energy">    -20.42617509 </i>
    <i name="e_wo_entrp">    -20.42290147 </i>
    <i name="e_0_energy">    -20.42508388 </i>
   </energy>
  </scstep>
  <scstep>
   <time name="dav">    0.08    0.08</time>
   <time name="total">    0.10    0.10</time>
   <energy>
    <i name="e_fr_energy">    -20.42584166 </i>
    <i name="e_wo_entrp">    -20.42273510 </i>
    <i name="e_0_energy">    -20.42480614 </i>
   </energy>
  </scstep>
  <scstep>
   <time name="dav">    0.08    0.08</time>
   <time name="total">    0.10    0.10</time>
   <energy>
    <i name="e_fr_energy">    -20.42581221 </i>
    <i name="e_wo_entrp">    -20.42269169 </i>
    <i name="e_0_energy">    -20.42477204 </i>
   </energy>
  </scstep>
  <scstep>
   <time name="dav">    0.07    0.07</time>
   <time name="total">    0.09    0.09</time>
   <energy>
    <i name="e_fr_energy">    -20.42581316 </i>
    <i name="e_wo_entrp">    -20.42269095 </i>
    <i name="e_0_energy">    -20.42477242 </i>
   </energy>
  </scstep>
  <scstep>
   <time name="dav">    0.11    0.14</time>
   <time name="total">    0.12    0.15</time>
   <energy>
    <i name="alphaZ">    163.27591539 </i>
    <i name="ewald">  -2669.46625210 </i>
    <i name="hartreedc">   -469.30057890 </i>
    <i name="XCdc">    112.13079478 </i>
    <i name="pawpsdc">   2961.19969833 </i>
    <i name="pawaedc">  -2916.77075261 </i>
    <i name="eentropy">     -0.00312250 </i>
    <i name="bandstr">   -311.84578890 </i>
    <i name="atom">   3110.35427263 </i>
    <i name="e_fr_energy">    -20.42581388 </i>
    <i name="e_wo_entrp">    -20.42269138 </i>
    <i name="e_0_energy">    -20.42477304 </i>
   </energy>
  </scstep>
  <structure>
   <crystal>
    <varray name="basis" >
     <v>       3.31763238       0.00000000       0.00000000 </v>
     <v>      -0.00000000       3.31763238       0.00000000 </v>
     <v>       0.00000000       0.00000000       3.31763238 </v>
    </varray>
    <i name="volume">     36.51613323 </i>
    <varray name="rec_basis" >
     <v>       0.30141977       0.00000000       0.00000000 </v>
     <v>       0.00000000       0.30141977       0.00000000 </v>
     <v>      -0.00000000      -0.00000000       0.30141977 </v>
    </varray>
   </crystal>
   <varray name="positions" >
    <v>       0.00000000       0.00000000       0.00000000 </v>
    <v>       0.50000000       0.50000000       0.50000000 </v>
   </varray>
  </structure>
  <varray name="forces" >
   <v>      -0.00000000      -0.00000000      -0.00000000 </v>
   <v>       0.00000000       0.00000000       0.00000000 </v>
  </varray>
  <varray name="stress" >
   <v>     -14.83926360       0.00000000       0.00000000 </v>
   <v>      -0.00000000     -14.83926360       0.00000000 </v>
   <v>      -0.00000000      -0.00000000     -14.83926360 </v>
  </varray>
  <energy>
   <i name="e_fr_energy">    -20.42581388 </i>
   <i name="e_wo_entrp">    -20.42269138 </i>
   <i name="e_0_energy">    -20.42477304 </i>
  </energy>
  <time name="totalsc">    1.37    1.57</time>
 </calculation>
 <calculation>
  <scstep>
   <time name="dav">    0.06    0.06</time>
   <time name="total">    0.08    0.08</time>
   <energy>
    <i name="alphaZ">    165.97290840 </i>
    <i name="ewald">  -2684.08100673 </i>
    <i name="hartreedc">   -471.85877766 </i>
    <i name="XCdc">    112.72098680 </i>
    <i name="pawpsdc">   2960.86344898 </i>
    <i name="pawaedc">  -2916.43267089 </i>
    <i name="eentropy">     -0.00229443 </i>
    <i name="bandstr">   -298.08404608 </i>
    <i name="atom">   3110.35427263 </i>
    <i name="e_fr_energy">    -20.54717899 </i>
    <i name="e_wo_entrp">    -20.54488456 </i>
    <i name="e_0_energy">    -20.54641418 </i>
   </energy>
  </scstep>
  <scstep>
   <time name="dav">    0.07    0.07</time>
   <time name="total">    0.09    0.09</time>
   <energy>
    <i name="e_fr_energy">    -20.49964031 </i>
    <i name="e_wo_entrp">    -20.49766949 </i>
    <i name="e_0_energy">    -20.49898337 </i>
   </energy>
  </scstep>
  <scstep>
   <time name="dav">    0.09    0.09</time>
   <time name="total">    0.11    0.11</time>
   <energy>
    <i name="e_fr_energy">    -20.48505622 </i>
    <i name="e_wo_entrp">    -20.48334023 </i>
    <i name="e_0_energy">    -20.48448422 </i>
   </energy>
  </scstep>
  <scstep>
   <time name="dav">    0.08    0.08</time>
   <time name="total">    0.10    0.10</time>
   <energy>
    <i name="e_fr_energy">    -20.48631554 </i>
    <i name="e_wo_entrp">    -20.48457510 </i>
    <i name="e_0_energy">    -20.48573539 </i>
   </energy>
  </scstep>
  <scstep>
   <time name="dav">    0.14    0.14</time>
   <time name="total">    0.16    0.16</time>
   <energy>
    <i name="e_fr_energy">    -20.48752171 </i>
    <i name="e_wo_entrp">    -20.48584348 </i>
    <i name="e_0_energy">    -20.48696230 </i>
   </energy>
  </scstep>
  <scstep>
   <time name="dav">    0.07    0.07</time>
   <time name="total">    0.09    0.09</time>
   <energy>
    <i name="e_fr_energy">    -20.48766523 </i>
    <i name="e_wo_entrp">    -20.48599127 </i>
    <i name="e_0_energy">    -20.48710724 </i>
   </energy>
  </scstep>
  <scstep>
   <time name="dav">    0.08    0.08</time>
   <time name="total">    0.10    0.10</time>
   <energy>
    <i name="e_fr_energy">    -20.48767149 </i>
    <i name="e_wo_entrp">    -20.48599877 </i>
    <i name="e_0_energy">    -20.48711392 </i>
   </energy>
  </scstep>
  <scstep>
   <time name="dav">    0.05    0.05</time>
   <time name="total">    0.07    0.07</time>
   <energy>
    <i name="e_fr_energy">    -20.48766861 </i>
    <i name="e_wo_entrp">    -20.48599575 </i>
    <i name="e_0_energy">    -20.48711099 </i>
   </energy>
  </scstep>
  <scstep>
   <time name="dav">    0.05    0.05</time>
   <time name="total">    0.07    0.07</time>
   <energy>
    <i name="alphaZ">    165.97290840 </i>
    <i name="ewald">  -2684.08100673 </i>
    <i name="hartreedc">   -463.74428600 </i>
    <i name="XCdc">    112.30981041 </i>
    <i name="pawpsdc">   2996.08776839 </i>
    <i name="pawaedc">  -2951.61283052 </i>
    <i name="eentropy">     -0.00167283 </i>
    <i name="bandstr">   -305.77263234 </i>
    <i name="atom">   3110.35427263 </i>
    <i name="e_fr_energy">    -20.48766859 </i>
    <i name="e_wo_entrp">    -20.48599576 </i>
    <i name="e_0_energy">    -20.48711098 </i>
   </energy>
  </scstep>
  <structure>
   <crystal>
    <varray name="basis" >
     <v>       3.29056688       0.00000000       0.00000000 </v>
     <v>      -0.00000000       3.29056688       0.00000000 </v>
     <v>       0.00000000       0.00000000       3.31763238 </v>
    </varray>
    <i name="volume">     35.92276075 </i>
    <varray name="rec_basis" >
     <v>       0.30389900       0.00000000       0.00000000 </v>
     <v>      -0.00000000       0.30389900       0.00000000 </v>
     <v>      -0.00000000      -0.00000000       0.30141977 </v>
    </varray>
   </crystal>
   <varray name="positions" >
    <v>      -0.00000000      -0.00000000      -0.00000000 </v>
    <v>       0.50000000       0.50000000       0.50000000 </v>
   </varray>
  </structure>
  <varray name="forces" >
   <v>       0.00000000       0.00000000       0.00000000 </v>
   <v>      -0.00000000      -0.00000000      -0.00000000 </v>
  </varray>
  <varray name="stress" >
   <v>      -2.87604622      -0.00000000       0.00000000 </v>
   <v>       0.00000000      -2.87604622       0.00000000 </v>
   <v>      -0.00000000       0.00000000      -2.92355278 </v>
  </varray>
  <energy>
   <i name="e_fr_energy">    -20.48766859 </i>
   <i name="e_wo_entrp">    -20.48599576 </i>
   <i name="e_0_energy">    -20.48711098 </i>
  </energy>
  <time name="totalsc">    1.06    1.12</time>
 </calculation>
 <calculation>
  <scstep>
   <time name="dav">    0.06    0.06</time>
   <time name="total">    0.08    0.08</time>
   <energy>
    <i name="alphaZ">    165.98095721 </i>
    <i name="ewald">  -2684.12437570 </i>
    <i name="hartreedc">   -463.74947492 </i>
    <i name="XCdc">    112.31145766 </i>
    <i name="pawpsdc">   2996.06025830 </i>
    <i name="pawaedc">  -2951.58811048 </i>
    <i name="eentropy">     -0.00167270 </i>
    <i name="bandstr">   -305.73117519 </i>
    <i name="atom">   3110.35427263 </i>
    <i name="e_fr_energy">    -20.48786319 </i>
    <i name="e_wo_entrp">    -20.48619050 </i>
    <i name="e_0_energy">    -20.48730563 </i>
   </energy>
  </scstep>
  <scstep>
   <time name="dav">    0.05    0.06</time>
   <time name="total">    0.07    0.08</time>
   <energy>
    <i name="alphaZ">    165.98095721 </i>
    <i name="ewald">  -2684.12437570 </i>
    <i name="hartreedc">   -463.73244017 </i>
    <i name="XCdc">    112.31059676 </i>
    <i name="pawpsdc">   2996.20979291 </i>
    <i name="pawaedc">  -2951.73921940 </i>
    <i name="eentropy">     -0.00167178 </i>
    <i name="bandstr">   -305.74577535 </i>
    <i name="atom">   3110.35427263 </i>
    <i name="e_fr_energy">    -20.48786290 </i>
    <i name="e_wo_entrp">    -20.48619112 </i>
    <i name="e_0_energy">    -20.48730564 </i>
   </energy>
  </scstep>
  <structure>
   <crystal>
    <varray name="basis" >
     <v>       3.29048710       0.00000000       0.00000000 </v>
     <v>      -0.00000000       3.29048710       0.00000000 </v>
     <v>       0.00000000       0.00000000       3.31763238 </v>
    </varray>
    <i name="volume">     35.92101877 </i>
    <varray name="rec_basis" >
     <v>       0.30390637       0.00000000       0.00000000 </v>
     <v>      -0.00000000       0.30390637       0.00000000 </v>
     <v>      -0.00000000      -0.00000000       0.30141977 </v>
    </varray>
   </crystal>
   <varray name="positions" >
    <v>      -0.00000000      -0.00000000      -0.00000000 </v>
    <v>       0.50000000       0.50000000       0.50000000 </v>
   </varray>
  </structure>
  <varray name="forces" >
   <v>       0.00000000       0.00000000       0.00000000 </v>
   <v>      -0.00000000      -0.00000000      -0.00000000 </v>
  </varray>
  <varray name="stress" >
   <v>      -3.24879232      -0.00000000       0.00000000 </v>
   <v>       0.00000000      -3.24879232      -0.00000000 </v>
   <v>       0.00000000       0.00000000      -3.30261606 </v>
  </varray>
  <energy>
   <i name="e_fr_energy">    -20.48786290 </i>
   <i name="e_wo_entrp">    -20.48619112 </i>
   <i name="e_0_energy">    -20.48730564 </i>
  </energy>
  <time name="totalsc">    0.32    0.36</time>
 </calculation>
 <calculation>
  <scstep>
   <time name="dav">    0.06    0.06</time>
   <time name="total">    0.08    0.08</time>
   <energy>
    <i name="alphaZ">    165.99705657 </i>
    <i name="ewald">  -2684.21111875 </i>
    <i name="hartreedc">   -463.73471541 </i>
    <i name="XCdc">    112.31345548 </i>
    <i name="pawpsdc">   2996.22959838 </i>
    <i name="pawaedc">  -2951.76091760 </i>
    <i name="eentropy">     -0.00167072 </i>
    <i name="bandstr">   -305.67421435 </i>
    <i name="atom">   3110.35427263 </i>
    <i name="e_fr_energy">    -20.48825377 </i>
    <i name="e_wo_entrp">    -20.48658305 </i>
    <i name="e_0_energy">    -20.48769686 </i>
   </energy>
  </scstep>
  <scstep>
   <time name="dav">    0.07    0.07</time>
   <time name="total">    0.08    0.09</time>
   <energy>
    <i name="alphaZ">    165.99705657 </i>
    <i name="ewald">  -2684.21111875 </i>
    <i name="hartreedc">   -463.70284048 </i>
    <i name="XCdc">    112.31184538 </i>
    <i name="pawpsdc">   2996.47860240 </i>
    <i name="pawaedc">  -2952.01202291 </i>
    <i name="eentropy">     -0.00166881 </i>
    <i name="bandstr">   -305.70237904 </i>
    <i name="atom">   3110.35427263 </i>
    <i name="e_fr_energy">    -20.48825303 </i>
    <i name="e_wo_entrp">    -20.48658421 </i>
    <i name="e_0_energy">    -20.48769675 </i>
   </energy>
  </scstep>
  <structure>
   <crystal>
    <varray name="basis" >
     <v>       3.29032753       0.00000000       0.00000000 </v>
     <v>      -0.00000000       3.29032753       0.00000000 </v>
     <v>       0.00000000       0.00000000       3.31763238 </v>
    </varray>
    <i name="volume">     35.91753494 </i>
    <varray name="rec_basis" >
     <v>       0.30392111       0.00000000       0.00000000 </v>
     <v>      -0.00000000       0.30392111       0.00000000 </v>
     <v>      -0.00000000      -0.00000000       0.30141977 </v>
    </varray>
   </crystal>
   <varray name="positions" >
    <v>      -0.00000000      -0.00000000      -0.00000000 </v>
    <v>       0.50000000       0.50000000       0.50000000 </v>
   </varray>
  </structure>
  <varray name="forces" >
   <v>      -0.00000000      -0.00000000       0.00000000 </v>
   <v>       0.00000000       0.00000000      -0.00000000 </v>
  </varray>
  <varray name="stress" >
   <v>      -3.53446285       0.00000000      -0.00000000 </v>
   <v>      -0.00000000      -3.53446285      -0.00000000 </v>
   <v>       0.00000000       0.00000000      -3.59336788 </v>
  </varray>
  <energy>
   <i name="e_fr_energy">    -20.48825303 </i>
   <i name="e_wo_entrp">    -20.48658421 </i>
   <i name="e_0_energy">    -20.48769675 </i>
  </energy>
  <time name="totalsc">    0.32    0.36</time>
 </calculation>
 <calculation>
  <scstep>
   <time name="dav">    0.06    0.06</time>
   <time name="total">    0.07    0.08</time>
   <energy>
    <i name="alphaZ">    166.02926232 </i>
    <i name="ewald">  -2684.38462528 </i>
    <i name="hartreedc">   -463.70971318 </i>
    <i name="XCdc">    112.31769364 </i>
    <i name="pawpsdc">   2996.50946742 </i>
    <i name="pawaedc">  -2952.04683049 </i>
    <i name="eentropy">     -0.00166683 </i>
    <i name="bandstr">   -305.55690013 </i>
    <i name="atom">   3110.35427263 </i>
    <i name="e_fr_energy">    -20.48903990 </i>
    <i name="e_wo_entrp">    -20.48737308 </i>
    <i name="e_0_energy">    -20.48848430 </i>
   </energy>
  </scstep>
  <scstep>
   <time name="dav">    0.07    0.07</time>
   <time name="total">    0.09    0.10</time>
   <energy>
    <i name="e_fr_energy">    -20.48903512 </i>
    <i name="e_wo_entrp">    -20.48737211 </i>
    <i name="e_0_energy">    -20.48848079 </i>
   </energy>
  </scstep>
  <scstep>
   <time name="dav">    0.09    0.09</time>
   <time name="total">    0.10    0.10</time>
   <energy>
    <i name="e_fr_energy">    -20.48903739 </i>
    <i name="e_wo_entrp">    -20.48737752 </i>
    <i name="e_0_energy">    -20.48848410 </i>
   </energy>
  </scstep>
  <scstep>
   <time name="dav">    0.04    0.04</time>
   <time name="total">    0.06    0.06</time>
   <energy>
    <i name="e_fr_energy">    -20.48903840 </i>
    <i name="e_wo_entrp">    -20.48737832 </i>
    <i name="e_0_energy">    -20.48848504 </i>
   </energy>
  </scstep>
  <scstep>
   <time name="dav">    0.04    0.04</time>
   <time name="total">    0.06    0.06</time>
   <energy>
    <i name="e_fr_energy">    -20.48904069 </i>
    <i name="e_wo_entrp">    -20.48738139 </i>
    <i name="e_0_energy">    -20.48848759 </i>
   </energy>
  </scstep>
  <scstep>
   <time name="dav">    0.04    0.04</time>
   <time name="total">    0.05    0.05</time>
   <energy>
    <i name="alphaZ">    166.02926232 </i>
    <i name="ewald">  -2684.38462528 </i>
    <i name="hartreedc">   -463.61991529 </i>
    <i name="XCdc">    112.31316128 </i>
    <i name="pawpsdc">   2996.88136978 </i>
    <i name="pawaedc">  -2952.41557847 </i>
    <i name="eentropy">     -0.00165921 </i>
    <i name="bandstr">   -305.64532882 </i>
    <i name="atom">   3110.35427263 </i>
    <i name="e_fr_energy">    -20.48904107 </i>
    <i name="e_wo_entrp">    -20.48738186 </i>
    <i name="e_0_energy">    -20.48848800 </i>
   </energy>
  </scstep>
  <structure>
   <crystal>
    <varray name="basis" >
     <v>       3.29000839       0.00000000       0.00000000 </v>
     <v>      -0.00000000       3.29000839       0.00000000 </v>
     <v>       0.00000000       0.00000000       3.31763238 </v>
    </varray>
    <i name="volume">     35.91056779 </i>
    <varray name="rec_basis" >
     <v>       0.30395059       0.00000000       0.00000000 </v>
     <v>      -0.00000000       0.30395059       0.00000000 </v>
     <v>      -0.00000000      -0.00000000       0.30141977 </v>
    </varray>
   </crystal>
   <varray name="positions" >
    <v>      -0.00000000      -0.00000000      -0.00000000 </v>
    <v>       0.50000000       0.50000000       0.50000000 </v>
   </varray>
  </structure>
  <varray name="forces" >
   <v>      -0.00000000       0.00000000       0.00000000 </v>
   <v>       0.00000000      -0.00000000      -0.00000000 </v>
  </varray>
  <varray name="stress" >
   <v>      -2.73518265      -0.00000000      -0.00000000 </v>
   <v>      -0.00000000      -2.73518265      -0.00000000 </v>
   <v>       0.00000000       0.00000000      -2.78130646 </v>
  </varray>
  <energy>
   <i name="e_fr_energy">    -20.48904107 </i>
   <i name="e_wo_entrp">    -20.48738186 </i>
   <i name="e_0_energy">    -20.48848800 </i>
  </energy>
  <time name="totalsc">    0.59    0.64</time>
 </calculation>
 <calculation>
  <scstep>
   <time name="dav">    0.06    0.06</time>
   <time name="total">    0.08    0.08</time>
   <energy>
    <i name="alphaZ">    166.09370195 </i>
    <i name="ewald">  -2684.73172009 </i>
    <i name="hartreedc">   -463.67925732 </i>
    <i name="XCdc">    112.32711391 </i>
    <i name="pawpsdc">   2996.88834590 </i>
    <i name="pawaedc">  -2952.42253497 </i>
    <i name="eentropy">     -0.00165882 </i>
    <i name="bandstr">   -305.31889558 </i>
    <i name="atom">   3110.35427263 </i>
    <i name="e_fr_energy">    -20.49063239 </i>
    <i name="e_wo_entrp">    -20.48897357 </i>
    <i name="e_0_energy">    -20.49007945 </i>
   </energy>
  </scstep>
  <scstep>
   <time name="dav">    0.07    0.07</time>
   <time name="total">    0.09    0.09</time>
   <energy>
    <i name="e_fr_energy">    -20.49060813 </i>
    <i name="e_wo_entrp">    -20.48895660 </i>
    <i name="e_0_energy">    -20.49005762 </i>
   </energy>
  </scstep>
  <scstep>
   <time name="dav">    0.09    0.09</time>
   <time name="total">    0.11    0.11</time>
   <energy>
    <i name="e_fr_energy">    -20.49060711 </i>
    <i name="e_wo_entrp">    -20.48896158 </i>
    <i name="e_0_energy">    -20.49005860 </i>
   </energy>
  </scstep>
  <scstep>
   <time name="dav">    0.07    0.07</time>
   <time name="total">    0.09    0.09</time>
   <energy>
    <i name="e_fr_energy">    -20.49060960 </i>
    <i name="e_wo_entrp">    -20.48896373 </i>
    <i name="e_0_energy">    -20.49006098 </i>
   </energy>
  </scstep>
  <scstep>
   <time name="dav">    0.05    0.05</time>
   <time name="total">    0.06    0.06</time>
   <energy>
    <i name="e_fr_energy">    -20.49061389 </i>
    <i name="e_wo_entrp">    -20.48896968 </i>
    <i name="e_0_energy">    -20.49006582 </i>
   </energy>
  </scstep>
  <scstep>
   <time name="dav">    0.04    0.04</time>
   <time name="total">    0.06    0.06</time>
   <energy>
    <i name="e_fr_energy">    -20.49061537 </i>
    <i name="e_wo_entrp">    -20.48897134 </i>
    <i name="e_0_energy">    -20.49006736 </i>
   </energy>
  </scstep>
  <scstep>
   <time name="dav">    0.04    0.04</time>
   <time name="total">    0.05    0.05</time>
   <energy>
    <i name="alphaZ">    166.09370195 </i>
    <i name="ewald">  -2684.73172009 </i>
    <i name="hartreedc">   -463.48887714 </i>
    <i name="XCdc">    112.31748218 </i>
    <i name="pawpsdc">   2997.67234619 </i>
    <i name="pawaedc">  -2953.20354228 </i>
    <i name="eentropy">     -0.00164414 </i>
    <i name="bandstr">   -305.50263412 </i>
    <i name="atom">   3110.35427263 </i>
    <i name="e_fr_energy">    -20.49061482 </i>
    <i name="e_wo_entrp">    -20.48897068 </i>
    <i name="e_0_energy">    -20.49006677 </i>
   </energy>
  </scstep>
  <structure>
   <crystal>
    <varray name="basis" >
     <v>       3.28937011       0.00000000       0.00000000 </v>
     <v>      -0.00000000       3.28937011       0.00000000 </v>
     <v>       0.00000000       0.00000000       3.31763238 </v>
    </varray>
    <i name="volume">     35.89663551 </i>
    <varray name="rec_basis" >
     <v>       0.30400957       0.00000000       0.00000000 </v>
     <v>      -0.00000000       0.30400957       0.00000000 </v>
     <v>      -0.00000000      -0.00000000       0.30141977 </v>
    </varray>
   </crystal>
   <varray name="positions" >
    <v>      -0.00000000      -0.00000000      -0.00000000 </v>
    <v>       0.50000000       0.50000000       0.50000000 </v>
   </varray>
  </structure>
  <varray name="forces" >
   <v>       0.00000000       0.00000000       0.00000000 </v>
   <v>      -0.00000000      -0.00000000      -0.00000000 </v>
  </varray>
  <varray name="stress" >
   <v>      -2.33747192       0.00000000       0.00000000 </v>
   <v>       0.00000000      -2.33747192      -0.00000000 </v>
   <v>       0.00000000       0.00000000      -2.37781160 </v>
  </varray>
  <energy>
   <i name="e_fr_energy">    -20.49061482 </i>
   <i name="e_wo_entrp">    -20.48897068 </i>
   <i name="e_0_energy">    -20.49006677 </i>
  </energy>
  <time name="totalsc">    0.69    0.72</time>
 </calculation>
 <calculation>
  <scstep>
   <time name="dav">    0.06    0.06</time>
   <time name="total">    0.08    0.08</time>
   <energy>
    <i name="alphaZ">    166.22269380 </i>
    <i name="ewald">  -2685.42623694 </i>
    <i name="hartreedc">   -463.60929002 </i>
    <i name="XCdc">    112.34548570 </i>
    <i name="pawpsdc">   2997.66255509 </i>
    <i name="pawaedc">  -2953.19299431 </i>
    <i name="eentropy">     -0.00164539 </i>
    <i name="bandstr">   -304.84872111 </i>
    <i name="atom">   3110.35427263 </i>
    <i name="e_fr_energy">    -20.49388056 </i>
    <i name="e_wo_entrp">    -20.49223517 </i>
    <i name="e_0_energy">    -20.49333210 </i>
   </energy>
  </scstep>
  <scstep>
   <time name="dav">    0.07    0.07</time>
   <time name="total">    0.09    0.09</time>
   <energy>
    <i name="e_fr_energy">    -20.49377704 </i>
    <i name="e_wo_entrp">    -20.49214573 </i>
    <i name="e_0_energy">    -20.49323327 </i>
   </energy>
  </scstep>
  <scstep>
   <time name="dav">    0.09    0.09</time>
   <time name="total">    0.11    0.11</time>
   <energy>
    <i name="e_fr_energy">    -20.49375834 </i>
    <i name="e_wo_entrp">    -20.49213881 </i>
    <i name="e_0_energy">    -20.49321849 </i>
   </energy>
  </scstep>
  <scstep>
   <time name="dav">    0.08    0.08</time>
   <time name="total">    0.10    0.10</time>
   <energy>
    <i name="e_fr_energy">    -20.49376467 </i>
    <i name="e_wo_entrp">    -20.49214456 </i>
    <i name="e_0_energy">    -20.49322463 </i>
   </energy>
  </scstep>
  <scstep>
   <time name="dav">    0.08    0.08</time>
   <time name="total">    0.10    0.10</time>
   <energy>
    <i name="e_fr_energy">    -20.49377420 </i>
    <i name="e_wo_entrp">    -20.49215733 </i>
    <i name="e_0_energy">    -20.49323524 </i>
   </energy>
  </scstep>
  <scstep>
   <time name="dav">    0.05    0.05</time>
   <time name="total">    0.06    0.06</time>
   <energy>
    <i name="e_fr_energy">    -20.49377642 </i>
    <i name="e_wo_entrp">    -20.49215984 </i>
    <i name="e_0_energy">    -20.49323756 </i>
   </energy>
  </scstep>
  <scstep>
   <time name="dav">    0.04    0.04</time>
   <time name="total">    0.05    0.05</time>
   <energy>
    <i name="alphaZ">    166.22269380 </i>
    <i name="ewald">  -2685.42623694 </i>
    <i name="hartreedc">   -463.22884372 </i>
    <i name="XCdc">    112.32624654 </i>
    <i name="pawpsdc">   2999.39522088 </i>
    <i name="pawaedc">  -2954.92063077 </i>
    <i name="eentropy">     -0.00161656 </i>
    <i name="bandstr">   -305.21488226 </i>
    <i name="atom">   3110.35427263 </i>
    <i name="e_fr_energy">    -20.49377640 </i>
    <i name="e_wo_entrp">    -20.49215984 </i>
    <i name="e_0_energy">    -20.49323755 </i>
   </energy>
  </scstep>
  <structure>
   <crystal>
    <varray name="basis" >
     <v>       3.28809356       0.00000000       0.00000000 </v>
     <v>      -0.00000000       3.28809356       0.00000000 </v>
     <v>       0.00000000       0.00000000       3.31763238 </v>
    </varray>
    <i name="volume">     35.86877907 </i>
    <varray name="rec_basis" >
     <v>       0.30412760       0.00000000       0.00000000 </v>
     <v>      -0.00000000       0.30412760       0.00000000 </v>
     <v>      -0.00000000      -0.00000000       0.30141977 </v>
    </varray>
   </crystal>
   <varray name="positions" >
    <v>      -0.00000000      -0.00000000      -0.00000000 </v>
    <v>       0.50000000       0.50000000       0.50000000 </v>
   </varray>
  </structure>
  <varray name="forces" >
   <v>      -0.00000000      -0.00000000       0.00000000 </v>
   <v>       0.00000000       0.00000000      -0.00000000 </v>
  </varray>
  <varray name="stress" >
   <v>      -1.62974600       0.00000000       0.00000000 </v>
   <v>       0.00000000      -1.62974600      -0.00000000 </v>
   <v>      -0.00000000       0.00000000      -1.65915940 </v>
  </varray>
  <energy>
   <i name="e_fr_energy">    -20.49377640 </i>
   <i name="e_wo_entrp">    -20.49215984 </i>
   <i name="e_0_energy">    -20.49323755 </i>
  </energy>
  <time name="totalsc">    0.75    0.79</time>
 </calculation>
 <calculation>
  <scstep>
   <time name="dav">    0.06    0.06</time>
   <time name="total">    0.08    0.08</time>
   <energy>
    <i name="alphaZ">    166.48112872 </i>
    <i name="ewald">  -2686.81658140 </i>
    <i name="hartreedc">   -463.46801069 </i>
    <i name="XCdc">    112.38222068 </i>
    <i name="pawpsdc">   2999.38780452 </i>
    <i name="pawaedc">  -2954.91296605 </i>
    <i name="eentropy">     -0.00162678 </i>
    <i name="bandstr">   -303.90688048 </i>
    <i name="atom">   3110.35427263 </i>
    <i name="e_fr_energy">    -20.50063885 </i>
    <i name="e_wo_entrp">    -20.49901207 </i>
    <i name="e_0_energy">    -20.50009659 </i>
   </energy>
  </scstep>
  <scstep>
   <time name="dav">    0.07    0.07</time>
   <time name="total">    0.09    0.09</time>
   <energy>
    <i name="e_fr_energy">    -20.50021281 </i>
    <i name="e_wo_entrp">    -20.49861282 </i>
    <i name="e_0_energy">    -20.49967948 </i>
   </energy>
  </scstep>
  <scstep>
   <time name="dav">    0.12    0.13</time>
   <time name="total">    0.18    0.18</time>
   <energy>
    <i name="e_fr_energy">    -20.50010932 </i>
    <i name="e_wo_entrp">    -20.49853241 </i>
    <i name="e_0_energy">    -20.49958368 </i>
   </energy>
  </scstep>
  <scstep>
   <time name="dav">    0.09    0.09</time>
   <time name="total">    0.11    0.11</time>
   <energy>
    <i name="e_fr_energy">    -20.50012747 </i>
    <i name="e_wo_entrp">    -20.49854978 </i>
    <i name="e_0_energy">    -20.49960157 </i>
   </energy>
  </scstep>
  <scstep>
   <time name="dav">    0.09    0.09</time>
   <time name="total">    0.11    0.11</time>
   <energy>
    <i name="e_fr_energy">    -20.50015159 </i>
    <i name="e_wo_entrp">    -20.49858052 </i>
    <i name="e_0_energy">    -20.49962790 </i>
   </energy>
  </scstep>
  <scstep>
   <time name="dav">    0.11    0.11</time>
   <time name="total">    0.17    0.17</time>
   <energy>
    <i name="e_fr_energy">    -20.50015619 </i>
    <i name="e_wo_entrp">    -20.49858587 </i>
    <i name="e_0_energy">    -20.49963275 </i>
   </energy>
  </scstep>
  <scstep>
   <time name="dav">    0.04    0.04</time>
   <time name="total">    0.06    0.06</time>
   <energy>
    <i name="alphaZ">    166.48112872 </i>
    <i name="ewald">  -2686.81658140 </i>
    <i name="hartreedc">   -462.70513849 </i>
    <i name="XCdc">    112.34366733 </i>
    <i name="pawpsdc">   3002.77214500 </i>
    <i name="pawaedc">  -2958.28873008 </i>
    <i name="eentropy">     -0.00157017 </i>
    <i name="bandstr">   -304.63935005 </i>
    <i name="atom">   3110.35427263 </i>
    <i name="e_fr_energy">    -20.50015650 </i>
    <i name="e_wo_entrp">    -20.49858634 </i>
    <i name="e_0_energy">    -20.49963312 </i>
   </energy>
  </scstep>
  <structure>
   <crystal>
    <varray name="basis" >
     <v>       3.28554045       0.00000000       0.00000000 </v>
     <v>      -0.00000000       3.28554045       0.00000000 </v>
     <v>       0.00000000       0.00000000       3.31763238 </v>
    </varray>
    <i name="volume">     35.81309861 </i>
    <varray name="rec_basis" >
     <v>       0.30436393       0.00000000       0.00000000 </v>
     <v>      -0.00000000       0.30436393       0.00000000 </v>
     <v>      -0.00000000      -0.00000000       0.30141977 </v>
    </varray>
   </crystal>
   <varray name="positions" >
    <v>      -0.00000000      -0.00000000      -0.00000000 </v>
    <v>       0.50000000       0.50000000       0.50000000 </v>
   </varray>
  </structure>
  <varray name="forces" >
   <v>       0.00000000       0.00000000      -0.00000000 </v>
   <v>      -0.00000000      -0.00000000       0.00000000 </v>
  </varray>
  <varray name="stress" >
   <v>      -0.24973141       0.00000000      -0.00000000 </v>
   <v>      -0.00000000      -0.24973141      -0.00000000 </v>
   <v>       0.00000000      -0.00000000      -0.25463380 </v>
  </varray>
  <energy>
   <i name="e_fr_energy">    -20.50015650 </i>
   <i name="e_wo_entrp">    -20.49858634 </i>
   <i name="e_0_energy">    -20.49963312 </i>
  </energy>
  <time name="totalsc">    0.94    0.98</time>
  <eigenvalues>
   <array>
    <dimension dim="1">band</dimension>
    <dimension dim="2">kpoint</dimension>
    <dimension dim="3">spin</dimension>
    <field>eigene</field>
    <field>occ</field>
    <set>
     <set comment="spin 1">
      <set comment="kpoint 1">
       <r>  -43.1013    1.0000 </r>
       <r>  -42.6903    1.0000 </r>
       <r>  -19.3755    1.0000 </r>
       <r>  -19.3496    1.0000 </r>
       <r>  -19.2577    1.0000 </r>
       <r>  -18.4839    1.0000 </r>
       <r>  -18.4442    1.0000 </r>
       <r>  -18.3294    1.0000 </r>
       <r>    5.4704    1.0000 </r>
       <r>    7.5844    1.0000 </r>
       <r>    7.6455    1.0000 </r>
       <r>   11.5336   -0.0000 </r>
       <r>   11.5658   -0.0000 </r>
       <r>   11.8033   -0.0000 </r>
       <r>   14.3475    0.0000 </r>
       <r>   14.6015    0.0000 </r>
       <r>   15.9997    0.0000 </r>
       <r>   16.6653    0.0000 </r>
      </set>
      <set comment="kpoint 2">
       <r>  -43.0781    1.0000 </r>
       <r>  -42.7070    1.0000 </r>
       <r>  -19.3992    1.0000 </r>
       <r>  -19.3005    1.0000 </r>
       <r>  -19.1962    1.0000 </r>
       <r>  -18.6020    1.0000 </r>
       <r>  -18.4748    1.0000 </r>
       <r>  -18.3634    1.0000 </r>
       <r>    5.8726    1.0000 </r>
       <r>    7.8402    1.0000 </r>
       <r>    7.9554    1.0000 </r>
       <r>   11.3932   -0.0155 </r>
       <r>   11.4966   -0.0003 </r>
       <r>   12.0959   -0.0000 </r>
       <r>   13.9800    0.0000 </r>
       <r>   14.6630    0.0000 </r>
       <r>   14.8530    0.0000 </r>
       <r>   15.5680    0.0000 </r>
      </set>
      <set comment="kpoint 3">
       <r>  -43.0347    1.0000 </r>
       <r>  -42.7399    1.0000 </r>
       <r>  -19.4087    1.0000 </r>
       <r>  -19.2113    1.0000 </r>
       <r>  -19.0974    1.0000 </r>
       <r>  -18.7807    1.0000 </r>
       <r>  -18.5529    1.0000 </r>
       <r>  -18.4380    1.0000 </r>
       <r>    6.6059    1.0000 </r>
       <r>    8.2734    1.0000 </r>
       <r>    8.5163    1.0000 </r>
       <r>   11.3313   -0.0346 </r>
       <r>   11.4124   -0.0090 </r>
       <r>   12.5242   -0.0000 </r>
       <r>   13.1221   -0.0000 </r>
       <r>   13.7195   -0.0000 </r>
       <r>   14.3589    0.0000 </r>
       <r>   15.0597    0.0000 </r>
      </set>
      <set comment="kpoint 4">
       <r>  -42.9767    1.0000 </r>
       <r>  -42.7872    1.0000 </r>
       <r>  -19.3822    1.0000 </r>
       <r>  -19.0898    1.0000 </r>
       <r>  -18.9817    1.0000 </r>
       <r>  -18.9714    1.0000 </r>
       <r>  -18.6661    1.0000 </r>
       <r>  -18.5483    1.0000 </r>
       <r>    7.5281    1.0000 </r>
       <r>    8.8902    1.0000 </r>
       <r>    9.0091    1.0000 </r>
       <r>   11.2414    0.2922 </r>
       <r>   11.4304   -0.0049 </r>
       <r>   12.2982   -0.0000 </r>
       <r>   12.8077   -0.0000 </r>
       <r>   13.0942   -0.0000 </r>
       <r>   13.3408   -0.0000 </r>
       <r>   15.3618    0.0000 </r>
      </set>
      <set comment="kpoint 5">
       <r>  -42.9114    1.0000 </r>
       <r>  -42.8460    1.0000 </r>
       <r>  -19.3027    1.0000 </r>
       <r>  -19.1654    1.0000 </r>
       <r>  -18.9486    1.0000 </r>
       <r>  -18.8289    1.0000 </r>
       <r>  -18.8025    1.0000 </r>
       <r>  -18.6832    1.0000 </r>
       <r>    8.4221    1.0000 </r>
       <r>    8.9948    1.0000 </r>
       <r>    9.7055    1.0000 </r>
       <r>   10.5879    1.0000 </r>
       <r>   11.7145   -0.0000 </r>
       <r>   12.1598   -0.0000 </r>
       <r>   12.1684   -0.0000 </r>
       <r>   12.5887   -0.0000 </r>
       <r>   13.7895   -0.0000 </r>
       <r>   14.5631    0.0000 </r>
      </set>
      <set comment="kpoint 6">
       <r>  -43.0566    1.0000 </r>
       <r>  -42.7217    1.0000 </r>
       <r>  -19.4582    1.0000 </r>
       <r>  -19.2419    1.0000 </r>
       <r>  -19.1194    1.0000 </r>
       <r>  -18.7544    1.0000 </r>
       <r>  -18.4485    1.0000 </r>
       <r>  -18.4029    1.0000 </r>
       <r>    6.2382    1.0000 </r>
       <r>    8.1093    1.0000 </r>
       <r>    8.2287    1.0000 </r>
       <r>   11.0601    1.0250 </r>
       <r>   11.3493   -0.0339 </r>
       <r>   12.6092   -0.0000 </r>
       <r>   13.7206   -0.0000 </r>
       <r>   14.1548    0.0000 </r>
       <r>   14.4336    0.0000 </r>
       <r>   14.9044    0.0000 </r>
      </set>
      <set comment="kpoint 7">
       <r>  -43.0167    1.0000 </r>
       <r>  -42.7506    1.0000 </r>
       <r>  -19.5024    1.0000 </r>
       <r>  -19.1496    1.0000 </r>
       <r>  -19.0091    1.0000 </r>
       <r>  -18.9513    1.0000 </r>
       <r>  -18.4950    1.0000 </r>
       <r>  -18.4602    1.0000 </r>
       <r>    6.8860    1.0000 </r>
       <r>    8.4635    1.0000 </r>
       <r>    8.8007    1.0000 </r>
       <r>   10.8260    1.0000 </r>
       <r>   11.1756    0.8126 </r>
       <r>   12.6911   -0.0000 </r>
       <r>   13.2360   -0.0000 </r>
       <r>   13.6483   -0.0000 </r>
       <r>   13.9170   -0.0000 </r>
       <r>   14.8402    0.0000 </r>
      </set>
      <set comment="kpoint 8">
       <r>  -42.9637    1.0000 </r>
       <r>  -42.7926    1.0000 </r>
       <r>  -19.5050    1.0000 </r>
       <r>  -19.1544    1.0000 </r>
       <r>  -19.0272    1.0000 </r>
       <r>  -18.8843    1.0000 </r>
       <r>  -18.6049    1.0000 </r>
       <r>  -18.5320    1.0000 </r>
       <r>    7.6608    1.0000 </r>
       <r>    8.8445    1.0000 </r>
       <r>    9.3596    1.0000 </r>
       <r>   10.7431    1.0000 </r>
       <r>   11.0142    1.0075 </r>
       <r>   11.9336   -0.0000 </r>
       <r>   13.0936   -0.0000 </r>
       <r>   13.2127   -0.0000 </r>
       <r>   13.9624    0.0000 </r>
       <r>   15.3612    0.0000 </r>
      </set>
      <set comment="kpoint 9">
       <r>  -42.9042    1.0000 </r>
       <r>  -42.8452    1.0000 </r>
       <r>  -19.4489    1.0000 </r>
       <r>  -19.3288    1.0000 </r>
       <r>  -18.8861    1.0000 </r>
       <r>  -18.7554    1.0000 </r>
       <r>  -18.7404    1.0000 </r>
       <r>  -18.6339    1.0000 </r>
       <r>    8.3759    1.0000 </r>
       <r>    8.8522    1.0000 </r>
       <r>    9.8966    1.0000 </r>
       <r>   10.4665    1.0000 </r>
       <r>   11.0666    1.0279 </r>
       <r>   11.4193   -0.0072 </r>
       <r>   12.8937   -0.0000 </r>
       <r>   12.9502   -0.0000 </r>
       <r>   14.7140    0.0000 </r>
       <r>   15.4021    0.0000 </r>
      </set>
      <set comment="kpoint 10">
       <r>  -42.9835    1.0000 </r>
       <r>  -42.7720    1.0000 </r>
       <r>  -19.5893    1.0000 </r>
       <r>  -19.1599    1.0000 </r>
       <r>  -19.0670    1.0000 </r>
       <r>  -18.8863    1.0000 </r>
       <r>  -18.5354    1.0000 </r>
       <r>  -18.4554    1.0000 </r>
       <r>    7.3260    1.0000 </r>
       <r>    8.5810    1.0000 </r>
       <r>    9.4511    1.0000 </r>
       <r>   10.4136    1.0000 </r>
       <r>   11.0772    1.0322 </r>
       <r>   11.7719   -0.0000 </r>
       <r>   13.2837   -0.0000 </r>
       <r>   14.0418    0.0000 </r>
       <r>   14.2069    0.0000 </r>
       <r>   14.6263    0.0000 </r>
      </set>
      <set comment="kpoint 11">
       <r>  -42.9399    1.0000 </r>
       <r>  -42.8039    1.0000 </r>
       <r>  -19.6322    1.0000 </r>
       <r>  -19.3599    1.0000 </r>
       <r>  -18.9627    1.0000 </r>
       <r>  -18.7602    1.0000 </r>
       <r>  -18.6208    1.0000 </r>
       <r>  -18.4813    1.0000 </r>
       <r>    7.7530    1.0000 </r>
       <r>    8.5654    1.0000 </r>
       <r>   10.1588    1.0000 </r>
       <r>   10.2087    1.0000 </r>
       <r>   11.0941    1.0355 </r>
       <r>   11.1845    0.7522 </r>
       <r>   13.1151   -0.0000 </r>
       <r>   13.9568    0.0000 </r>
       <r>   14.9765    0.0000 </r>
       <r>   15.0961    0.0000 </r>
      </set>
      <set comment="kpoint 12">
       <r>  -42.8917    1.0000 </r>
       <r>  -42.8448    1.0000 </r>
       <r>  -19.6109    1.0000 </r>
       <r>  -19.5177    1.0000 </r>
       <r>  -18.8455    1.0000 </r>
       <r>  -18.7276    1.0000 </r>
       <r>  -18.6438    1.0000 </r>
       <r>  -18.5473    1.0000 </r>
       <r>    8.0958    1.0000 </r>
       <r>    8.3788    1.0000 </r>
       <r>   10.2343    1.0000 </r>
       <r>   10.4351    1.0000 </r>
       <r>   10.9117    1.0001 </r>
       <r>   11.1874    0.7310 </r>
       <r>   13.4570   -0.0000 </r>
       <r>   13.7725   -0.0000 </r>
       <r>   15.5331    0.0000 </r>
       <r>   16.0183    0.0000 </r>
      </set>
      <set comment="kpoint 13">
       <r>  -42.9094    1.0000 </r>
       <r>  -42.8220    1.0000 </r>
       <r>  -19.7173    1.0000 </r>
       <r>  -19.5449    1.0000 </r>
       <r>  -18.8883    1.0000 </r>
       <r>  -18.6681    1.0000 </r>
       <r>  -18.6435    1.0000 </r>
       <r>  -18.4625    1.0000 </r>
       <r>    7.7474    1.0000 </r>
       <r>    8.2206    1.0000 </r>
       <r>    9.8632    1.0000 </r>
       <r>   10.4060    1.0000 </r>
       <r>   11.1242    1.0143 </r>
       <r>   11.8199   -0.0000 </r>
       <r>   13.4009   -0.0000 </r>
       <r>   14.5292    0.0000 </r>
       <r>   14.9363    0.0000 </r>
       <r>   15.9863    0.0000 </r>
      </set>
      <set comment="kpoint 14">
       <r>  -42.8769    1.0000 </r>
       <r>  -42.8468    1.0000 </r>
       <r>  -19.7357    1.0000 </r>
       <r>  -19.6767    1.0000 </r>
       <r>  -18.8088    1.0000 </r>
       <r>  -18.7328    1.0000 </r>
       <r>  -18.5495    1.0000 </r>
       <r>  -18.4868    1.0000 </r>
       <r>    7.7748    1.0000 </r>
       <r>    7.9315    1.0000 </r>
       <r>    9.7749    1.0000 </r>
       <r>    9.9601    1.0000 </r>
       <r>   11.9166   -0.0000 </r>
       <r>   12.2356   -0.0000 </r>
       <r>   14.0015    0.0000 </r>
       <r>   14.4707    0.0000 </r>
       <r>   15.4000    0.0000 </r>
       <r>   16.3587    0.0000 </r>
      </set>
      <set comment="kpoint 15">
       <r>  -42.8630    1.0000 </r>
       <r>  -42.8526    1.0000 </r>
       <r>  -19.7949    1.0000 </r>
       <r>  -19.7747    1.0000 </r>
       <r>  -18.7753    1.0000 </r>
       <r>  -18.7491    1.0000 </r>
       <r>  -18.4887    1.0000 </r>
       <r>  -18.4670    1.0000 </r>
       <r>    7.6062    1.0000 </r>
       <r>    7.6576    1.0000 </r>
       <r>    9.5572    1.0000 </r>
       <r>    9.6210    1.0000 </r>
       <r>   12.9767   -0.0000 </r>
       <r>   13.2040   -0.0000 </r>
       <r>   14.4985    0.0000 </r>
       <r>   14.7354    0.0000 </r>
       <r>   15.2209    0.0000 </r>
       <r>   15.7656    0.0000 </r>
      </set>
      <set comment="kpoint 16">
       <r>  -43.0373    1.0000 </r>
       <r>  -42.7349    1.0000 </r>
       <r>  -19.4081    1.0000 </r>
       <r>  -19.3476    1.0000 </r>
       <r>  -18.9939    1.0000 </r>
       <r>  -18.8566    1.0000 </r>
       <r>  -18.4968    1.0000 </r>
       <r>  -18.4007    1.0000 </r>
       <r>    6.5826    1.0000 </r>
       <r>    8.3969    1.0000 </r>
       <r>    8.4554    1.0000 </r>
       <r>   10.9265    1.0002 </r>
       <r>   10.9676    1.0012 </r>
       <r>   12.5848   -0.0000 </r>
       <r>   13.2195   -0.0000 </r>
       <r>   14.2045    0.0000 </r>
       <r>   14.4049    0.0000 </r>
       <r>   15.7174    0.0000 </r>
      </set>
      <set comment="kpoint 17">
       <r>  -43.0006    1.0000 </r>
       <r>  -42.7603    1.0000 </r>
       <r>  -19.4778    1.0000 </r>
       <r>  -19.2616    1.0000 </r>
       <r>  -19.0439    1.0000 </r>
       <r>  -18.8715    1.0000 </r>
       <r>  -18.5478    1.0000 </r>
       <r>  -18.4375    1.0000 </r>
       <r>    7.1925    1.0000 </r>
       <r>    8.7637    1.0000 </r>
       <r>    8.9723    1.0000 </r>
       <r>   10.6759    1.0000 </r>
       <r>   10.7340    1.0000 </r>
       <r>   11.6437   -0.0000 </r>
       <r>   13.9077   -0.0000 </r>
       <r>   13.9747    0.0000 </r>
       <r>   14.6329    0.0000 </r>
       <r>   14.7402    0.0000 </r>
      </set>
      <set comment="kpoint 18">
       <r>  -42.9520    1.0000 </r>
       <r>  -42.7976    1.0000 </r>
       <r>  -19.5119    1.0000 </r>
       <r>  -19.2326    1.0000 </r>
       <r>  -19.1301    1.0000 </r>
       <r>  -18.7525    1.0000 </r>
       <r>  -18.6656    1.0000 </r>
       <r>  -18.4818    1.0000 </r>
       <r>    7.8801    1.0000 </r>
       <r>    9.1994    1.0000 </r>
       <r>    9.2747    1.0000 </r>
       <r>   10.4614    1.0000 </r>
       <r>   10.7320    1.0000 </r>
       <r>   11.2203    0.4629 </r>
       <r>   13.4414   -0.0000 </r>
       <r>   13.7672   -0.0000 </r>
       <r>   14.7728    0.0000 </r>
       <r>   15.2799    0.0000 </r>
      </set>
      <set comment="kpoint 19">
       <r>  -42.8979    1.0000 </r>
       <r>  -42.8446    1.0000 </r>
       <r>  -19.4838    1.0000 </r>
       <r>  -19.3875    1.0000 </r>
       <r>  -18.9756    1.0000 </r>
       <r>  -18.8149    1.0000 </r>
       <r>  -18.6435    1.0000 </r>
       <r>  -18.5512    1.0000 </r>
       <r>    8.4850    1.0000 </r>
       <r>    8.9848    1.0000 </r>
       <r>    9.6990    1.0000 </r>
       <r>   10.1331    1.0000 </r>
       <r>   11.0316    1.0128 </r>
       <r>   11.2324    0.3631 </r>
       <r>   13.1568   -0.0000 </r>
       <r>   13.2530   -0.0000 </r>
       <r>   15.2295    0.0000 </r>
       <r>   15.3968    0.0000 </r>
      </set>
      <set comment="kpoint 20">
       <r>  -42.9700    1.0000 </r>
       <r>  -42.7791    1.0000 </r>
       <r>  -19.5337    1.0000 </r>
       <r>  -19.2183    1.0000 </r>
       <r>  -19.2166    1.0000 </r>
       <r>  -18.7584    1.0000 </r>
       <r>  -18.5293    1.0000 </r>
       <r>  -18.5105    1.0000 </r>
       <r>    7.6864    1.0000 </r>
       <r>    8.9833    1.0000 </r>
       <r>    9.5220    1.0000 </r>
       <r>   10.2893    1.0000 </r>
       <r>   10.5921    1.0000 </r>
       <r>   10.8151    1.0000 </r>
       <r>   14.2708    0.0000 </r>
       <r>   14.3025    0.0000 </r>
       <r>   14.6118    0.0000 </r>
       <r>   14.9044    0.0000 </r>
      </set>
      <set comment="kpoint 21">
       <r>  -42.9299    1.0000 </r>
       <r>  -42.8072    1.0000 </r>
       <r>  -19.5858    1.0000 </r>
       <r>  -19.3858    1.0000 </r>
       <r>  -19.1017    1.0000 </r>
       <r>  -18.6606    1.0000 </r>
       <r>  -18.6488    1.0000 </r>
       <r>  -18.5091    1.0000 </r>
       <r>    8.1166    1.0000 </r>
       <r>    8.9370    1.0000 </r>
       <r>    9.9461    1.0000 </r>
       <r>   10.0892    1.0000 </r>
       <r>   10.6829    1.0000 </r>
       <r>   10.7106    1.0000 </r>
       <r>   13.8296   -0.0000 </r>
       <r>   14.0924    0.0000 </r>
       <r>   15.0648    0.0000 </r>
       <r>   15.8627    0.0000 </r>
      </set>
      <set comment="kpoint 22">
       <r>  -42.8860    1.0000 </r>
       <r>  -42.8437    1.0000 </r>
       <r>  -19.5848    1.0000 </r>
       <r>  -19.5161    1.0000 </r>
       <r>  -18.9534    1.0000 </r>
       <r>  -18.7963    1.0000 </r>
       <r>  -18.5844    1.0000 </r>
       <r>  -18.5332    1.0000 </r>
       <r>    8.4025    1.0000 </r>
       <r>    8.6767    1.0000 </r>
       <r>    9.9707    1.0000 </r>
       <r>   10.0062    1.0000 </r>
       <r>   11.0071    1.0059 </r>
       <r>   11.0369    1.0148 </r>
       <r>   13.7563   -0.0000 </r>
       <r>   13.8663   -0.0000 </r>
       <r>   15.3927    0.0000 </r>
       <r>   15.6182    0.0000 </r>
      </set>
      <set comment="kpoint 23">
       <r>  -42.9018    1.0000 </r>
       <r>  -42.8229    1.0000 </r>
       <r>  -19.6566    1.0000 </r>
       <r>  -19.5332    1.0000 </r>
       <r>  -19.0139    1.0000 </r>
       <r>  -18.6882    1.0000 </r>
       <r>  -18.5913    1.0000 </r>
       <r>  -18.5243    1.0000 </r>
       <r>    8.1601    1.0000 </r>
       <r>    8.5541    1.0000 </r>
       <r>    9.8004    1.0000 </r>
       <r>   10.1121    1.0000 </r>
       <r>   11.0194    1.0089 </r>
       <r>   11.2395    0.3065 </r>
       <r>   13.9198   -0.0000 </r>
       <r>   14.5905    0.0000 </r>
       <r>   14.9808    0.0000 </r>
       <r>   16.0870    0.0000 </r>
      </set>
      <set comment="kpoint 24">
       <r>  -42.8721    1.0000 </r>
       <r>  -42.8449    1.0000 </r>
       <r>  -19.6805    1.0000 </r>
       <r>  -19.6384    1.0000 </r>
       <r>  -18.8986    1.0000 </r>
       <r>  -18.7817    1.0000 </r>
       <r>  -18.5489    1.0000 </r>
       <r>  -18.5300    1.0000 </r>
       <r>    8.1563    1.0000 </r>
       <r>    8.2729    1.0000 </r>
       <r>    9.7197    1.0000 </r>
       <r>    9.8463    1.0000 </r>
       <r>   11.6881   -0.0000 </r>
       <r>   11.7713   -0.0000 </r>
       <r>   14.2538    0.0000 </r>
       <r>   14.5266    0.0000 </r>
       <r>   15.3065    0.0000 </r>
       <r>   15.7386    0.0000 </r>
      </set>
      <set comment="kpoint 25">
       <r>  -42.8592    1.0000 </r>
       <r>  -42.8498    1.0000 </r>
       <r>  -19.7312    1.0000 </r>
       <r>  -19.7169    1.0000 </r>
       <r>  -18.8364    1.0000 </r>
       <r>  -18.7922    1.0000 </r>
       <r>  -18.5358    1.0000 </r>
       <r>  -18.5329    1.0000 </r>
       <r>    8.0028    1.0000 </r>
       <r>    8.0354    1.0000 </r>
       <r>    9.5409    1.0000 </r>
       <r>    9.5957    1.0000 </r>
       <r>   12.5043   -0.0000 </r>
       <r>   12.5647   -0.0000 </r>
       <r>   14.6672    0.0000 </r>
       <r>   14.8197    0.0000 </r>
       <r>   15.2488    0.0000 </r>
       <r>   15.5016    0.0000 </r>
      </set>
      <set comment="kpoint 26">
       <r>  -42.9450    1.0000 </r>
       <r>  -42.7934    1.0000 </r>
       <r>  -19.4280    1.0000 </r>
       <r>  -19.3580    1.0000 </r>
       <r>  -19.3106    1.0000 </r>
       <r>  -18.6531    1.0000 </r>
       <r>  -18.6155    1.0000 </r>
       <r>  -18.5195    1.0000 </r>
       <r>    8.2678    1.0000 </r>
       <r>    9.6372    1.0000 </r>
       <r>    9.6740    1.0000 </r>
       <r>    9.9800    1.0000 </r>
       <r>   10.1168    1.0000 </r>
       <r>   10.1512    1.0000 </r>
       <r>   14.5305    0.0000 </r>
       <r>   14.6604    0.0000 </r>
       <r>   15.0311    0.0000 </r>
       <r>   15.1397    0.0000 </r>
      </set>
      <set comment="kpoint 27">
       <r>  -42.9119    1.0000 </r>
       <r>  -42.8144    1.0000 </r>
       <r>  -19.5132    1.0000 </r>
       <r>  -19.4340    1.0000 </r>
       <r>  -19.2238    1.0000 </r>
       <r>  -18.7063    1.0000 </r>
       <r>  -18.5872    1.0000 </r>
       <r>  -18.5470    1.0000 </r>
       <r>    8.6699    1.0000 </r>
       <r>    9.2868    1.0000 </r>
       <r>    9.7717    1.0000 </r>
       <r>    9.9802    1.0000 </r>
       <r>   10.2072    1.0000 </r>
       <r>   10.5060    1.0000 </r>
       <r>   14.4365    0.0000 </r>
       <r>   14.4455    0.0000 </r>
       <r>   15.0373    0.0000 </r>
       <r>   15.4086    0.0000 </r>
      </set>
      <set comment="kpoint 28">
       <r>  -42.8762    1.0000 </r>
       <r>  -42.8425    1.0000 </r>
       <r>  -19.5512    1.0000 </r>
       <r>  -19.5223    1.0000 </r>
       <r>  -19.0519    1.0000 </r>
       <r>  -18.8718    1.0000 </r>
       <r>  -18.5510    1.0000 </r>
       <r>  -18.5408    1.0000 </r>
       <r>    8.7475    1.0000 </r>
       <r>    8.9010    1.0000 </r>
       <r>    9.8394    1.0000 </r>
       <r>    9.8899    1.0000 </r>
       <r>   10.7421    1.0000 </r>
       <r>   10.9584    1.0008 </r>
       <r>   14.1998    0.0000 </r>
       <r>   14.2469    0.0000 </r>
       <r>   15.3440    0.0000 </r>
       <r>   15.4121    0.0000 </r>
      </set>
      <set comment="kpoint 29">
       <r>  -42.8882    1.0000 </r>
       <r>  -42.8256    1.0000 </r>
       <r>  -19.5409    1.0000 </r>
       <r>  -19.5160    1.0000 </r>
       <r>  -19.1664    1.0000 </r>
       <r>  -18.7082    1.0000 </r>
       <r>  -18.6418    1.0000 </r>
       <r>  -18.5669    1.0000 </r>
       <r>    8.9061    1.0000 </r>
       <r>    8.9608    1.0000 </r>
       <r>    9.7378    1.0000 </r>
       <r>   10.0050    1.0000 </r>
       <r>   10.4920    1.0000 </r>
       <r>   10.7964    1.0000 </r>
       <r>   14.5720    0.0000 </r>
       <r>   14.8143    0.0000 </r>
       <r>   15.0254    0.0000 </r>
       <r>   15.4220    0.0000 </r>
      </set>
      <set comment="kpoint 30">
       <r>  -42.8639    1.0000 </r>
       <r>  -42.8423    1.0000 </r>
       <r>  -19.5788    1.0000 </r>
       <r>  -19.5716    1.0000 </r>
       <r>  -19.0223    1.0000 </r>
       <r>  -18.8555    1.0000 </r>
       <r>  -18.6122    1.0000 </r>
       <r>  -18.5786    1.0000 </r>
       <r>    8.7649    1.0000 </r>
       <r>    8.7875    1.0000 </r>
       <r>    9.7182    1.0000 </r>
       <r>    9.8514    1.0000 </r>
       <r>   11.1001    1.0347 </r>
       <r>   11.2544    0.1997 </r>
       <r>   14.6477    0.0000 </r>
       <r>   14.7548    0.0000 </r>
       <r>   15.2881    0.0000 </r>
       <r>   15.4070    0.0000 </r>
      </set>
      <set comment="kpoint 31">
       <r>  -42.8529    1.0000 </r>
       <r>  -42.8454    1.0000 </r>
       <r>  -19.6095    1.0000 </r>
       <r>  -19.6084    1.0000 </r>
       <r>  -18.9363    1.0000 </r>
       <r>  -18.8585    1.0000 </r>
       <r>  -18.6582    1.0000 </r>
       <r>  -18.6276    1.0000 </r>
       <r>    8.6712    1.0000 </r>
       <r>    8.7047    1.0000 </r>
       <r>    9.5594    1.0000 </r>
       <r>    9.6391    1.0000 </r>
       <r>   11.7199   -0.0000 </r>
       <r>   11.7792   -0.0000 </r>
       <r>   14.9392    0.0000 </r>
       <r>   15.0126    0.0000 </r>
       <r>   15.2911    0.0000 </r>
       <r>   15.3685    0.0000 </r>
      </set>
      <set comment="kpoint 32">
       <r>  -42.8716    1.0000 </r>
       <r>  -42.8313    1.0000 </r>
       <r>  -19.4967    1.0000 </r>
       <r>  -19.3810    1.0000 </r>
       <r>  -19.3039    1.0000 </r>
       <r>  -18.8035    1.0000 </r>
       <r>  -18.7049    1.0000 </r>
       <r>  -18.5812    1.0000 </r>
       <r>    9.0367    1.0000 </r>
       <r>    9.7501    1.0000 </r>
       <r>    9.7511    1.0000 </r>
       <r>    9.8920    1.0000 </r>
       <r>   10.4533    1.0000 </r>
       <r>   10.4785    1.0000 </r>
       <r>   15.0305    0.0000 </r>
       <r>   15.0587    0.0000 </r>
       <r>   15.0837    0.0000 </r>
       <r>   15.0989    0.0000 </r>
      </set>
      <set comment="kpoint 33">
       <r>  -42.8546    1.0000 </r>
       <r>  -42.8407    1.0000 </r>
       <r>  -19.4937    1.0000 </r>
       <r>  -19.4548    1.0000 </r>
       <r>  -19.1287    1.0000 </r>
       <r>  -18.9334    1.0000 </r>
       <r>  -18.7071    1.0000 </r>
       <r>  -18.6404    1.0000 </r>
       <r>    9.0677    1.0000 </r>
       <r>    9.3064    1.0000 </r>
       <r>    9.8701    1.0000 </r>
       <r>   10.1216    1.0000 </r>
       <r>   10.6381    1.0000 </r>
       <r>   10.8722    1.0000 </r>
       <r>   14.9924    0.0000 </r>
       <r>   15.0292    0.0000 </r>
       <r>   15.3046    0.0000 </r>
       <r>   15.3179    0.0000 </r>
      </set>
      <set comment="kpoint 34">
       <r>  -42.8462    1.0000 </r>
       <r>  -42.8414    1.0000 </r>
       <r>  -19.4639    1.0000 </r>
       <r>  -19.4412    1.0000 </r>
       <r>  -19.0492    1.0000 </r>
       <r>  -18.9155    1.0000 </r>
       <r>  -18.8301    1.0000 </r>
       <r>  -18.7499    1.0000 </r>
       <r>    9.2562    1.0000 </r>
       <r>    9.4990    1.0000 </r>
       <r>    9.6803    1.0000 </r>
       <r>    9.9354    1.0000 </r>
       <r>   10.9477    1.0005 </r>
       <r>   11.0385    1.0154 </r>
       <r>   15.2107    0.0000 </r>
       <r>   15.2359    0.0000 </r>
       <r>   15.3288    0.0000 </r>
       <r>   15.3404    0.0000 </r>
      </set>
      <set comment="kpoint 35">
       <r>  -42.8413    1.0000 </r>
       <r>  -42.8397    1.0000 </r>
       <r>  -19.3073    1.0000 </r>
       <r>  -19.2421    1.0000 </r>
       <r>  -19.1676    1.0000 </r>
       <r>  -19.0315    1.0000 </r>
       <r>  -18.9271    1.0000 </r>
       <r>  -18.8668    1.0000 </r>
       <r>    9.6382    1.0000 </r>
       <r>    9.9210    1.0000 </r>
       <r>    9.9567    1.0000 </r>
       <r>   10.3557    1.0000 </r>
       <r>   10.4130    1.0000 </r>
       <r>   10.4852    1.0000 </r>
       <r>   15.3471    0.0000 </r>
       <r>   15.3481    0.0000 </r>
       <r>   15.3765    0.0000 </r>
       <r>   15.3820    0.0000 </r>
      </set>
     </set>
    </set>
   </array>
  </eigenvalues>
  <separator name="orbital magnetization" >
   <v name="MAGDIPOLOUT">      0.00000000      0.00000000      0.00000000</v>
  </separator>
  <dos>
   <i name="efermi">     11.21595523 </i>
   <total>
    <array>
     <dimension dim="1">gridpoints</dimension>
     <dimension dim="2">spin</dimension>
     <field>energy</field>
     <field>total</field>
     <field>integrated</field>
     <set>
      <set comment="spin 1">
       <r>   -46.0896     0.0000     0.0000 </r>
       <r>   -45.8705     0.0000     0.0000 </r>
       <r>   -45.6513     0.0000     0.0000 </r>
       <r>   -45.4322     0.0000     0.0000 </r>
       <r>   -45.2131     0.0000     0.0000 </r>
       <r>   -44.9939     0.0000     0.0000 </r>
       <r>   -44.7748     0.0000     0.0000 </r>
       <r>   -44.5556     0.0000     0.0000 </r>
       <r>   -44.3365     0.0000     0.0000 </r>
       <r>   -44.1173    -0.0000    -0.0000 </r>
       <r>   -43.8982    -0.0000    -0.0000 </r>
       <r>   -43.6790    -0.0000    -0.0000 </r>
       <r>   -43.4599    -0.0000    -0.0000 </r>
       <r>   -43.2408    -0.0145    -0.0032 </r>
       <r>   -43.0216     0.8154     0.1755 </r>
       <r>   -42.8025    13.6092     3.1579 </r>
       <r>   -42.5833     3.8983     4.0122 </r>
       <r>   -42.3642    -0.0557     4.0000 </r>
       <r>   -42.1450    -0.0000     4.0000 </r>
       <r>   -41.9259    -0.0000     4.0000 </r>
       <r>   -41.7067     0.0000     4.0000 </r>
       <r>   -41.4876     0.0000     4.0000 </r>
       <r>   -41.2685     0.0000     4.0000 </r>
       <r>   -41.0493     0.0000     4.0000 </r>
       <r>   -40.8302     0.0000     4.0000 </r>
       <r>   -40.6110     0.0000     4.0000 </r>
       <r>   -40.3919     0.0000     4.0000 </r>
       <r>   -40.1727     0.0000     4.0000 </r>
       <r>   -39.9536     0.0000     4.0000 </r>
       <r>   -39.7345     0.0000     4.0000 </r>
       <r>   -39.5153     0.0000     4.0000 </r>
       <r>   -39.2962     0.0000     4.0000 </r>
       <r>   -39.0770     0.0000     4.0000 </r>
       <r>   -38.8579     0.0000     4.0000 </r>
       <r>   -38.6387     0.0000     4.0000 </r>
       <r>   -38.4196     0.0000     4.0000 </r>
       <r>   -38.2004     0.0000     4.0000 </r>
       <r>   -37.9813     0.0000     4.0000 </r>
       <r>   -37.7622     0.0000     4.0000 </r>
       <r>   -37.5430     0.0000     4.0000 </r>
       <r>   -37.3239     0.0000     4.0000 </r>
       <r>   -37.1047     0.0000     4.0000 </r>
       <r>   -36.8856     0.0000     4.0000 </r>
       <r>   -36.6664     0.0000     4.0000 </r>
       <r>   -36.4473     0.0000     4.0000 </r>
       <r>   -36.2281     0.0000     4.0000 </r>
       <r>   -36.0090     0.0000     4.0000 </r>
       <r>   -35.7899     0.0000     4.0000 </r>
       <r>   -35.5707     0.0000     4.0000 </r>
       <r>   -35.3516     0.0000     4.0000 </r>
       <r>   -35.1324     0.0000     4.0000 </r>
       <r>   -34.9133     0.0000     4.0000 </r>
       <r>   -34.6941     0.0000     4.0000 </r>
       <r>   -34.4750     0.0000     4.0000 </r>
       <r>   -34.2558     0.0000     4.0000 </r>
       <r>   -34.0367     0.0000     4.0000 </r>
       <r>   -33.8176     0.0000     4.0000 </r>
       <r>   -33.5984     0.0000     4.0000 </r>
       <r>   -33.3793     0.0000     4.0000 </r>
       <r>   -33.1601     0.0000     4.0000 </r>
       <r>   -32.9410     0.0000     4.0000 </r>
       <r>   -32.7218     0.0000     4.0000 </r>
       <r>   -32.5027     0.0000     4.0000 </r>
       <r>   -32.2835     0.0000     4.0000 </r>
       <r>   -32.0644     0.0000     4.0000 </r>
       <r>   -31.8453     0.0000     4.0000 </r>
       <r>   -31.6261     0.0000     4.0000 </r>
       <r>   -31.4070     0.0000     4.0000 </r>
       <r>   -31.1878     0.0000     4.0000 </r>
       <r>   -30.9687     0.0000     4.0000 </r>
       <r>   -30.7495     0.0000     4.0000 </r>
       <r>   -30.5304     0.0000     4.0000 </r>
       <r>   -30.3113     0.0000     4.0000 </r>
       <r>   -30.0921     0.0000     4.0000 </r>
       <r>   -29.8730     0.0000     4.0000 </r>
       <r>   -29.6538     0.0000     4.0000 </r>
       <r>   -29.4347     0.0000     4.0000 </r>
       <r>   -29.2155     0.0000     4.0000 </r>
       <r>   -28.9964     0.0000     4.0000 </r>
       <r>   -28.7772     0.0000     4.0000 </r>
       <r>   -28.5581     0.0000     4.0000 </r>
       <r>   -28.3390     0.0000     4.0000 </r>
       <r>   -28.1198     0.0000     4.0000 </r>
       <r>   -27.9007     0.0000     4.0000 </r>
       <r>   -27.6815     0.0000     4.0000 </r>
       <r>   -27.4624     0.0000     4.0000 </r>
       <r>   -27.2432     0.0000     4.0000 </r>
       <r>   -27.0241     0.0000     4.0000 </r>
       <r>   -26.8049     0.0000     4.0000 </r>
       <r>   -26.5858     0.0000     4.0000 </r>
       <r>   -26.3667     0.0000     4.0000 </r>
       <r>   -26.1475     0.0000     4.0000 </r>
       <r>   -25.9284     0.0000     4.0000 </r>
       <r>   -25.7092     0.0000     4.0000 </r>
       <r>   -25.4901     0.0000     4.0000 </r>
       <r>   -25.2709     0.0000     4.0000 </r>
       <r>   -25.0518     0.0000     4.0000 </r>
       <r>   -24.8326     0.0000     4.0000 </r>
       <r>   -24.6135     0.0000     4.0000 </r>
       <r>   -24.3944     0.0000     4.0000 </r>
       <r>   -24.1752     0.0000     4.0000 </r>
       <r>   -23.9561     0.0000     4.0000 </r>
       <r>   -23.7369     0.0000     4.0000 </r>
       <r>   -23.5178     0.0000     4.0000 </r>
       <r>   -23.2986     0.0000     4.0000 </r>
       <r>   -23.0795     0.0000     4.0000 </r>
       <r>   -22.8603     0.0000     4.0000 </r>
       <r>   -22.6412     0.0000     4.0000 </r>
       <r>   -22.4221     0.0000     4.0000 </r>
       <r>   -22.2029     0.0000     4.0000 </r>
       <r>   -21.9838     0.0000     4.0000 </r>
       <r>   -21.7646     0.0000     4.0000 </r>
       <r>   -21.5455     0.0000     4.0000 </r>
       <r>   -21.3263     0.0000     4.0000 </r>
       <r>   -21.1072     0.0000     4.0000 </r>
       <r>   -20.8881     0.0000     4.0000 </r>
       <r>   -20.6689    -0.0000     4.0000 </r>
       <r>   -20.4498    -0.0000     4.0000 </r>
       <r>   -20.2306    -0.0000     4.0000 </r>
       <r>   -20.0115    -0.0017     3.9996 </r>
       <r>   -19.7923     0.1783     4.0387 </r>
       <r>   -19.5732     5.5187     5.2481 </r>
       <r>   -19.3540     8.5388     7.1193 </r>
       <r>   -19.1349     4.8557     8.1834 </r>
       <r>   -18.9158     7.0723     9.7333 </r>
       <r>   -18.6966    10.5450    12.0441 </r>
       <r>   -18.4775    14.9247    15.3148 </r>
       <r>   -18.2583     3.1658    16.0086 </r>
       <r>   -18.0392    -0.0390    16.0000 </r>
       <r>   -17.8200    -0.0000    16.0000 </r>
       <r>   -17.6009    -0.0000    16.0000 </r>
       <r>   -17.3817     0.0000    16.0000 </r>
       <r>   -17.1626     0.0000    16.0000 </r>
       <r>   -16.9435     0.0000    16.0000 </r>
       <r>   -16.7243     0.0000    16.0000 </r>
       <r>   -16.5052     0.0000    16.0000 </r>
       <r>   -16.2860     0.0000    16.0000 </r>
       <r>   -16.0669     0.0000    16.0000 </r>
       <r>   -15.8477     0.0000    16.0000 </r>
       <r>   -15.6286     0.0000    16.0000 </r>
       <r>   -15.4094     0.0000    16.0000 </r>
       <r>   -15.1903     0.0000    16.0000 </r>
       <r>   -14.9712     0.0000    16.0000 </r>
       <r>   -14.7520     0.0000    16.0000 </r>
       <r>   -14.5329     0.0000    16.0000 </r>
       <r>   -14.3137     0.0000    16.0000 </r>
       <r>   -14.0946     0.0000    16.0000 </r>
       <r>   -13.8754     0.0000    16.0000 </r>
       <r>   -13.6563     0.0000    16.0000 </r>
       <r>   -13.4371     0.0000    16.0000 </r>
       <r>   -13.2180     0.0000    16.0000 </r>
       <r>   -12.9989     0.0000    16.0000 </r>
       <r>   -12.7797     0.0000    16.0000 </r>
       <r>   -12.5606     0.0000    16.0000 </r>
       <r>   -12.3414     0.0000    16.0000 </r>
       <r>   -12.1223     0.0000    16.0000 </r>
       <r>   -11.9031     0.0000    16.0000 </r>
       <r>   -11.6840     0.0000    16.0000 </r>
       <r>   -11.4649     0.0000    16.0000 </r>
       <r>   -11.2457     0.0000    16.0000 </r>
       <r>   -11.0266     0.0000    16.0000 </r>
       <r>   -10.8074     0.0000    16.0000 </r>
       <r>   -10.5883     0.0000    16.0000 </r>
       <r>   -10.3691     0.0000    16.0000 </r>
       <r>   -10.1500     0.0000    16.0000 </r>
       <r>    -9.9308     0.0000    16.0000 </r>
       <r>    -9.7117     0.0000    16.0000 </r>
       <r>    -9.4926     0.0000    16.0000 </r>
       <r>    -9.2734     0.0000    16.0000 </r>
       <r>    -9.0543     0.0000    16.0000 </r>
       <r>    -8.8351     0.0000    16.0000 </r>
       <r>    -8.6160     0.0000    16.0000 </r>
       <r>    -8.3968     0.0000    16.0000 </r>
       <r>    -8.1777     0.0000    16.0000 </r>
       <r>    -7.9585     0.0000    16.0000 </r>
       <r>    -7.7394     0.0000    16.0000 </r>
       <r>    -7.5203     0.0000    16.0000 </r>
       <r>    -7.3011     0.0000    16.0000 </r>
       <r>    -7.0820     0.0000    16.0000 </r>
       <r>    -6.8628     0.0000    16.0000 </r>
       <r>    -6.6437     0.0000    16.0000 </r>
       <r>    -6.4245     0.0000    16.0000 </r>
       <r>    -6.2054     0.0000    16.0000 </r>
       <r>    -5.9862     0.0000    16.0000 </r>
       <r>    -5.7671     0.0000    16.0000 </r>
       <r>    -5.5480     0.0000    16.0000 </r>
       <r>    -5.3288     0.0000    16.0000 </r>
       <r>    -5.1097     0.0000    16.0000 </r>
       <r>    -4.8905     0.0000    16.0000 </r>
       <r>    -4.6714     0.0000    16.0000 </r>
       <r>    -4.4522     0.0000    16.0000 </r>
       <r>    -4.2331     0.0000    16.0000 </r>
       <r>    -4.0140     0.0000    16.0000 </r>
       <r>    -3.7948     0.0000    16.0000 </r>
       <r>    -3.5757     0.0000    16.0000 </r>
       <r>    -3.3565     0.0000    16.0000 </r>
       <r>    -3.1374     0.0000    16.0000 </r>
       <r>    -2.9182     0.0000    16.0000 </r>
       <r>    -2.6991     0.0000    16.0000 </r>
       <r>    -2.4799     0.0000    16.0000 </r>
       <r>    -2.2608     0.0000    16.0000 </r>
       <r>    -2.0417     0.0000    16.0000 </r>
       <r>    -1.8225     0.0000    16.0000 </r>
       <r>    -1.6034     0.0000    16.0000 </r>
       <r>    -1.3842     0.0000    16.0000 </r>
       <r>    -1.1651     0.0000    16.0000 </r>
       <r>    -0.9459     0.0000    16.0000 </r>
       <r>    -0.7268     0.0000    16.0000 </r>
       <r>    -0.5076     0.0000    16.0000 </r>
       <r>    -0.2885     0.0000    16.0000 </r>
       <r>    -0.0694     0.0000    16.0000 </r>
       <r>     0.1498     0.0000    16.0000 </r>
       <r>     0.3689     0.0000    16.0000 </r>
       <r>     0.5881     0.0000    16.0000 </r>
       <r>     0.8072     0.0000    16.0000 </r>
       <r>     1.0264     0.0000    16.0000 </r>
       <r>     1.2455     0.0000    16.0000 </r>
       <r>     1.4647     0.0000    16.0000 </r>
       <r>     1.6838     0.0000    16.0000 </r>
       <r>     1.9029     0.0000    16.0000 </r>
       <r>     2.1221     0.0000    16.0000 </r>
       <r>     2.3412     0.0000    16.0000 </r>
       <r>     2.5604     0.0000    16.0000 </r>
       <r>     2.7795     0.0000    16.0000 </r>
       <r>     2.9987     0.0000    16.0000 </r>
       <r>     3.2178     0.0000    16.0000 </r>
       <r>     3.4370     0.0000    16.0000 </r>
       <r>     3.6561     0.0000    16.0000 </r>
       <r>     3.8752     0.0000    16.0000 </r>
       <r>     4.0944     0.0000    16.0000 </r>
       <r>     4.3135     0.0000    16.0000 </r>
       <r>     4.5327    -0.0000    16.0000 </r>
       <r>     4.7518    -0.0000    16.0000 </r>
       <r>     4.9710    -0.0000    16.0000 </r>
       <r>     5.1901    -0.0000    16.0000 </r>
       <r>     5.4092     0.0055    16.0012 </r>
       <r>     5.6284     0.0690    16.0163 </r>
       <r>     5.8475     0.0632    16.0302 </r>
       <r>     6.0667     0.1526    16.0636 </r>
       <r>     6.2858     0.1894    16.1051 </r>
       <r>     6.5050     0.0270    16.1110 </r>
       <r>     6.7241     0.2967    16.1761 </r>
       <r>     6.9433     0.3969    16.2630 </r>
       <r>     7.1624     0.0928    16.2834 </r>
       <r>     7.3815     0.3587    16.3620 </r>
       <r>     7.6007     0.4261    16.4553 </r>
       <r>     7.8198     2.1465    16.9257 </r>
       <r>     8.0390     1.4411    17.2415 </r>
       <r>     8.2581     2.4592    17.7805 </r>
       <r>     8.4773     2.6064    18.3516 </r>
       <r>     8.6964     2.1302    18.8185 </r>
       <r>     8.9156     3.6181    19.6113 </r>
       <r>     9.1347     2.0839    20.0680 </r>
       <r>     9.3538     1.2182    20.3350 </r>
       <r>     9.5730     1.4268    20.6476 </r>
       <r>     9.7921     3.5005    21.4148 </r>
       <r>    10.0113     4.7083    22.4466 </r>
       <r>    10.2304     2.8767    23.0770 </r>
       <r>    10.4496     1.7561    23.4618 </r>
       <r>    10.6687     2.1852    23.9407 </r>
       <r>    10.8879     2.9905    24.5960 </r>
       <r>    11.1070     4.2630    25.5302 </r>
       <r>    11.3261     3.5132    26.3001 </r>
       <r>    11.5453     1.5991    26.6506 </r>
       <r>    11.7644     1.5176    26.9831 </r>
       <r>    11.9836     1.6371    27.3419 </r>
       <r>    12.2027     0.7591    27.5082 </r>
       <r>    12.4219     0.6306    27.6464 </r>
       <r>    12.6410     1.1509    27.8986 </r>
       <r>    12.8602     0.7519    28.0634 </r>
       <r>    13.0793     1.3958    28.3693 </r>
       <r>    13.2984     2.6618    28.9526 </r>
       <r>    13.5176     1.1553    29.2058 </r>
       <r>    13.7367     1.0535    29.4367 </r>
       <r>    13.9559     3.4109    30.1841 </r>
       <r>    14.1750     2.2365    30.6743 </r>
       <r>    14.3942     1.8948    31.0895 </r>
       <r>    14.6133     3.0209    31.7515 </r>
       <r>    14.8324     3.4080    32.4984 </r>
       <r>    15.0516     3.4132    33.2464 </r>
       <r>    15.2707     2.6600    33.8293 </r>
       <r>    15.4899     6.1939    35.1866 </r>
       <r>    15.7090     1.2597    35.4627 </r>
       <r>    15.9282     0.9884    35.6793 </r>
       <r>    16.1473     0.9552    35.8886 </r>
       <r>    16.3665     0.2448    35.9423 </r>
       <r>    16.5856     0.1925    35.9845 </r>
       <r>    16.8047     0.0732    36.0005 </r>
       <r>    17.0239    -0.0023    36.0000 </r>
       <r>    17.2430    -0.0000    36.0000 </r>
       <r>    17.4622    -0.0000    36.0000 </r>
       <r>    17.6813     0.0000    36.0000 </r>
       <r>    17.9005     0.0000    36.0000 </r>
       <r>    18.1196     0.0000    36.0000 </r>
       <r>    18.3388     0.0000    36.0000 </r>
       <r>    18.5579     0.0000    36.0000 </r>
       <r>    18.7770     0.0000    36.0000 </r>
       <r>    18.9962     0.0000    36.0000 </r>
       <r>    19.2153     0.0000    36.0000 </r>
       <r>    19.4345     0.0000    36.0000 </r>
       <r>    19.6536     0.0000    36.0000 </r>
      </set>
     </set>
    </array>
   </total>
  </dos>
 </calculation>
 <structure name="finalpos" >
  <crystal>
   <varray name="basis" >
    <v>       3.28554045       0.00000000       0.00000000 </v>
    <v>      -0.00000000       3.28554045       0.00000000 </v>
    <v>       0.00000000       0.00000000       3.31763238 </v>
   </varray>
   <i name="volume">     35.81309861 </i>
   <varray name="rec_basis" >
    <v>       0.30436393       0.00000000       0.00000000 </v>
    <v>      -0.00000000       0.30436393       0.00000000 </v>
    <v>      -0.00000000      -0.00000000       0.30141977 </v>
   </varray>
  </crystal>
  <varray name="positions" >
   <v>      -0.00000000      -0.00000000      -0.00000000 </v>
   <v>       0.50000000       0.50000000       0.50000000 </v>
  </varray>
 </structure>
</modeling>
