ni3al                                   
           1
     3.317632    0.000000    0.000000
    -0.000000    3.317632    0.000000
     0.000000    0.000000    3.317632
   Nb
     2
Direct configuration=     1
   0.00000000  0.00000000  0.00000000
   0.50000000  0.50000000  0.50000000
ni3al                                   
           1
     3.290567    0.000000    0.000000
    -0.000000    3.290567    0.000000
     0.000000    0.000000    3.317632
   Nb
     2
Direct configuration=     2
  -0.00000000 -0.00000000 -0.00000000
   0.50000000  0.50000000  0.50000000
ni3al                                   
           1
     3.290487    0.000000    0.000000
    -0.000000    3.290487    0.000000
     0.000000    0.000000    3.317632
   Nb
     2
Direct configuration=     3
  -0.00000000 -0.00000000 -0.00000000
   0.50000000  0.50000000  0.50000000
ni3al                                   
           1
     3.290328    0.000000    0.000000
    -0.000000    3.290328    0.000000
     0.000000    0.000000    3.317632
   Nb
     2
Direct configuration=     4
  -0.00000000 -0.00000000 -0.00000000
   0.50000000  0.50000000  0.50000000
ni3al                                   
           1
     3.290008    0.000000    0.000000
    -0.000000    3.290008    0.000000
     0.000000    0.000000    3.317632
   Nb
     2
Direct configuration=     5
  -0.00000000 -0.00000000 -0.00000000
   0.50000000  0.50000000  0.50000000
ni3al                                   
           1
     3.289370    0.000000    0.000000
    -0.000000    3.289370    0.000000
     0.000000    0.000000    3.317632
   Nb
     2
Direct configuration=     6
  -0.00000000 -0.00000000 -0.00000000
   0.50000000  0.50000000  0.50000000
ni3al                                   
           1
     3.288094    0.000000    0.000000
    -0.000000    3.288094    0.000000
     0.000000    0.000000    3.317632
   Nb
     2
Direct configuration=     7
  -0.00000000 -0.00000000 -0.00000000
   0.50000000  0.50000000  0.50000000
ni3al                                   
           1
     3.285540    0.000000    0.000000
    -0.000000    3.285540    0.000000
     0.000000    0.000000    3.317632
   Nb
     2
Direct configuration=     8
  -0.00000000 -0.00000000 -0.00000000
   0.50000000  0.50000000  0.50000000
