  64  64   0   0
  0.3454128E+02  0.9498400E-09  0.9498400E-09  0.2450290E-08  0.5000000E-15
  1.000000000000000E-004
  CAR 
 ni3al                                   
      8.89753372    -60.88007725  301      3.51218302      1.00000000
    -60.880  0.0000E+00  0.0000E+00
    -60.647  0.0000E+00  0.0000E+00
    -60.415  0.0000E+00  0.0000E+00
    -60.182  0.0000E+00  0.0000E+00
    -59.950  0.0000E+00  0.0000E+00
    -59.717  0.0000E+00  0.0000E+00
    -59.485  0.0000E+00  0.0000E+00
    -59.252  0.0000E+00  0.0000E+00
    -59.019  0.0000E+00  0.0000E+00
    -58.787  0.0000E+00  0.0000E+00
    -58.554 -0.9831E-33 -0.2287E-33
    -58.322 -0.5434E-18 -0.1264E-18
    -58.089 -0.5685E-08 -0.1322E-08
    -57.856 -0.1115E-02 -0.2594E-03
    -57.624  0.1066E+00  0.2452E-01
    -57.391  0.9698E+00  0.2501E+00
    -57.159  0.6247E+00  0.3954E+00
    -56.926  0.1063E+00  0.4201E+00
    -56.693 -0.4836E-03  0.4200E+00
    -56.461 -0.2116E-09  0.4200E+00
    -56.228  0.0000E+00  0.4200E+00
    -55.996  0.0000E+00  0.4200E+00
    -55.763  0.0000E+00  0.4200E+00
    -55.530  0.0000E+00  0.4200E+00
    -55.298  0.0000E+00  0.4200E+00
    -55.065  0.0000E+00  0.4200E+00
    -54.833  0.0000E+00  0.4200E+00
    -54.600  0.0000E+00  0.4200E+00
    -54.368  0.0000E+00  0.4200E+00
    -54.135  0.0000E+00  0.4200E+00
    -53.902  0.0000E+00  0.4200E+00
    -53.670  0.0000E+00  0.4200E+00
    -53.437  0.0000E+00  0.4200E+00
    -53.205  0.0000E+00  0.4200E+00
    -52.972  0.0000E+00  0.4200E+00
    -52.739  0.0000E+00  0.4200E+00
    -52.507  0.0000E+00  0.4200E+00
    -52.274  0.0000E+00  0.4200E+00
    -52.042  0.0000E+00  0.4200E+00
    -51.809  0.0000E+00  0.4200E+00
    -51.576  0.0000E+00  0.4200E+00
    -51.344  0.0000E+00  0.4200E+00
    -51.111  0.0000E+00  0.4200E+00
    -50.879  0.0000E+00  0.4200E+00
    -50.646  0.0000E+00  0.4200E+00
    -50.413  0.0000E+00  0.4200E+00
    -50.181  0.0000E+00  0.4200E+00
    -49.948  0.0000E+00  0.4200E+00
    -49.716  0.0000E+00  0.4200E+00
    -49.483  0.0000E+00  0.4200E+00
    -49.250  0.0000E+00  0.4200E+00
    -49.018  0.0000E+00  0.4200E+00
    -48.785  0.0000E+00  0.4200E+00
    -48.553  0.0000E+00  0.4200E+00
    -48.320  0.0000E+00  0.4200E+00
    -48.088  0.0000E+00  0.4200E+00
    -47.855  0.0000E+00  0.4200E+00
    -47.622  0.0000E+00  0.4200E+00
    -47.390  0.0000E+00  0.4200E+00
    -47.157  0.0000E+00  0.4200E+00
    -46.925  0.0000E+00  0.4200E+00
    -46.692  0.0000E+00  0.4200E+00
    -46.459  0.0000E+00  0.4200E+00
    -46.227  0.0000E+00  0.4200E+00
    -45.994  0.0000E+00  0.4200E+00
    -45.762  0.0000E+00  0.4200E+00
    -45.529  0.0000E+00  0.4200E+00
    -45.296  0.0000E+00  0.4200E+00
    -45.064  0.0000E+00  0.4200E+00
    -44.831  0.0000E+00  0.4200E+00
    -44.599  0.0000E+00  0.4200E+00
    -44.366  0.0000E+00  0.4200E+00
    -44.133  0.0000E+00  0.4200E+00
    -43.901  0.0000E+00  0.4200E+00
    -43.668  0.0000E+00  0.4200E+00
    -43.436  0.0000E+00  0.4200E+00
    -43.203  0.0000E+00  0.4200E+00
    -42.970  0.0000E+00  0.4200E+00
    -42.738  0.0000E+00  0.4200E+00
    -42.505  0.0000E+00  0.4200E+00
    -42.273  0.0000E+00  0.4200E+00
    -42.040  0.0000E+00  0.4200E+00
    -41.808  0.0000E+00  0.4200E+00
    -41.575  0.0000E+00  0.4200E+00
    -41.342  0.0000E+00  0.4200E+00
    -41.110  0.0000E+00  0.4200E+00
    -40.877  0.0000E+00  0.4200E+00
    -40.645  0.0000E+00  0.4200E+00
    -40.412  0.0000E+00  0.4200E+00
    -40.179  0.0000E+00  0.4200E+00
    -39.947  0.0000E+00  0.4200E+00
    -39.714  0.0000E+00  0.4200E+00
    -39.482  0.0000E+00  0.4200E+00
    -39.249  0.0000E+00  0.4200E+00
    -39.016  0.0000E+00  0.4200E+00
    -38.784  0.0000E+00  0.4200E+00
    -38.551  0.0000E+00  0.4200E+00
    -38.319  0.0000E+00  0.4200E+00
    -38.086  0.0000E+00  0.4200E+00
    -37.853  0.0000E+00  0.4200E+00
    -37.621  0.0000E+00  0.4200E+00
    -37.388  0.0000E+00  0.4200E+00
    -37.156  0.0000E+00  0.4200E+00
    -36.923  0.0000E+00  0.4200E+00
    -36.691  0.0000E+00  0.4200E+00
    -36.458  0.0000E+00  0.4200E+00
    -36.225  0.0000E+00  0.4200E+00
    -35.993  0.0000E+00  0.4200E+00
    -35.760  0.0000E+00  0.4200E+00
    -35.528  0.0000E+00  0.4200E+00
    -35.295  0.0000E+00  0.4200E+00
    -35.062  0.0000E+00  0.4200E+00
    -34.830  0.0000E+00  0.4200E+00
    -34.597  0.0000E+00  0.4200E+00
    -34.365  0.0000E+00  0.4200E+00
    -34.132  0.0000E+00  0.4200E+00
    -33.899  0.0000E+00  0.4200E+00
    -33.667  0.0000E+00  0.4200E+00
    -33.434  0.0000E+00  0.4200E+00
    -33.202 -0.2054E-30  0.4200E+00
    -32.969 -0.2858E-16  0.4200E+00
    -32.736 -0.7248E-07  0.4200E+00
    -32.504 -0.2041E-02  0.4195E+00
    -32.271  0.9938E-01  0.4426E+00
    -32.039  0.6754E+00  0.5997E+00
    -31.806  0.6897E+00  0.7602E+00
    -31.573  0.7886E+00  0.9436E+00
    -31.341  0.9905E+00  0.1174E+01
    -31.108  0.1117E+01  0.1434E+01
    -30.876  0.1022E+01  0.1671E+01
    -30.643  0.3684E-01  0.1680E+01
    -30.411 -0.1562E-03  0.1680E+01
    -30.178 -0.1212E-10  0.1680E+01
    -29.945  0.0000E+00  0.1680E+01
    -29.713  0.0000E+00  0.1680E+01
    -29.480  0.0000E+00  0.1680E+01
    -29.248  0.0000E+00  0.1680E+01
    -29.015  0.0000E+00  0.1680E+01
    -28.782  0.0000E+00  0.1680E+01
    -28.550  0.0000E+00  0.1680E+01
    -28.317  0.0000E+00  0.1680E+01
    -28.085  0.0000E+00  0.1680E+01
    -27.852  0.0000E+00  0.1680E+01
    -27.619  0.0000E+00  0.1680E+01
    -27.387  0.0000E+00  0.1680E+01
    -27.154  0.0000E+00  0.1680E+01
    -26.922  0.0000E+00  0.1680E+01
    -26.689  0.0000E+00  0.1680E+01
    -26.456  0.0000E+00  0.1680E+01
    -26.224  0.0000E+00  0.1680E+01
    -25.991  0.0000E+00  0.1680E+01
    -25.759  0.0000E+00  0.1680E+01
    -25.526  0.0000E+00  0.1680E+01
    -25.293  0.0000E+00  0.1680E+01
    -25.061  0.0000E+00  0.1680E+01
    -24.828  0.0000E+00  0.1680E+01
    -24.596  0.0000E+00  0.1680E+01
    -24.363  0.0000E+00  0.1680E+01
    -24.131  0.0000E+00  0.1680E+01
    -23.898  0.0000E+00  0.1680E+01
    -23.665  0.0000E+00  0.1680E+01
    -23.433  0.0000E+00  0.1680E+01
    -23.200  0.0000E+00  0.1680E+01
    -22.968  0.0000E+00  0.1680E+01
    -22.735  0.0000E+00  0.1680E+01
    -22.502  0.0000E+00  0.1680E+01
    -22.270  0.0000E+00  0.1680E+01
    -22.037  0.0000E+00  0.1680E+01
    -21.805  0.0000E+00  0.1680E+01
    -21.572  0.0000E+00  0.1680E+01
    -21.339  0.0000E+00  0.1680E+01
    -21.107  0.0000E+00  0.1680E+01
    -20.874  0.0000E+00  0.1680E+01
    -20.642  0.0000E+00  0.1680E+01
    -20.409  0.0000E+00  0.1680E+01
    -20.176  0.0000E+00  0.1680E+01
    -19.944  0.0000E+00  0.1680E+01
    -19.711  0.0000E+00  0.1680E+01
    -19.479  0.0000E+00  0.1680E+01
    -19.246  0.0000E+00  0.1680E+01
    -19.014  0.0000E+00  0.1680E+01
    -18.781  0.0000E+00  0.1680E+01
    -18.548  0.0000E+00  0.1680E+01
    -18.316  0.0000E+00  0.1680E+01
    -18.083  0.0000E+00  0.1680E+01
    -17.851  0.0000E+00  0.1680E+01
    -17.618  0.0000E+00  0.1680E+01
    -17.385  0.0000E+00  0.1680E+01
    -17.153  0.0000E+00  0.1680E+01
    -16.920  0.0000E+00  0.1680E+01
    -16.688 -0.2807E-38  0.1680E+01
    -16.455 -0.5348E-22  0.1680E+01
    -16.222 -0.1728E-10  0.1680E+01
    -15.990 -0.7569E-04  0.1680E+01
    -15.757  0.1490E-01  0.1683E+01
    -15.525  0.1390E-01  0.1687E+01
    -15.292 -0.6414E-04  0.1687E+01
    -15.059 -0.1193E-10  0.1687E+01
    -14.827  0.0000E+00  0.1687E+01
    -14.594  0.0000E+00  0.1687E+01
    -14.362  0.0000E+00  0.1687E+01
    -14.129  0.0000E+00  0.1687E+01
    -13.896  0.0000E+00  0.1687E+01
    -13.664  0.0000E+00  0.1687E+01
    -13.431  0.0000E+00  0.1687E+01
    -13.199  0.0000E+00  0.1687E+01
    -12.966  0.0000E+00  0.1687E+01
    -12.734  0.0000E+00  0.1687E+01
    -12.501  0.0000E+00  0.1687E+01
    -12.268  0.0000E+00  0.1687E+01
    -12.036  0.0000E+00  0.1687E+01
    -11.803  0.0000E+00  0.1687E+01
    -11.571  0.0000E+00  0.1687E+01
    -11.338  0.0000E+00  0.1687E+01
    -11.105  0.0000E+00  0.1687E+01
    -10.873  0.0000E+00  0.1687E+01
    -10.640  0.0000E+00  0.1687E+01
    -10.408  0.0000E+00  0.1687E+01
    -10.175  0.0000E+00  0.1687E+01
     -9.942  0.0000E+00  0.1687E+01
     -9.710  0.0000E+00  0.1687E+01
     -9.477  0.0000E+00  0.1687E+01
     -9.245  0.0000E+00  0.1687E+01
     -9.012  0.0000E+00  0.1687E+01
     -8.779  0.0000E+00  0.1687E+01
     -8.547  0.0000E+00  0.1687E+01
     -8.314  0.0000E+00  0.1687E+01
     -8.082  0.0000E+00  0.1687E+01
     -7.849  0.0000E+00  0.1687E+01
     -7.617  0.0000E+00  0.1687E+01
     -7.384  0.0000E+00  0.1687E+01
     -7.151  0.0000E+00  0.1687E+01
     -6.919  0.0000E+00  0.1687E+01
     -6.686  0.0000E+00  0.1687E+01
     -6.454  0.0000E+00  0.1687E+01
     -6.221  0.0000E+00  0.1687E+01
     -5.988  0.0000E+00  0.1687E+01
     -5.756  0.0000E+00  0.1687E+01
     -5.523  0.0000E+00  0.1687E+01
     -5.291  0.0000E+00  0.1687E+01
     -5.058  0.0000E+00  0.1687E+01
     -4.825  0.0000E+00  0.1687E+01
     -4.593  0.0000E+00  0.1687E+01
     -4.360  0.0000E+00  0.1687E+01
     -4.128 -0.1937E-36  0.1687E+01
     -3.895 -0.5987E-21  0.1687E+01
     -3.662 -0.3063E-10  0.1687E+01
     -3.430 -0.1860E-04  0.1687E+01
     -3.197  0.1282E-02  0.1687E+01
     -2.965  0.1115E-01  0.1690E+01
     -2.732  0.5151E-02  0.1691E+01
     -2.499  0.1915E-01  0.1695E+01
     -2.267  0.7709E-01  0.1713E+01
     -2.034  0.3206E-01  0.1721E+01
     -1.802  0.2698E-01  0.1727E+01
     -1.569  0.3402E-01  0.1735E+01
     -1.337  0.8448E-01  0.1754E+01
     -1.104  0.1513E+00  0.1790E+01
     -0.871  0.2033E+00  0.1837E+01
     -0.639  0.2488E+00  0.1895E+01
     -0.406  0.1828E+00  0.1937E+01
     -0.174  0.2710E+00  0.2000E+01
      0.059  0.2365E+00  0.2055E+01
      0.292  0.2315E+00  0.2109E+01
      0.524  0.3828E+00  0.2198E+01
      0.757  0.3492E+00  0.2279E+01
      0.989  0.3059E+00  0.2351E+01
      1.222  0.2704E+00  0.2413E+01
      1.455  0.2298E+00  0.2467E+01
      1.687  0.3134E+00  0.2540E+01
      1.920  0.2642E+00  0.2601E+01
      2.152  0.3129E+00  0.2674E+01
      2.385  0.2290E+00  0.2727E+01
      2.618  0.1933E+00  0.2772E+01
      2.850  0.1616E+00  0.2810E+01
      3.083  0.2545E+00  0.2869E+01
      3.315  0.2234E+00  0.2921E+01
      3.548  0.1935E+00  0.2966E+01
      3.781  0.1916E+00  0.3011E+01
      4.013  0.2222E+00  0.3062E+01
      4.246  0.2249E+00  0.3115E+01
      4.478  0.2169E+00  0.3165E+01
      4.711  0.3069E+00  0.3236E+01
      4.943  0.3533E+00  0.3319E+01
      5.176  0.3796E+00  0.3407E+01
      5.409  0.3742E+00  0.3494E+01
      5.641  0.2225E+00  0.3546E+01
      5.874  0.4406E-02  0.3547E+01
      6.106 -0.6245E-04  0.3547E+01
      6.339 -0.9181E-09  0.3547E+01
      6.572  0.0000E+00  0.3547E+01
      6.804  0.0000E+00  0.3547E+01
      7.037  0.0000E+00  0.3547E+01
      7.269  0.0000E+00  0.3547E+01
      7.502  0.0000E+00  0.3547E+01
      7.735  0.0000E+00  0.3547E+01
      7.967  0.0000E+00  0.3547E+01
      8.200  0.0000E+00  0.3547E+01
      8.432  0.0000E+00  0.3547E+01
      8.665  0.0000E+00  0.3547E+01
      8.898  0.0000E+00  0.3547E+01
