srun: ROUTE: split_hostlist: hl=b05r1n14 tree_width 0
 running on    4 total cores
 distrk:  each k-point on    1 cores,    4 groups
 distr:  one band on    1 cores,    1 groups
 HIP runtime initialized ...    4 DCUs will be used
 Created    4 streams on each DCU
 vasp.6.3.2 27Jun22 (build Mar 15 2023 15:45:48) complex                        
  
 POSCAR found type information on POSCAR MoO 
 POSCAR found :  2 types and      64 ions
 Reading from existing POTCAR
 scaLAPACK will be used selectively (only on CPU)
 Reading from existing POTCAR
 LDA part: xc-table for Pade appr. of Perdew
 POSCAR found type information on POSCAR MoO 
 POSCAR found :  2 types and      64 ions
 Optimize memory usage for KPAR
 POSCAR, INCAR and KPOINTS ok, starting setup
 FFT: planning ... GRIDC
 FFT: planning ... GRID_SOFT
 FFT: planning ... GRID
 WAVECAR not read
 entering main loop
       N       E                     dE             d eps       ncg     rms          rms(c)
DAV:   1     0.109366947476E+05    0.10937E+05   -0.56747E+05  7688   0.160E+03
DAV:   2    -0.229306589655E+03   -0.11166E+05   -0.10872E+05  6992   0.498E+02
DAV:   3    -0.696228545789E+03   -0.46692E+03   -0.44822E+03  8856   0.872E+01
DAV:   4    -0.717153330440E+03   -0.20925E+02   -0.20108E+02  8152   0.133E+01
DAV:   5    -0.718378335651E+03   -0.12250E+01   -0.11995E+01  8816   0.240E+00    0.104E+02
RMM:   6    -0.718983864444E+03   -0.60553E+00   -0.39765E+02  7829   0.185E+01    0.539E+01
RMM:   7    -0.722497442400E+03   -0.35136E+01   -0.21110E+02  7233   0.141E+01    0.446E+01
RMM:   8    -0.683397645055E+03    0.39100E+02   -0.49409E+01  7220   0.740E+00    0.294E+01
RMM:   9    -0.665110450247E+03    0.18287E+02   -0.16483E+01  7637   0.361E+00    0.166E+01
RMM:  10    -0.661404790825E+03    0.37057E+01   -0.43530E+00  7913   0.166E+00    0.129E+01
RMM:  11    -0.658345975005E+03    0.30588E+01   -0.63654E+00  8246   0.153E+00    0.681E+00
RMM:  12    -0.658981279390E+03   -0.63530E+00   -0.32956E+00  8498   0.142E+00    0.773E+00
RMM:  13    -0.658190307401E+03    0.79097E+00   -0.16714E+00  8168   0.121E+00    0.515E+00
RMM:  14    -0.658010446279E+03    0.17986E+00   -0.20579E+00  7877   0.102E+00    0.454E+00
RMM:  15    -0.657826204210E+03    0.18424E+00   -0.42570E-01  8337   0.522E-01    0.235E+00
RMM:  16    -0.657780907582E+03    0.45297E-01   -0.18504E-01  8506   0.300E-01    0.188E+00
RMM:  17    -0.657701874124E+03    0.79033E-01   -0.94947E-02  8227   0.246E-01    0.122E+00
RMM:  18    -0.657638664037E+03    0.63210E-01   -0.64862E-02  7925   0.184E-01    0.529E-01
RMM:  19    -0.657612744933E+03    0.25919E-01   -0.34805E-02  8186   0.137E-01    0.511E-01
RMM:  20    -0.657567431453E+03    0.45313E-01   -0.31555E-02  8318   0.138E-01    0.484E-01
RMM:  21    -0.657516235930E+03    0.51196E-01   -0.36062E-02  8556   0.147E-01    0.453E-01
RMM:  22    -0.657476108026E+03    0.40128E-01   -0.27362E-02  8339   0.116E-01    0.337E-01
RMM:  23    -0.657446797231E+03    0.29311E-01   -0.17284E-02  8525   0.945E-02    0.276E-01
RMM:  24    -0.657421596504E+03    0.25201E-01   -0.19762E-02  8442   0.874E-02    0.303E-01
RMM:  25    -0.657426377585E+03   -0.47811E-02   -0.14671E-02  8423   0.730E-02    0.231E-01
RMM:  26    -0.657441445105E+03   -0.15068E-01   -0.84189E-03  8469   0.587E-02    0.271E-01
RMM:  27    -0.657467029955E+03   -0.25585E-01   -0.13306E-02  8441   0.616E-02    0.121E-01
RMM:  28    -0.657478042191E+03   -0.11012E-01   -0.60972E-03  8164   0.381E-02    0.703E-02
RMM:  29    -0.657483312250E+03   -0.52701E-02   -0.21965E-03  8023   0.214E-02    0.512E-02
RMM:  30    -0.657487269969E+03   -0.39577E-02   -0.13659E-03  7725   0.178E-02    0.272E-02
RMM:  31    -0.657488254656E+03   -0.98469E-03   -0.51351E-04  7030   0.913E-03    0.206E-02
RMM:  32    -0.657489147174E+03   -0.89252E-03   -0.25423E-04  6477   0.721E-03    0.185E-02
RMM:  33    -0.657489617779E+03   -0.47061E-03   -0.18601E-04  5828   0.466E-03    0.170E-02
RMM:  34    -0.657489750052E+03   -0.13227E-03   -0.64130E-05  5595   0.272E-03    0.102E-02
RMM:  35    -0.657489930525E+03   -0.18047E-03   -0.60210E-05  5892   0.289E-03    0.798E-03
RMM:  36    -0.657490008296E+03   -0.77771E-04   -0.40053E-05  5307   0.208E-03    0.835E-03
RMM:  37    -0.657490049431E+03   -0.41135E-04   -0.17406E-05  5015   0.174E-03    0.403E-03
RMM:  38    -0.657490069364E+03   -0.19933E-04   -0.57181E-06  4277   0.111E-03    0.361E-03
RMM:  39    -0.657490075491E+03   -0.61272E-05   -0.26133E-06  2814   0.707E-04    0.146E-03
RMM:  40    -0.657490078353E+03   -0.28621E-05   -0.14295E-06  2933   0.635E-04    0.598E-04
RMM:  41    -0.657490080006E+03   -0.16531E-05   -0.38619E-07  2044   0.427E-04    0.332E-04
RMM:  42    -0.657490082093E+03   -0.20870E-05   -0.15896E-07  1704   0.368E-04    0.515E-04
RMM:  43    -0.657490084120E+03   -0.20263E-05   -0.12052E-07  1642   0.352E-04    0.381E-04
RMM:  44    -0.657490085018E+03   -0.89816E-06   -0.53462E-08  1513   0.328E-04
   1 F= -.65749009E+03 E0= -.65749576E+03  d E =-.657490E+03
 curvature:   0.00 expect dE= 0.000E+00 dE for cont linesearch  0.000E+00
 trial: gam= 0.00000 g(F)=  0.953E+00 g(S)=  0.000E+00 ort = 0.000E+00 (trialstep = 0.100E+01)
 search vector abs. value=  0.953E+00
 bond charge predicted
       N       E                     dE             d eps       ncg     rms          rms(c)
DAV:   1    -0.657280704157E+03    0.20938E+00   -0.29746E+02  6560   0.284E+01    0.300E+00
RMM:   2    -0.658490114261E+03   -0.12094E+01   -0.11798E+01  6446   0.519E+00    0.320E+00
RMM:   3    -0.658393517146E+03    0.96597E-01   -0.10143E+00  7125   0.147E+00    0.207E+00
RMM:   4    -0.658363897430E+03    0.29620E-01   -0.26873E-01  8287   0.614E-01    0.128E+00
RMM:   5    -0.658375175401E+03   -0.11278E-01   -0.12734E-01  8437   0.337E-01    0.128E+00
RMM:   6    -0.658357588749E+03    0.17587E-01   -0.46326E-02  7473   0.220E-01    0.714E-01
RMM:   7    -0.658357257914E+03    0.33083E-03   -0.38682E-02  7902   0.183E-01    0.456E-01
RMM:   8    -0.658352872925E+03    0.43850E-02   -0.12293E-02  7521   0.111E-01    0.225E-01
RMM:   9    -0.658352571152E+03    0.30177E-03   -0.37724E-03  8294   0.516E-02    0.152E-01
RMM:  10    -0.658352495227E+03    0.75925E-04   -0.19283E-03  8394   0.340E-02    0.116E-01
RMM:  11    -0.658352321239E+03    0.17399E-03   -0.10962E-03  7977   0.268E-02    0.564E-02
RMM:  12    -0.658352332343E+03   -0.11104E-04   -0.47853E-04  8056   0.158E-02    0.470E-02
RMM:  13    -0.658352319366E+03    0.12977E-04   -0.17810E-04  7139   0.993E-03    0.271E-02
RMM:  14    -0.658352347315E+03   -0.27949E-04   -0.12153E-04  7552   0.738E-03    0.308E-02
RMM:  15    -0.658352369574E+03   -0.22259E-04   -0.87794E-05  7138   0.663E-03    0.234E-02
RMM:  16    -0.658352413388E+03   -0.43814E-04   -0.69978E-05  6940   0.606E-03    0.164E-02
RMM:  17    -0.658352519961E+03   -0.10657E-03   -0.77363E-05  6805   0.565E-03    0.221E-02
RMM:  18    -0.658352632360E+03   -0.11240E-03   -0.46900E-05  6736   0.452E-03    0.101E-02
RMM:  19    -0.658352737853E+03   -0.10549E-03   -0.28588E-05  6243   0.315E-03    0.866E-03
RMM:  20    -0.658352847556E+03   -0.10970E-03   -0.34245E-05  6354   0.313E-03    0.644E-03
RMM:  21    -0.658352930264E+03   -0.82708E-04   -0.16688E-05  5261   0.208E-03    0.584E-03
RMM:  22    -0.658353013036E+03   -0.82772E-04   -0.95516E-06  4969   0.172E-03    0.497E-03
RMM:  23    -0.658353147849E+03   -0.13481E-03   -0.16207E-05  5096   0.196E-03    0.490E-03
RMM:  24    -0.658353205276E+03   -0.57428E-04   -0.93558E-06  4645   0.135E-03    0.316E-03
RMM:  25    -0.658353251268E+03   -0.45991E-04   -0.60326E-06  4156   0.114E-03    0.256E-03
RMM:  26    -0.658353284736E+03   -0.33469E-04   -0.43202E-06  3617   0.897E-04    0.240E-03
RMM:  27    -0.658353308439E+03   -0.23702E-04   -0.56218E-06  3246   0.832E-04    0.120E-03
RMM:  28    -0.658353315170E+03   -0.67315E-05   -0.17655E-06  2798   0.592E-04    0.833E-04
RMM:  29    -0.658353319073E+03   -0.39030E-05   -0.98426E-07  2195   0.464E-04    0.569E-04
RMM:  30    -0.658353321762E+03   -0.26889E-05   -0.64052E-07  1854   0.400E-04    0.287E-04
RMM:  31    -0.658353323727E+03   -0.19648E-05   -0.26301E-07  1583   0.341E-04    0.182E-04
RMM:  32    -0.658353325900E+03   -0.21734E-05   -0.32821E-07  1634   0.342E-04    0.923E-05
RMM:  33    -0.658353326608E+03   -0.70738E-06   -0.95565E-08  1326   0.290E-04
   2 F= -.65835333E+03 E0= -.65835646E+03  d E =-.863242E+00
 ZBRENT: can't locate minimum, use default step
 trial-energy change:   -0.863242  1 .order   -0.863096   -0.952586   -0.773606
 step:   4.0000(harm=  5.3223)  dis= 0.20955  next Energy=  -660.025066 (dE=-0.253E+01)
 bond charge predicted
       N       E                     dE             d eps       ncg     rms          rms(c)
DAV:   1    -0.639183080842E+03    0.19170E+02   -0.23549E+03  6688   0.820E+01    0.178E+01
RMM:   2    -0.665085789643E+03   -0.25903E+02   -0.27134E+02  7456   0.159E+01    0.147E+01
RMM:   3    -0.662703876513E+03    0.23819E+01   -0.28520E+01  6708   0.604E+00    0.129E+01
RMM:   4    -0.660160668629E+03    0.25432E+01   -0.41133E+00  7835   0.258E+00    0.770E+00
RMM:   5    -0.659895907977E+03    0.26476E+00   -0.28054E+00  8380   0.134E+00    0.572E+00
RMM:   6    -0.659574100103E+03    0.32181E+00   -0.20793E+00  7815   0.104E+00    0.256E+00
RMM:   7    -0.659491147173E+03    0.82953E-01   -0.44425E-01  7573   0.544E-01    0.179E+00
RMM:   8    -0.659552730440E+03   -0.61583E-01   -0.33907E-01  7870   0.417E-01    0.250E+00
RMM:   9    -0.659460307512E+03    0.92423E-01   -0.26677E-01  7733   0.357E-01    0.682E-01
RMM:  10    -0.659462689781E+03   -0.23823E-02   -0.11148E-01  8416   0.205E-01    0.505E-01
RMM:  11    -0.659463468537E+03   -0.77876E-03   -0.22037E-02  8346   0.108E-01    0.497E-01
RMM:  12    -0.659460491347E+03    0.29772E-02   -0.85357E-03  8077   0.654E-02    0.302E-01
RMM:  13    -0.659459273342E+03    0.12180E-02   -0.70344E-03  8260   0.520E-02    0.997E-02
RMM:  14    -0.659459552085E+03   -0.27874E-03   -0.30216E-03  8350   0.341E-02    0.978E-02
RMM:  15    -0.659459649403E+03   -0.97319E-04   -0.89309E-04  8113   0.201E-02    0.811E-02
RMM:  16    -0.659459728434E+03   -0.79031E-04   -0.49513E-04  7600   0.146E-02    0.477E-02
RMM:  17    -0.659459873701E+03   -0.14527E-03   -0.33481E-04  7929   0.118E-02    0.364E-02
RMM:  18    -0.659460005974E+03   -0.13227E-03   -0.17238E-04  6759   0.800E-03    0.265E-02
RMM:  19    -0.659460431329E+03   -0.42535E-03   -0.21306E-04  7332   0.823E-03    0.244E-02
RMM:  20    -0.659460564449E+03   -0.13312E-03   -0.13152E-04  7044   0.654E-03    0.176E-02
RMM:  21    -0.659460707552E+03   -0.14310E-03   -0.12704E-04  6854   0.574E-03    0.113E-02
RMM:  22    -0.659460937518E+03   -0.22997E-03   -0.63046E-05  6559   0.407E-03    0.112E-02
RMM:  23    -0.659461152865E+03   -0.21535E-03   -0.38091E-05  6062   0.334E-03    0.945E-03
RMM:  24    -0.659461431801E+03   -0.27894E-03   -0.39428E-05  5917   0.300E-03    0.723E-03
RMM:  25    -0.659461590584E+03   -0.15878E-03   -0.33850E-05  5381   0.243E-03    0.512E-03
RMM:  26    -0.659461710294E+03   -0.11971E-03   -0.28188E-05  4988   0.190E-03    0.374E-03
RMM:  27    -0.659461766179E+03   -0.55885E-04   -0.12109E-05  4574   0.129E-03    0.334E-03
RMM:  28    -0.659461807165E+03   -0.40986E-04   -0.81902E-06  4328   0.108E-03    0.230E-03
RMM:  29    -0.659461833153E+03   -0.25989E-04   -0.61841E-06  3226   0.847E-04    0.142E-03
RMM:  30    -0.659461841120E+03   -0.79672E-05   -0.22437E-06  2850   0.603E-04    0.116E-03
RMM:  31    -0.659461849607E+03   -0.84866E-05   -0.17537E-06  2746   0.563E-04    0.841E-04
RMM:  32    -0.659461856016E+03   -0.64091E-05   -0.93922E-07  2090   0.447E-04    0.408E-04
RMM:  33    -0.659461859736E+03   -0.37198E-05   -0.47407E-07  1805   0.383E-04    0.482E-04
RMM:  34    -0.659461862158E+03   -0.24220E-05   -0.28356E-07  1523   0.334E-04    0.337E-04
RMM:  35    -0.659461863134E+03   -0.97553E-06   -0.13906E-07  1375   0.304E-04
   3 F= -.65946186E+03 E0= -.65946720E+03  d E =-.197178E+01
 curvature:  -2.41 expect dE=-0.136E+01 dE for cont linesearch -0.172E+00
 ZBRENT: interpolating
 opt :   3.2437  next Energy=  -659.560486 (dE=-0.207E+01)
 bond charge predicted
       N       E                     dE             d eps       ncg     rms          rms(c)
DAV:   1    -0.658970296467E+03    0.49157E+00   -0.17104E+02  6408   0.203E+01    0.258E+00
RMM:   2    -0.659463241222E+03   -0.49294E+00   -0.51711E+00  6415   0.347E+00    0.161E+00
RMM:   3    -0.659540209845E+03   -0.76969E-01   -0.60975E-01  7304   0.108E+00    0.184E+00
RMM:   4    -0.659497658026E+03    0.42552E-01   -0.13467E-01  8107   0.460E-01    0.892E-01
RMM:   5    -0.659502930722E+03   -0.52727E-02   -0.60339E-02  8165   0.259E-01    0.578E-01
RMM:   6    -0.659499645037E+03    0.32857E-02   -0.25278E-02  7451   0.173E-01    0.264E-01
RMM:   7    -0.659499285452E+03    0.35958E-03   -0.10911E-02  8273   0.985E-02    0.189E-01
RMM:   8    -0.659499079311E+03    0.20614E-03   -0.32969E-03  7406   0.548E-02    0.926E-02
RMM:   9    -0.659499197088E+03   -0.11778E-03   -0.15208E-03  8406   0.291E-02    0.680E-02
RMM:  10    -0.659499296143E+03   -0.99055E-04   -0.63907E-04  8292   0.180E-02    0.359E-02
RMM:  11    -0.659499438586E+03   -0.14244E-03   -0.33738E-04  8066   0.124E-02    0.266E-02
RMM:  12    -0.659499498747E+03   -0.60162E-04   -0.14677E-04  7017   0.796E-03    0.175E-02
RMM:  13    -0.659499535320E+03   -0.36573E-04   -0.69205E-05  6445   0.486E-03    0.934E-03
RMM:  14    -0.659499585902E+03   -0.50582E-04   -0.35747E-05  6123   0.328E-03    0.726E-03
RMM:  15    -0.659499639088E+03   -0.53186E-04   -0.22626E-05  5529   0.256E-03    0.506E-03
RMM:  16    -0.659499684286E+03   -0.45198E-04   -0.15516E-05  5100   0.208E-03    0.412E-03
RMM:  17    -0.659499700341E+03   -0.16055E-04   -0.70353E-06  4477   0.121E-03    0.371E-03
RMM:  18    -0.659499718133E+03   -0.17792E-04   -0.41214E-06  4046   0.107E-03    0.292E-03
RMM:  19    -0.659499733430E+03   -0.15297E-04   -0.40967E-06  4134   0.965E-04    0.196E-03
RMM:  20    -0.659499748982E+03   -0.15552E-04   -0.66360E-06  3107   0.909E-04    0.147E-03
RMM:  21    -0.659499754279E+03   -0.52965E-05   -0.29384E-06  2972   0.683E-04    0.127E-03
RMM:  22    -0.659499757513E+03   -0.32348E-05   -0.18157E-06  2872   0.603E-04    0.102E-03
RMM:  23    -0.659499762432E+03   -0.49189E-05   -0.11987E-06  2685   0.535E-04    0.856E-04
RMM:  24    -0.659499767896E+03   -0.54640E-05   -0.15573E-06  2493   0.518E-04    0.658E-04
RMM:  25    -0.659499771860E+03   -0.39636E-05   -0.56579E-07  1824   0.393E-04    0.591E-04
RMM:  26    -0.659499776209E+03   -0.43486E-05   -0.50837E-07  1896   0.396E-04    0.350E-04
RMM:  27    -0.659499780123E+03   -0.39148E-05   -0.68061E-07  1888   0.397E-04    0.320E-04
RMM:  28    -0.659499781729E+03   -0.16058E-05   -0.29275E-07  1556   0.335E-04    0.245E-04
RMM:  29    -0.659499782660E+03   -0.93096E-06   -0.37750E-07  1644   0.344E-04
   4 F= -.65949978E+03 E0= -.65950476E+03  d E =-.200970E+01
 curvature:  -1.38 expect dE=-0.639E+00 dE for cont linesearch -0.294E-01
 ZBRENT: interpolating
 opt :   3.5107  next Energy=  -659.518783 (dE=-0.203E+01)
 bond charge predicted
       N       E                     dE             d eps       ncg     rms          rms(c)
DAV:   1    -0.659457126261E+03    0.42655E-01   -0.21447E+01  6528   0.743E+00    0.984E-01
RMM:   2    -0.659521338594E+03   -0.64212E-01   -0.64360E-01  6435   0.116E+00    0.599E-01
RMM:   3    -0.659527786534E+03   -0.64479E-02   -0.71905E-02  7189   0.357E-01    0.658E-01
RMM:   4    -0.659521051815E+03    0.67347E-02   -0.18211E-02  8103   0.163E-01    0.284E-01
RMM:   5    -0.659522375808E+03   -0.13240E-02   -0.10996E-02  8318   0.974E-02    0.305E-01
RMM:   6    -0.659520826530E+03    0.15493E-02   -0.40794E-03  7183   0.671E-02    0.127E-01
RMM:   7    -0.659520934514E+03   -0.10798E-03   -0.18813E-03  7932   0.409E-02    0.112E-01
RMM:   8    -0.659520694442E+03    0.24007E-03   -0.61577E-04  7565   0.249E-02    0.400E-02
RMM:   9    -0.659520697871E+03   -0.34292E-05   -0.23258E-04  8082   0.120E-02    0.211E-02
RMM:  10    -0.659520711805E+03   -0.13934E-04   -0.87347E-05  7543   0.716E-03    0.166E-02
RMM:  11    -0.659520718666E+03   -0.68606E-05   -0.46311E-05  6624   0.509E-03    0.108E-02
RMM:  12    -0.659520724033E+03   -0.53669E-05   -0.20986E-05  5971   0.309E-03    0.786E-03
RMM:  13    -0.659520728430E+03   -0.43972E-05   -0.87808E-06  4918   0.188E-03    0.371E-03
RMM:  14    -0.659520733701E+03   -0.52712E-05   -0.37743E-06  4293   0.112E-03    0.295E-03
RMM:  15    -0.659520742130E+03   -0.84287E-05   -0.26413E-06  3970   0.986E-04    0.282E-03
RMM:  16    -0.659520749274E+03   -0.71442E-05   -0.14081E-06  3638   0.737E-04    0.204E-03
RMM:  17    -0.659520753233E+03   -0.39592E-05   -0.58091E-07  2217   0.454E-04    0.151E-03
RMM:  18    -0.659520761736E+03   -0.85025E-05   -0.10653E-06  2745   0.542E-04    0.113E-03
RMM:  19    -0.659520768763E+03   -0.70269E-05   -0.87703E-07  2702   0.494E-04    0.914E-04
RMM:  20    -0.659520775314E+03   -0.65515E-05   -0.92392E-07  2032   0.436E-04    0.675E-04
RMM:  21    -0.659520779041E+03   -0.37265E-05   -0.54155E-07  1954   0.406E-04    0.476E-04
RMM:  22    -0.659520781756E+03   -0.27149E-05   -0.51314E-07  2060   0.408E-04    0.412E-04
RMM:  23    -0.659520784125E+03   -0.23690E-05   -0.30484E-07  1636   0.349E-04    0.391E-04
RMM:  24    -0.659520786332E+03   -0.22074E-05   -0.27876E-07  1584   0.341E-04    0.367E-04
RMM:  25    -0.659520788179E+03   -0.18469E-05   -0.20255E-07  1512   0.333E-04    0.213E-04
RMM:  26    -0.659520789130E+03   -0.95094E-06   -0.14025E-07  1439   0.318E-04
   5 F= -.65952079E+03 E0= -.65952602E+03  d E =-.203070E+01
 curvature:  -0.89 expect dE=-0.419E+00 dE for cont linesearch -0.151E-03
 trial: gam= 0.47859 g(F)=  0.469E+00 g(S)=  0.000E+00 ort = 0.127E-01 (trialstep = 0.150E+01)
 search vector abs. value=  0.699E+00
 bond charge predicted
       N       E                     dE             d eps       ncg     rms          rms(c)
DAV:   1    -0.657351398880E+03    0.21694E+01   -0.52669E+02  6384   0.421E+01    0.863E+00
RMM:   2    -0.659578348050E+03   -0.22269E+01   -0.23465E+01  6430   0.786E+00    0.335E+00
RMM:   3    -0.659695809885E+03   -0.11746E+00   -0.21956E+00  7046   0.237E+00    0.213E+00
RMM:   4    -0.659766934380E+03   -0.71124E-01   -0.67724E-01  8141   0.107E+00    0.233E+00
RMM:   5    -0.659709717604E+03    0.57217E-01   -0.20732E-01  8135   0.540E-01    0.121E+00
RMM:   6    -0.659689891191E+03    0.19826E-01   -0.90870E-02  7908   0.320E-01    0.517E-01
RMM:   7    -0.659691154766E+03   -0.12636E-02   -0.31610E-02  8435   0.171E-01    0.346E-01
RMM:   8    -0.659690480594E+03    0.67417E-03   -0.10913E-02  7711   0.104E-01    0.201E-01
RMM:   9    -0.659690438563E+03    0.42031E-04   -0.47121E-03  8459   0.597E-02    0.142E-01
RMM:  10    -0.659690363896E+03    0.74667E-04   -0.22307E-03  8047   0.391E-02    0.802E-02
RMM:  11    -0.659690359861E+03    0.40351E-05   -0.95966E-04  8226   0.243E-02    0.499E-02
RMM:  12    -0.659690366125E+03   -0.62641E-05   -0.39316E-04  8098   0.137E-02    0.276E-02
RMM:  13    -0.659690379478E+03   -0.13352E-04   -0.17306E-04  7252   0.795E-03    0.156E-02
RMM:  14    -0.659690392927E+03   -0.13450E-04   -0.80635E-05  6828   0.524E-03    0.110E-02
RMM:  15    -0.659690405057E+03   -0.12130E-04   -0.40109E-05  6031   0.383E-03    0.971E-03
RMM:  16    -0.659690415534E+03   -0.10476E-04   -0.18162E-05  5252   0.236E-03    0.652E-03
RMM:  17    -0.659690426211E+03   -0.10677E-04   -0.93318E-06  4655   0.159E-03    0.568E-03
RMM:  18    -0.659690444785E+03   -0.18574E-04   -0.73439E-06  4735   0.161E-03    0.530E-03
RMM:  19    -0.659690460963E+03   -0.16178E-04   -0.42147E-06  4356   0.115E-03    0.492E-03
RMM:  20    -0.659690482235E+03   -0.21272E-04   -0.44766E-06  4152   0.105E-03    0.250E-03
RMM:  21    -0.659690504552E+03   -0.22317E-04   -0.37137E-06  4144   0.978E-04    0.237E-03
RMM:  22    -0.659690520303E+03   -0.15751E-04   -0.37786E-06  3599   0.798E-04    0.170E-03
RMM:  23    -0.659690538112E+03   -0.17809E-04   -0.16863E-06  2946   0.601E-04    0.132E-03
RMM:  24    -0.659690554957E+03   -0.16845E-04   -0.11680E-06  2534   0.512E-04    0.123E-03
RMM:  25    -0.659690572981E+03   -0.18024E-04   -0.16765E-06  2666   0.548E-04    0.805E-04
RMM:  26    -0.659690580267E+03   -0.72861E-05   -0.79389E-07  2037   0.432E-04    0.772E-04
RMM:  27    -0.659690585003E+03   -0.47362E-05   -0.13434E-06  2064   0.455E-04    0.474E-04
RMM:  28    -0.659690587074E+03   -0.20716E-05   -0.42197E-07  1712   0.369E-04    0.349E-04
RMM:  29    -0.659690589429E+03   -0.23549E-05   -0.41869E-07  1705   0.361E-04    0.237E-04
RMM:  30    -0.659690590972E+03   -0.15423E-05   -0.42487E-07  1674   0.353E-04    0.174E-04
RMM:  31    -0.659690591752E+03   -0.78052E-06   -0.15690E-07  1367   0.309E-04
   6 F= -.65969059E+03 E0= -.65969536E+03  d E =-.169803E+00
 trial-energy change:   -0.169803  1 .order   -0.121174   -0.713014    0.470666
 step:   0.9882(harm=  0.9048)  dis= 0.04598  next Energy=  -659.769163 (dE=-0.248E+00)
 bond charge predicted
       N       E                     dE             d eps       ncg     rms          rms(c)
DAV:   1    -0.659569441486E+03    0.12115E+00   -0.63151E+01  6384   0.143E+01    0.258E+00
RMM:   2    -0.659769071405E+03   -0.19963E+00   -0.19647E+00  6442   0.240E+00    0.168E+00
RMM:   3    -0.659814100453E+03   -0.45029E-01   -0.27479E-01  7343   0.765E-01    0.161E+00
RMM:   4    -0.659773821492E+03    0.40279E-01   -0.80867E-02  7240   0.396E-01    0.711E-01
RMM:   5    -0.659780846897E+03   -0.70254E-02   -0.60290E-02  8109   0.237E-01    0.801E-01
RMM:   6    -0.659769389862E+03    0.11457E-01   -0.18518E-02  7133   0.151E-01    0.238E-01
RMM:   7    -0.659768813429E+03    0.57643E-03   -0.53796E-03  8153   0.730E-02    0.123E-01
RMM:   8    -0.659768749816E+03    0.63612E-04   -0.18900E-03  8413   0.411E-02    0.698E-02
RMM:   9    -0.659768734207E+03    0.15609E-04   -0.63495E-04  8171   0.218E-02    0.384E-02
RMM:  10    -0.659768763599E+03   -0.29392E-04   -0.29024E-04  8427   0.131E-02    0.352E-02
RMM:  11    -0.659768763962E+03   -0.36349E-06   -0.10386E-04  7228   0.811E-03    0.126E-02
RMM:  12    -0.659768774417E+03   -0.10455E-04   -0.55145E-05  6718   0.468E-03    0.104E-02
RMM:  13    -0.659768782149E+03   -0.77321E-05   -0.23581E-05  5896   0.324E-03    0.590E-03
RMM:  14    -0.659768785343E+03   -0.31935E-05   -0.10764E-05  4822   0.177E-03    0.306E-03
RMM:  15    -0.659768789362E+03   -0.40188E-05   -0.47007E-06  4281   0.114E-03    0.215E-03
RMM:  16    -0.659768792851E+03   -0.34899E-05   -0.26168E-06  3699   0.826E-04    0.166E-03
RMM:  17    -0.659768797114E+03   -0.42629E-05   -0.13516E-06  2849   0.610E-04    0.113E-03
RMM:  18    -0.659768800727E+03   -0.36123E-05   -0.92119E-07  2605   0.523E-04    0.796E-04
RMM:  19    -0.659768804199E+03   -0.34725E-05   -0.75650E-07  2475   0.483E-04    0.537E-04
RMM:  20    -0.659768808872E+03   -0.46732E-05   -0.15958E-06  2324   0.516E-04    0.460E-04
RMM:  21    -0.659768810520E+03   -0.16479E-05   -0.55950E-07  1834   0.399E-04    0.369E-04
RMM:  22    -0.659768812642E+03   -0.21220E-05   -0.55202E-07  1889   0.396E-04    0.299E-04
RMM:  23    -0.659768814248E+03   -0.16061E-05   -0.33479E-07  1682   0.363E-04    0.237E-04
RMM:  24    -0.659768815727E+03   -0.14789E-05   -0.22366E-07  1520   0.334E-04    0.194E-04
RMM:  25    -0.659768818345E+03   -0.26175E-05   -0.51789E-07  1712   0.361E-04    0.164E-04
RMM:  26    -0.659768819143E+03   -0.79870E-06   -0.15683E-07  1372   0.311E-04
   7 F= -.65976882E+03 E0= -.65977400E+03  d E =-.248030E+00
 curvature:  -0.65 expect dE=-0.116E+00 dE for cont linesearch -0.322E-07
 trial: gam= 0.10894 g(F)=  0.178E+00 g(S)=  0.000E+00 ort = 0.186E-03 (trialstep = 0.140E+01)
 search vector abs. value=  0.186E+00
 bond charge predicted
       N       E                     dE             d eps       ncg     rms          rms(c)
DAV:   1    -0.659468162059E+03    0.30066E+00   -0.12022E+02  6384   0.211E+01    0.201E+00
RMM:   2    -0.659894875529E+03   -0.42671E+00   -0.44595E+00  6426   0.378E+00    0.114E+00
RMM:   3    -0.659940155544E+03   -0.45280E-01   -0.49125E-01  7162   0.112E+00    0.121E+00
RMM:   4    -0.659924775056E+03    0.15380E-01   -0.12479E-01  8115   0.471E-01    0.606E-01
RMM:   5    -0.659927104498E+03   -0.23294E-02   -0.39984E-02  8421   0.236E-01    0.470E-01
RMM:   6    -0.659925758728E+03    0.13458E-02   -0.17978E-02  7627   0.158E-01    0.222E-01
RMM:   7    -0.659926316149E+03   -0.55742E-03   -0.67503E-03  8265   0.875E-02    0.183E-01
RMM:   8    -0.659925823796E+03    0.49235E-03   -0.27898E-03  7777   0.537E-02    0.879E-02
RMM:   9    -0.659925836683E+03   -0.12887E-04   -0.11007E-03  8409   0.296E-02    0.514E-02
RMM:  10    -0.659925895325E+03   -0.58643E-04   -0.47022E-04  8280   0.177E-02    0.421E-02
RMM:  11    -0.659925921622E+03   -0.26296E-04   -0.21469E-04  7771   0.113E-02    0.227E-02
RMM:  12    -0.659925945665E+03   -0.24044E-04   -0.96045E-05  7156   0.691E-03    0.102E-02
RMM:  13    -0.659925972467E+03   -0.26801E-04   -0.41441E-05  6259   0.394E-03    0.630E-03
RMM:  14    -0.659925994446E+03   -0.21979E-04   -0.20514E-05  5317   0.246E-03    0.448E-03
RMM:  15    -0.659926015350E+03   -0.20905E-04   -0.10126E-05  4804   0.176E-03    0.333E-03
RMM:  16    -0.659926031359E+03   -0.16008E-04   -0.56896E-06  4454   0.122E-03    0.225E-03
RMM:  17    -0.659926045090E+03   -0.13731E-04   -0.33420E-06  3600   0.854E-04    0.205E-03
RMM:  18    -0.659926056494E+03   -0.11404E-04   -0.24675E-06  3950   0.811E-04    0.164E-03
RMM:  19    -0.659926065410E+03   -0.89164E-05   -0.18369E-06  2877   0.639E-04    0.119E-03
RMM:  20    -0.659926073868E+03   -0.84581E-05   -0.20347E-06  2542   0.600E-04    0.106E-03
RMM:  21    -0.659926079359E+03   -0.54904E-05   -0.18637E-06  2501   0.570E-04    0.758E-04
RMM:  22    -0.659926082201E+03   -0.28429E-05   -0.97928E-07  2272   0.475E-04    0.592E-04
RMM:  23    -0.659926084033E+03   -0.18319E-05   -0.69821E-07  1948   0.419E-04    0.533E-04
RMM:  24    -0.659926086686E+03   -0.26524E-05   -0.58861E-07  1906   0.403E-04    0.404E-04
RMM:  25    -0.659926088638E+03   -0.19522E-05   -0.33309E-07  1711   0.366E-04    0.308E-04
RMM:  26    -0.659926090815E+03   -0.21772E-05   -0.36430E-07  1756   0.358E-04    0.262E-04
RMM:  27    -0.659926093012E+03   -0.21967E-05   -0.32685E-07  1601   0.341E-04    0.175E-04
RMM:  28    -0.659926094020E+03   -0.10083E-05   -0.21219E-07  1473   0.319E-04    0.173E-04
RMM:  29    -0.659926094480E+03   -0.46007E-06   -0.15268E-07  1363   0.303E-04
   8 F= -.65992609E+03 E0= -.65993090E+03  d E =-.157275E+00
 trial-energy change:   -0.157275  1 .order   -0.155612   -0.248625   -0.062600
 step:   1.8392(harm=  1.8702)  dis= 0.04557  next Energy=  -659.935985 (dE=-0.167E+00)
 bond charge predicted
       N       E                     dE             d eps       ncg     rms          rms(c)
DAV:   1    -0.659895583097E+03    0.30511E-01   -0.11994E+01  6440   0.673E+00    0.608E-01
RMM:   2    -0.659933870504E+03   -0.38287E-01   -0.39737E-01  6428   0.113E+00    0.376E-01
RMM:   3    -0.659937755804E+03   -0.38853E-02   -0.43458E-02  7212   0.330E-01    0.398E-01
RMM:   4    -0.659935878256E+03    0.18775E-02   -0.12213E-02  8152   0.144E-01    0.177E-01
RMM:   5    -0.659936210235E+03   -0.33198E-03   -0.43500E-03  8369   0.748E-02    0.150E-01
RMM:   6    -0.659936066863E+03    0.14337E-03   -0.15437E-03  7463   0.456E-02    0.906E-02
RMM:   7    -0.659936047934E+03    0.18929E-04   -0.88067E-04  8304   0.307E-02    0.592E-02
RMM:   8    -0.659936007219E+03    0.40715E-04   -0.26806E-04  7388   0.177E-02    0.241E-02
RMM:   9    -0.659936011249E+03   -0.40294E-05   -0.10633E-04  7932   0.913E-03    0.142E-02
RMM:  10    -0.659936016369E+03   -0.51201E-05   -0.45050E-05  6905   0.529E-03    0.103E-02
RMM:  11    -0.659936022514E+03   -0.61454E-05   -0.20916E-05  5942   0.334E-03    0.819E-03
RMM:  12    -0.659936025999E+03   -0.34852E-05   -0.86166E-06  4839   0.199E-03    0.305E-03
RMM:  13    -0.659936030738E+03   -0.47388E-05   -0.40547E-06  4292   0.115E-03    0.210E-03
RMM:  14    -0.659936035407E+03   -0.46693E-05   -0.19261E-06  4016   0.838E-04    0.150E-03
RMM:  15    -0.659936039278E+03   -0.38708E-05   -0.10684E-06  2897   0.600E-04    0.116E-03
RMM:  16    -0.659936042284E+03   -0.30063E-05   -0.59831E-07  2258   0.482E-04    0.768E-04
RMM:  17    -0.659936045621E+03   -0.33364E-05   -0.51006E-07  2069   0.446E-04    0.729E-04
RMM:  18    -0.659936048786E+03   -0.31656E-05   -0.52075E-07  1961   0.431E-04    0.651E-04
RMM:  19    -0.659936052761E+03   -0.39742E-05   -0.95383E-07  2117   0.467E-04    0.490E-04
RMM:  20    -0.659936054616E+03   -0.18555E-05   -0.42722E-07  1717   0.392E-04    0.399E-04
RMM:  21    -0.659936056583E+03   -0.19672E-05   -0.60695E-07  1843   0.411E-04    0.291E-04
RMM:  22    -0.659936057460E+03   -0.87643E-06   -0.22200E-07  1561   0.356E-04
   9 F= -.65993606E+03 E0= -.65994067E+03  d E =-.167238E+00
 curvature:  -0.97 expect dE=-0.338E-01 dE for cont linesearch -0.409E-06
 trial: gam= 0.19927 g(F)=  0.347E-01 g(S)=  0.000E+00 ort = 0.279E-03 (trialstep = 0.149E+01)
 search vector abs. value=  0.422E-01
 bond charge predicted
       N       E                     dE             d eps       ncg     rms          rms(c)
DAV:   1    -0.659858318290E+03    0.77738E-01   -0.32274E+01  6384   0.114E+01    0.103E+00
RMM:   2    -0.659968916048E+03   -0.11060E+00   -0.10677E+00  6404   0.195E+00    0.891E-01
RMM:   3    -0.659967307415E+03    0.16086E-02   -0.12298E-01  7305   0.575E-01    0.593E-01
RMM:   4    -0.659967111926E+03    0.19549E-03   -0.38440E-02  8144   0.256E-01    0.390E-01
RMM:   5    -0.659966570087E+03    0.54184E-03   -0.13874E-02  7892   0.139E-01    0.276E-01
RMM:   6    -0.659966282559E+03    0.28753E-03   -0.51742E-03  8158   0.816E-02    0.158E-01
RMM:   7    -0.659966214785E+03    0.67775E-04   -0.21452E-03  7910   0.499E-02    0.908E-02
RMM:   8    -0.659966169195E+03    0.45589E-04   -0.10804E-03  8275   0.326E-02    0.644E-02
RMM:   9    -0.659966123249E+03    0.45947E-04   -0.33423E-04  7583   0.182E-02    0.277E-02
RMM:  10    -0.659966125623E+03   -0.23736E-05   -0.14357E-04  8112   0.950E-03    0.153E-02
RMM:  11    -0.659966128842E+03   -0.32190E-05   -0.57040E-05  6926   0.531E-03    0.101E-02
RMM:  12    -0.659966130558E+03   -0.17165E-05   -0.26320E-05  5847   0.326E-03    0.565E-03
RMM:  13    -0.659966131818E+03   -0.12602E-05   -0.10287E-05  4841   0.203E-03    0.364E-03
RMM:  14    -0.659966133106E+03   -0.12881E-05   -0.50205E-06  4393   0.125E-03    0.232E-03
RMM:  15    -0.659966133904E+03   -0.79803E-06   -0.23021E-06  4088   0.891E-04
  10 F= -.65996613E+03 E0= -.65997125E+03  d E =-.300764E-01
 trial-energy change:   -0.030076  1 .order   -0.029788   -0.051725   -0.007851
 step:   1.7417(harm=  1.7535)  dis= 0.01451  next Energy=  -659.966807 (dE=-0.307E-01)
 bond charge predicted
       N       E                     dE             d eps       ncg     rms          rms(c)
DAV:   1    -0.659963670019E+03    0.24631E-02   -0.94637E-01  6576   0.195E+00    0.173E-01
RMM:   2    -0.659966856489E+03   -0.31865E-02   -0.31165E-02  6404   0.331E-01    0.147E-01
RMM:   3    -0.659966867178E+03   -0.10689E-04   -0.35951E-03  7335   0.964E-02    0.102E-01
RMM:   4    -0.659966849636E+03    0.17542E-04   -0.11027E-03  8126   0.433E-02    0.647E-02
RMM:   5    -0.659966846140E+03    0.34953E-05   -0.41893E-04  7918   0.237E-02    0.483E-02
RMM:   6    -0.659966831267E+03    0.14874E-04   -0.14972E-04  7916   0.139E-02    0.252E-02
RMM:   7    -0.659966832271E+03   -0.10044E-05   -0.64136E-05  7636   0.845E-03    0.157E-02
RMM:   8    -0.659966831262E+03    0.10089E-05   -0.32937E-05  6909   0.553E-03    0.112E-02
RMM:   9    -0.659966830073E+03    0.11896E-05   -0.10751E-05  5556   0.306E-03    0.492E-03
RMM:  10    -0.659966830328E+03   -0.25501E-06   -0.40588E-06  4439   0.156E-03
  11 F= -.65996683E+03 E0= -.65997203E+03  d E =-.307729E-01
 curvature:  -1.06 expect dE=-0.803E-02 dE for cont linesearch -0.396E-09
 trial: gam= 0.18676 g(F)=  0.756E-02 g(S)=  0.000E+00 ort = 0.397E-05 (trialstep = 0.154E+01)
 search vector abs. value=  0.904E-02
 bond charge predicted
       N       E                     dE             d eps       ncg     rms          rms(c)
DAV:   1    -0.659947472513E+03    0.19358E-01   -0.76955E+00  6440   0.540E+00    0.664E-01
RMM:   2    -0.659970228057E+03   -0.22756E-01   -0.23738E-01  6404   0.900E-01    0.361E-01
RMM:   3    -0.659971701041E+03   -0.14730E-02   -0.26425E-02  7101   0.265E-01    0.212E-01
RMM:   4    -0.659972908820E+03   -0.12078E-02   -0.95115E-03  8232   0.121E-01    0.232E-01
RMM:   5    -0.659972320312E+03    0.58851E-03   -0.25626E-03  8122   0.631E-02    0.115E-01
RMM:   6    -0.659972240348E+03    0.79963E-04   -0.14911E-03  8333   0.368E-02    0.761E-02
RMM:   7    -0.659972218906E+03    0.21442E-04   -0.46882E-04  8103   0.225E-02    0.481E-02
RMM:   8    -0.659972204565E+03    0.14341E-04   -0.19049E-04  7549   0.139E-02    0.291E-02
RMM:   9    -0.659972193701E+03    0.10864E-04   -0.69376E-05  7580   0.766E-03    0.107E-02
RMM:  10    -0.659972196794E+03   -0.30938E-05   -0.32446E-05  6591   0.415E-03    0.947E-03
RMM:  11    -0.659972197160E+03   -0.36576E-06   -0.12345E-05  5339   0.248E-03    0.523E-03
RMM:  12    -0.659972197960E+03   -0.80022E-06   -0.52485E-06  4407   0.138E-03
  12 F= -.65997220E+03 E0= -.65997749E+03  d E =-.536763E-02
 trial-energy change:   -0.005368  1 .order   -0.005232   -0.011636    0.001172
 step:   1.4052(harm=  1.3975)  dis= 0.00801  next Energy=  -659.972249 (dE=-0.542E-02)
 bond charge predicted
       N       E                     dE             d eps       ncg     rms          rms(c)
DAV:   1    -0.659972063721E+03    0.13344E-03   -0.57543E-02  6912   0.467E-01    0.569E-02
RMM:   2    -0.659972233463E+03   -0.16974E-03   -0.17693E-03  6351   0.777E-02    0.325E-02
RMM:   3    -0.659972248682E+03   -0.15218E-04   -0.19119E-04  6846   0.228E-02    0.245E-02
RMM:   4    -0.659972250614E+03   -0.19321E-05   -0.63712E-05  7786   0.103E-02    0.208E-02
RMM:   5    -0.659972249326E+03    0.12872E-05   -0.25292E-05  7133   0.553E-03    0.135E-02
RMM:   6    -0.659972246831E+03    0.24956E-05   -0.11074E-05  5875   0.355E-03    0.561E-03
RMM:   7    -0.659972247601E+03   -0.76974E-06   -0.49567E-06  4965   0.210E-03
  13 F= -.65997225E+03 E0= -.65997754E+03  d E =-.541727E-02
 curvature:  -0.83 expect dE=-0.111E-02 dE for cont linesearch -0.173E-06
 trial: gam= 0.16258 g(F)=  0.133E-02 g(S)=  0.000E+00 ort = 0.434E-04 (trialstep = 0.151E+01)
 search vector abs. value=  0.158E-02
 bond charge predicted
       N       E                     dE             d eps       ncg     rms          rms(c)
DAV:   1    -0.659969098246E+03    0.31486E-02   -0.12354E+00  6456   0.213E+00    0.203E-01
RMM:   2    -0.659972923113E+03   -0.38249E-02   -0.39679E-02  6364   0.355E-01    0.118E-01
RMM:   3    -0.659973234241E+03   -0.31113E-03   -0.47443E-03  7334   0.104E-01    0.969E-02
RMM:   4    -0.659973217995E+03    0.16246E-04   -0.13641E-03  8113   0.464E-02    0.668E-02
RMM:   5    -0.659973248308E+03   -0.30313E-04   -0.47888E-04  8412   0.236E-02    0.597E-02
RMM:   6    -0.659973214823E+03    0.33486E-04   -0.16159E-04  7601   0.140E-02    0.260E-02
RMM:   7    -0.659973223703E+03   -0.88801E-05   -0.99340E-05  7913   0.952E-03    0.234E-02
RMM:   8    -0.659973214925E+03    0.87775E-05   -0.36863E-05  6493   0.602E-03    0.104E-02
RMM:   9    -0.659973213183E+03    0.17426E-05   -0.12441E-05  5778   0.306E-03    0.340E-03
RMM:  10    -0.659973213740E+03   -0.55782E-06   -0.48529E-06  4603   0.160E-03
  14 F= -.65997321E+03 E0= -.65997851E+03  d E =-.966140E-03
 trial-energy change:   -0.000966  1 .order   -0.000961   -0.002023    0.000100
 step:   1.4410(harm=  1.4401)  dis= 0.00444  next Energy=  -659.973216 (dE=-0.968E-03)
 bond charge predicted
       N       E                     dE             d eps       ncg     rms          rms(c)
DAV:   1    -0.659973206825E+03    0.63571E-05   -0.26946E-03  7344   0.999E-02    0.102E-02
RMM:   2    -0.659973216304E+03   -0.94786E-05   -0.88596E-05  6177   0.168E-02    0.842E-03
RMM:   3    -0.659973216856E+03   -0.55233E-06   -0.10724E-05  5932   0.507E-03    0.719E-03
RMM:   4    -0.659973216436E+03    0.42086E-06   -0.26290E-06  4160   0.227E-03
  15 F= -.65997322E+03 E0= -.65997851E+03  d E =-.968835E-03
 curvature:  -0.85 expect dE=-0.299E-03 dE for cont linesearch -0.388E-06
 trial: gam= 0.24588 g(F)=  0.351E-03 g(S)=  0.000E+00 ort = 0.268E-04 (trialstep = 0.150E+01)
 search vector abs. value=  0.460E-03
 bond charge predicted
       N       E                     dE             d eps       ncg     rms          rms(c)
DAV:   1    -0.659972610596E+03    0.60626E-03   -0.34215E-01  6440   0.109E+00    0.111E-01
RMM:   2    -0.659973655972E+03   -0.10454E-02   -0.97624E-03  6367   0.178E-01    0.976E-02
RMM:   3    -0.659973643203E+03    0.12768E-04   -0.12658E-03  7229   0.544E-02    0.689E-02
RMM:   4    -0.659973600528E+03    0.42676E-04   -0.32509E-04  7911   0.242E-02    0.397E-02
RMM:   5    -0.659973592329E+03    0.81983E-05   -0.13715E-04  8055   0.125E-02    0.289E-02
RMM:   6    -0.659973587896E+03    0.44329E-05   -0.49946E-05  7228   0.740E-03    0.158E-02
RMM:   7    -0.659973585405E+03    0.24910E-05   -0.23456E-05  6440   0.483E-03    0.794E-03
RMM:   8    -0.659973585326E+03    0.79715E-07   -0.77937E-06  5358   0.264E-03
  16 F= -.65997359E+03 E0= -.65997900E+03  d E =-.368890E-03
 trial-energy change:   -0.000369  1 .order   -0.000352   -0.000536   -0.000168
 step:   1.9942(harm=  2.1784)  dis= 0.00495  next Energy=  -659.973614 (dE=-0.397E-03)
 bond charge predicted
       N       E                     dE             d eps       ncg     rms          rms(c)
DAV:   1    -0.659973519608E+03    0.65798E-04   -0.37651E-02  6536   0.362E-01    0.364E-02
RMM:   2    -0.659973635807E+03   -0.11620E-03   -0.10805E-03  6323   0.590E-02    0.329E-02
RMM:   3    -0.659973633515E+03    0.22920E-05   -0.14770E-04  7155   0.182E-02    0.225E-02
RMM:   4    -0.659973630364E+03    0.31518E-05   -0.40588E-05  7480   0.814E-03    0.137E-02
RMM:   5    -0.659973629215E+03    0.11489E-05   -0.16952E-05  6303   0.417E-03    0.936E-03
RMM:   6    -0.659973629426E+03   -0.21128E-06   -0.69802E-06  5129   0.248E-03
  17 F= -.65997363E+03 E0= -.65997908E+03  d E =-.412990E-03
 curvature:  -1.30 expect dE=-0.202E-03 dE for cont linesearch -0.311E-05
 ZBRENT: extrapolating
 opt :   2.2037  next Energy=  -659.973633 (dE=-0.416E-03)
 bond charge predicted
       N       E                     dE             d eps       ncg     rms          rms(c)
DAV:   1    -0.659973614491E+03    0.14723E-04   -0.67140E-03  6876   0.153E-01    0.163E-02
RMM:   2    -0.659973635522E+03   -0.21030E-04   -0.19597E-04  6264   0.251E-02    0.142E-02
RMM:   3    -0.659973635619E+03   -0.96901E-07   -0.29280E-05  6826   0.788E-03    0.103E-02
RMM:   4    -0.659973635233E+03    0.38557E-06   -0.88178E-06  5667   0.358E-03
  18 F= -.65997364E+03 E0= -.65997910E+03  d E =-.418798E-03
 curvature:  -1.45 expect dE=-0.266E-03 dE for cont linesearch -0.540E-08
 trial: gam= 0.53699 g(F)=  0.183E-03 g(S)=  0.000E+00 ort =-0.131E-05 (trialstep = 0.164E+01)
 search vector abs. value=  0.314E-03
 bond charge predicted
       N       E                     dE             d eps       ncg     rms          rms(c)
DAV:   1    -0.659973125766E+03    0.50985E-03   -0.26817E-01  6424   0.907E-01    0.874E-02
RMM:   2    -0.659973807136E+03   -0.68137E-03   -0.71702E-03  6369   0.145E-01    0.408E-02
RMM:   3    -0.659973844623E+03   -0.37487E-04   -0.74990E-04  7198   0.424E-02    0.250E-02
RMM:   4    -0.659973868623E+03   -0.24000E-04   -0.23262E-04  8302   0.179E-02    0.264E-02
RMM:   5    -0.659973863535E+03    0.50884E-05   -0.71246E-05  7659   0.991E-03    0.153E-02
RMM:   6    -0.659973864874E+03   -0.13390E-05   -0.28099E-05  7091   0.535E-03    0.122E-02
RMM:   7    -0.659973863052E+03    0.18225E-05   -0.98103E-06  5525   0.296E-03    0.580E-03
RMM:   8    -0.659973863234E+03   -0.18268E-06   -0.43724E-06  4579   0.177E-03
  19 F= -.65997386E+03 E0= -.65997940E+03  d E =-.228001E-03
 trial-energy change:   -0.000228  1 .order   -0.000213   -0.000299   -0.000126
 step:   2.3215(harm=  2.8433)  dis= 0.00591  next Energy=  -659.973891 (dE=-0.255E-03)
 bond charge predicted
       N       E                     dE             d eps       ncg     rms          rms(c)
DAV:   1    -0.659973775882E+03    0.87170E-04   -0.46561E-02  6440   0.378E-01    0.367E-02
RMM:   2    -0.659973895712E+03   -0.11983E-03   -0.12476E-03  6352   0.604E-02    0.181E-02
RMM:   3    -0.659973908519E+03   -0.12807E-04   -0.15060E-04  7291   0.182E-02    0.201E-02
RMM:   4    -0.659973905515E+03    0.30047E-05   -0.43870E-05  7766   0.810E-03    0.115E-02
RMM:   5    -0.659973906197E+03   -0.68264E-06   -0.14788E-05  6183   0.401E-03    0.907E-03
RMM:   6    -0.659973905561E+03    0.63630E-06   -0.55832E-06  4842   0.235E-03
  20 F= -.65997391E+03 E0= -.65997947E+03  d E =-.270328E-03
 curvature:  -1.99 expect dE=-0.127E-03 dE for cont linesearch -0.894E-05
 ZBRENT: increasing intervall
 opt :   3.6869  next Energy=  -659.973903 (dE=-0.267E-03)
 bond charge predicted
       N       E                     dE             d eps       ncg     rms          rms(c)
DAV:   1    -0.659973409946E+03    0.49625E-03   -0.18619E-01  6424   0.756E-01    0.739E-02
RMM:   2    -0.659973886521E+03   -0.47658E-03   -0.49886E-03  6378   0.121E-01    0.364E-02
RMM:   3    -0.659973930735E+03   -0.44214E-04   -0.58179E-04  7368   0.363E-02    0.370E-02
RMM:   4    -0.659973925095E+03    0.56402E-05   -0.16481E-04  8156   0.159E-02    0.237E-02
RMM:   5    -0.659973926566E+03   -0.14711E-05   -0.54368E-05  7720   0.797E-03    0.181E-02
RMM:   6    -0.659973923555E+03    0.30111E-05   -0.22392E-05  6497   0.486E-03    0.993E-03
RMM:   7    -0.659973924218E+03   -0.66261E-06   -0.11469E-05  5881   0.304E-03    0.875E-03
RMM:   8    -0.659973923477E+03    0.74084E-06   -0.51978E-06  4781   0.202E-03
  21 F= -.65997392E+03 E0= -.65997955E+03  d E =-.288244E-03
 curvature:   0.64 expect dE= 0.910E-04 dE for cont linesearch  0.371E-05
 ZBRENT: bracketing found
 ZBRENT: interpolating
 opt :   2.9597  next Energy=  -659.973918 (dE=-0.282E-03)
 bond charge predicted
       N       E                     dE             d eps       ncg     rms          rms(c)
DAV:   1    -0.659973778096E+03    0.14612E-03   -0.52810E-02  6424   0.402E-01    0.388E-02
RMM:   2    -0.659973912293E+03   -0.13420E-03   -0.14062E-03  6344   0.642E-02    0.183E-02
RMM:   3    -0.659973920552E+03   -0.82581E-05   -0.14039E-04  6958   0.188E-02    0.128E-02
RMM:   4    -0.659973926634E+03   -0.60822E-05   -0.49182E-05  7921   0.829E-03    0.157E-02
RMM:   5    -0.659973924932E+03    0.17016E-05   -0.13105E-05  6145   0.421E-03    0.750E-03
RMM:   6    -0.659973925366E+03   -0.43368E-06   -0.59324E-06  5136   0.236E-03
  22 F= -.65997393E+03 E0= -.65997952E+03  d E =-.290133E-03
 curvature:  -2.06 expect dE=-0.181E-03 dE for cont linesearch -0.128E-05
 trial: gam= 0.40845 g(F)=  0.880E-04 g(S)=  0.000E+00 ort = 0.140E-04 (trialstep = 0.190E+01)
 search vector abs. value=  0.152E-03
 bond charge predicted
       N       E                     dE             d eps       ncg     rms          rms(c)
DAV:   1    -0.659973431515E+03    0.49342E-03   -0.19675E-01  6440   0.857E-01    0.742E-02
RMM:   2    -0.659974014559E+03   -0.58304E-03   -0.58912E-03  6367   0.142E-01    0.524E-02
RMM:   3    -0.659974061310E+03   -0.46750E-04   -0.74207E-04  7117   0.425E-02    0.470E-02
RMM:   4    -0.659974037931E+03    0.23378E-04   -0.18096E-04  7683   0.185E-02    0.262E-02
RMM:   5    -0.659974043067E+03   -0.51352E-05   -0.63155E-05  7867   0.925E-03    0.244E-02
RMM:   6    -0.659974037067E+03    0.60000E-05   -0.23695E-05  6719   0.561E-03    0.113E-02
RMM:   7    -0.659974037055E+03    0.11612E-07   -0.13400E-05  6082   0.348E-03    0.722E-03
RMM:   8    -0.659974037015E+03    0.39843E-07   -0.51045E-06  4817   0.213E-03
  23 F= -.65997404E+03 E0= -.65997967E+03  d E =-.111649E-03
 trial-energy change:   -0.000112  1 .order   -0.000108   -0.000178   -0.000038
 step:   2.4243(harm=  2.4243)  dis= 0.00186  next Energy=  -659.974039 (dE=-0.114E-03)
 reached required accuracy - stopping structural energy minimisation
 PROFILE, used timers:     293
