ni3al                                   
           1
     9.498400    0.000000    0.000000
     0.000000    9.498400    0.000000
     0.000000    0.000000   24.502899
   Mo   O 
    63     1
Direct configuration=     1
   0.00000000  0.00000000  0.00000000
   0.00000000  0.00000000  0.38117778
   0.16667000  0.16667000  0.06464000
   0.33333000  0.00000000  0.00000000
   0.33332503  0.00000000  0.38117794
   0.50000000  0.16667000  0.06464000
   0.66667000  0.00000000  0.00000000
   0.66667497  0.00000000  0.38117794
   0.83333000  0.16667000  0.06464000
   0.00000000  0.33333000  0.00000000
   0.00000000  0.33332503  0.38117794
   0.16667000  0.50000000  0.06464000
   0.33333000  0.33333000  0.00000000
   0.33332435  0.33332435  0.38117429
   0.50000000  0.50000000  0.06464000
   0.66667000  0.33333000  0.00000000
   0.66667565  0.33332435  0.38117429
   0.83333000  0.50000000  0.06464000
   0.00000000  0.66667000  0.00000000
   0.00000000  0.66667497  0.38117794
   0.16667000  0.83333000  0.06464000
   0.33333000  0.66667000  0.00000000
   0.33332435  0.66667565  0.38117429
   0.50000000  0.83333000  0.06464000
   0.66667000  0.66667000  0.00000000
   0.66667565  0.66667565  0.38117429
   0.83333000  0.83333000  0.06464000
   0.00000000  0.00000000  0.12928000
   0.16667000  0.16667000  0.19391000
   0.33333000  0.00000000  0.12928000
   0.50000000  0.16667000  0.19391000
   0.66667000  0.00000000  0.12928000
   0.83333000  0.16667000  0.19391000
   0.00000000  0.33333000  0.12928000
   0.16667000  0.50000000  0.19391000
   0.33333000  0.33333000  0.12928000
   0.50000000  0.50000000  0.19391000
   0.66667000  0.33333000  0.12928000
   0.83333000  0.50000000  0.19391000
   0.00000000  0.66667000  0.12928000
   0.16667000  0.83333000  0.19391000
   0.33333000  0.66667000  0.12928000
   0.50000000  0.83333000  0.19391000
   0.66667000  0.66667000  0.12928000
   0.83333000  0.83333000  0.19391000
   0.00000000  0.00000000  0.25855000
   0.16666715  0.16666715  0.32453196
   0.33333000  0.00000000  0.25855000
   0.50000000  0.16666732  0.32452938
   0.66667000  0.00000000  0.25855000
   0.83333285  0.16666715  0.32453196
   0.00000000  0.33333000  0.25855000
   0.16666732  0.50000000  0.32452938
   0.33333000  0.33333000  0.25855000
   0.50000000  0.50000000  0.32452770
   0.66667000  0.33333000  0.25855000
   0.83333268  0.50000000  0.32452938
   0.00000000  0.66667000  0.25855000
   0.16666715  0.83333285  0.32453196
   0.33333000  0.66667000  0.25855000
   0.50000000  0.83333268  0.32452938
   0.66667000  0.66667000  0.25855000
   0.83333285  0.83333285  0.32453196
   0.50000000  0.50000000  0.45000000
Direct configuration=     2
   0.00000000  0.00000000  0.00000000
  -0.00000000  0.00000000  0.38146079
   0.16667000  0.16667000  0.06464000
   0.33333000  0.00000000  0.00000000
   0.33263801  0.00000000  0.38089637
   0.50000000  0.16667000  0.06464000
   0.66667000  0.00000000  0.00000000
   0.66736199  0.00000000  0.38089637
   0.83333000  0.16667000  0.06464000
   0.00000000  0.33333000  0.00000000
  -0.00000000  0.33263801  0.38089637
   0.16667000  0.50000000  0.06464000
   0.33333000  0.33333000  0.00000000
   0.33727779  0.33727779  0.38331231
   0.50000000  0.50000000  0.06464000
   0.66667000  0.33333000  0.00000000
   0.66272221  0.33727779  0.38331231
   0.83333000  0.50000000  0.06464000
   0.00000000  0.66667000  0.00000000
  -0.00000000  0.66736199  0.38089637
   0.16667000  0.83333000  0.06464000
   0.33333000  0.66667000  0.00000000
   0.33727779  0.66272221  0.38331231
   0.50000000  0.83333000  0.06464000
   0.66667000  0.66667000  0.00000000
   0.66272221  0.66272221  0.38331231
   0.83333000  0.83333000  0.06464000
   0.00000000  0.00000000  0.12928000
   0.16667000  0.16667000  0.19391000
   0.33333000  0.00000000  0.12928000
   0.50000000  0.16667000  0.19391000
   0.66667000  0.00000000  0.12928000
   0.83333000  0.16667000  0.19391000
   0.00000000  0.33333000  0.12928000
   0.16667000  0.50000000  0.19391000
   0.33333000  0.33333000  0.12928000
   0.50000000  0.50000000  0.19391000
   0.66667000  0.33333000  0.12928000
   0.83333000  0.50000000  0.19391000
   0.00000000  0.66667000  0.12928000
   0.16667000  0.83333000  0.19391000
   0.33333000  0.66667000  0.12928000
   0.50000000  0.83333000  0.19391000
   0.66667000  0.66667000  0.12928000
   0.83333000  0.83333000  0.19391000
   0.00000000  0.00000000  0.25855000
   0.16627749  0.16627749  0.32437957
   0.33333000  0.00000000  0.25855000
   0.50000000  0.16646932  0.32430856
   0.66667000  0.00000000  0.25855000
   0.83372251  0.16627749  0.32437957
   0.00000000  0.33333000  0.25855000
   0.16646932  0.50000000  0.32430856
   0.33333000  0.33333000  0.25855000
   0.50000000  0.50000000  0.32373518
   0.66667000  0.33333000  0.25855000
   0.83353068  0.50000000  0.32430856
   0.00000000  0.66667000  0.25855000
   0.16627749  0.83372251  0.32437957
   0.33333000  0.66667000  0.25855000
   0.50000000  0.83353068  0.32430856
   0.66667000  0.66667000  0.25855000
   0.83372251  0.83372251  0.32437957
   0.50000000  0.50000000  0.44386278
Direct configuration=     3
   0.00000000  0.00000000  0.00000000
  -0.00000000  0.00000000  0.38230979
   0.16667000  0.16667000  0.06464000
   0.33333000  0.00000000  0.00000000
   0.33057694  0.00000000  0.38005167
   0.50000000  0.16667000  0.06464000
   0.66667000  0.00000000  0.00000000
   0.66942306  0.00000000  0.38005167
   0.83333000  0.16667000  0.06464000
   0.00000000  0.33333000  0.00000000
  -0.00000000  0.33057694  0.38005167
   0.16667000  0.50000000  0.06464000
   0.33333000  0.33333000  0.00000000
   0.34913809  0.34913809  0.38972637
   0.50000000  0.50000000  0.06464000
   0.66667000  0.33333000  0.00000000
   0.65086191  0.34913809  0.38972637
   0.83333000  0.50000000  0.06464000
   0.00000000  0.66667000  0.00000000
  -0.00000000  0.66942306  0.38005167
   0.16667000  0.83333000  0.06464000
   0.33333000  0.66667000  0.00000000
   0.34913809  0.65086191  0.38972637
   0.50000000  0.83333000  0.06464000
   0.66667000  0.66667000  0.00000000
   0.65086191  0.65086191  0.38972637
   0.83333000  0.83333000  0.06464000
   0.00000000  0.00000000  0.12928000
   0.16667000  0.16667000  0.19391000
   0.33333000  0.00000000  0.12928000
   0.50000000  0.16667000  0.19391000
   0.66667000  0.00000000  0.12928000
   0.83333000  0.16667000  0.19391000
   0.00000000  0.33333000  0.12928000
   0.16667000  0.50000000  0.19391000
   0.33333000  0.33333000  0.12928000
   0.50000000  0.50000000  0.19391000
   0.66667000  0.33333000  0.12928000
   0.83333000  0.50000000  0.19391000
   0.00000000  0.66667000  0.12928000
   0.16667000  0.83333000  0.19391000
   0.33333000  0.66667000  0.12928000
   0.50000000  0.83333000  0.19391000
   0.66667000  0.66667000  0.12928000
   0.83333000  0.83333000  0.19391000
   0.00000000  0.00000000  0.25855000
   0.16510851  0.16510851  0.32392238
   0.33333000  0.00000000  0.25855000
   0.50000000  0.16587531  0.32364610
   0.66667000  0.00000000  0.25855000
   0.83489149  0.16510851  0.32392238
   0.00000000  0.33333000  0.25855000
   0.16587531  0.50000000  0.32364610
   0.33333000  0.33333000  0.25855000
   0.50000000  0.50000000  0.32135762
   0.66667000  0.33333000  0.25855000
   0.83412469  0.50000000  0.32364610
   0.00000000  0.66667000  0.25855000
   0.16510851  0.83489149  0.32392238
   0.33333000  0.66667000  0.25855000
   0.50000000  0.83412469  0.32364610
   0.66667000  0.66667000  0.25855000
   0.83489149  0.83489149  0.32392238
   0.50000000  0.50000000  0.42545111
Direct configuration=     4
   0.00000000  0.00000000  0.00000000
  -0.00000000  0.00000000  0.38209575
   0.16667000  0.16667000  0.06464000
   0.33333000  0.00000000  0.00000000
   0.33109657  0.00000000  0.38026463
   0.50000000  0.16667000  0.06464000
   0.66667000  0.00000000  0.00000000
   0.66890343  0.00000000  0.38026463
   0.83333000  0.16667000  0.06464000
   0.00000000  0.33333000  0.00000000
  -0.00000000  0.33109657  0.38026463
   0.16667000  0.50000000  0.06464000
   0.33333000  0.33333000  0.00000000
   0.34614791  0.34614791  0.38810928
   0.50000000  0.50000000  0.06464000
   0.66667000  0.33333000  0.00000000
   0.65385209  0.34614791  0.38810928
   0.83333000  0.50000000  0.06464000
   0.00000000  0.66667000  0.00000000
  -0.00000000  0.66890343  0.38026463
   0.16667000  0.83333000  0.06464000
   0.33333000  0.66667000  0.00000000
   0.34614791  0.65385209  0.38810928
   0.50000000  0.83333000  0.06464000
   0.66667000  0.66667000  0.00000000
   0.65385209  0.65385209  0.38810928
   0.83333000  0.83333000  0.06464000
   0.00000000  0.00000000  0.12928000
   0.16667000  0.16667000  0.19391000
   0.33333000  0.00000000  0.12928000
   0.50000000  0.16667000  0.19391000
   0.66667000  0.00000000  0.12928000
   0.83333000  0.16667000  0.19391000
   0.00000000  0.33333000  0.12928000
   0.16667000  0.50000000  0.19391000
   0.33333000  0.33333000  0.12928000
   0.50000000  0.50000000  0.19391000
   0.66667000  0.33333000  0.12928000
   0.83333000  0.50000000  0.19391000
   0.00000000  0.66667000  0.12928000
   0.16667000  0.83333000  0.19391000
   0.33333000  0.66667000  0.12928000
   0.50000000  0.83333000  0.19391000
   0.66667000  0.66667000  0.12928000
   0.83333000  0.83333000  0.19391000
   0.00000000  0.00000000  0.25855000
   0.16540323  0.16540323  0.32403765
   0.33333000  0.00000000  0.25855000
   0.50000000  0.16602507  0.32381312
   0.66667000  0.00000000  0.25855000
   0.83459677  0.16540323  0.32403765
   0.00000000  0.33333000  0.25855000
   0.16602507  0.50000000  0.32381312
   0.33333000  0.33333000  0.25855000
   0.50000000  0.50000000  0.32195705
   0.66667000  0.33333000  0.25855000
   0.83397493  0.50000000  0.32381312
   0.00000000  0.66667000  0.25855000
   0.16540323  0.83459677  0.32403765
   0.33333000  0.66667000  0.25855000
   0.50000000  0.83397493  0.32381312
   0.66667000  0.66667000  0.25855000
   0.83459677  0.83459677  0.32403765
   0.50000000  0.50000000  0.43009299
Direct configuration=     5
   0.00000000  0.00000000  0.00000000
  -0.00000000  0.00000000  0.38217131
   0.16667000  0.16667000  0.06464000
   0.33333000  0.00000000  0.00000000
   0.33091312  0.00000000  0.38018944
   0.50000000  0.16667000  0.06464000
   0.66667000  0.00000000  0.00000000
   0.66908688  0.00000000  0.38018944
   0.83333000  0.16667000  0.06464000
   0.00000000  0.33333000  0.00000000
  -0.00000000  0.33091312  0.38018944
   0.16667000  0.50000000  0.06464000
   0.33333000  0.33333000  0.00000000
   0.34720357  0.34720357  0.38868018
   0.50000000  0.50000000  0.06464000
   0.66667000  0.33333000  0.00000000
   0.65279643  0.34720357  0.38868018
   0.83333000  0.50000000  0.06464000
   0.00000000  0.66667000  0.00000000
  -0.00000000  0.66908688  0.38018944
   0.16667000  0.83333000  0.06464000
   0.33333000  0.66667000  0.00000000
   0.34720357  0.65279643  0.38868018
   0.50000000  0.83333000  0.06464000
   0.66667000  0.66667000  0.00000000
   0.65279643  0.65279643  0.38868018
   0.83333000  0.83333000  0.06464000
   0.00000000  0.00000000  0.12928000
   0.16667000  0.16667000  0.19391000
   0.33333000  0.00000000  0.12928000
   0.50000000  0.16667000  0.19391000
   0.66667000  0.00000000  0.12928000
   0.83333000  0.16667000  0.19391000
   0.00000000  0.33333000  0.12928000
   0.16667000  0.50000000  0.19391000
   0.33333000  0.33333000  0.12928000
   0.50000000  0.50000000  0.19391000
   0.66667000  0.33333000  0.12928000
   0.83333000  0.50000000  0.19391000
   0.00000000  0.66667000  0.12928000
   0.16667000  0.83333000  0.19391000
   0.33333000  0.66667000  0.12928000
   0.50000000  0.83333000  0.19391000
   0.66667000  0.66667000  0.12928000
   0.83333000  0.83333000  0.19391000
   0.00000000  0.00000000  0.25855000
   0.16529918  0.16529918  0.32399695
   0.33333000  0.00000000  0.25855000
   0.50000000  0.16597220  0.32375415
   0.66667000  0.00000000  0.25855000
   0.83470082  0.16529918  0.32399695
   0.00000000  0.33333000  0.25855000
   0.16597220  0.50000000  0.32375415
   0.33333000  0.33333000  0.25855000
   0.50000000  0.50000000  0.32174543
   0.66667000  0.33333000  0.25855000
   0.83402780  0.50000000  0.32375415
   0.00000000  0.66667000  0.25855000
   0.16529918  0.83470082  0.32399695
   0.33333000  0.66667000  0.25855000
   0.50000000  0.83402780  0.32375415
   0.66667000  0.66667000  0.25855000
   0.83470082  0.83470082  0.32399695
   0.50000000  0.50000000  0.42845422
Direct configuration=     6
   0.00000000  0.00000000  0.00000000
  -0.00000000  0.00000000  0.38137994
   0.16667000  0.16667000  0.06464000
   0.33333000  0.00000000  0.00000000
   0.32999379  0.00000000  0.37974946
   0.50000000  0.16667000  0.06464000
   0.66667000  0.00000000  0.00000000
   0.67000621  0.00000000  0.37974946
   0.83333000  0.16667000  0.06464000
   0.00000000  0.33333000  0.00000000
  -0.00000000  0.32999379  0.37974946
   0.16667000  0.50000000  0.06464000
   0.33333000  0.33333000  0.00000000
   0.35456258  0.35456258  0.38740217
   0.50000000  0.50000000  0.06464000
   0.66667000  0.33333000  0.00000000
   0.64543742  0.35456258  0.38740217
   0.83333000  0.50000000  0.06464000
   0.00000000  0.66667000  0.00000000
  -0.00000000  0.67000621  0.37974946
   0.16667000  0.83333000  0.06464000
   0.33333000  0.66667000  0.00000000
   0.35456258  0.64543742  0.38740217
   0.50000000  0.83333000  0.06464000
   0.66667000  0.66667000  0.00000000
   0.64543742  0.64543742  0.38740217
   0.83333000  0.83333000  0.06464000
   0.00000000  0.00000000  0.12928000
   0.16667000  0.16667000  0.19391000
   0.33333000  0.00000000  0.12928000
   0.50000000  0.16667000  0.19391000
   0.66667000  0.00000000  0.12928000
   0.83333000  0.16667000  0.19391000
   0.00000000  0.33333000  0.12928000
   0.16667000  0.50000000  0.19391000
   0.33333000  0.33333000  0.12928000
   0.50000000  0.50000000  0.19391000
   0.66667000  0.33333000  0.12928000
   0.83333000  0.50000000  0.19391000
   0.00000000  0.66667000  0.12928000
   0.16667000  0.83333000  0.19391000
   0.33333000  0.66667000  0.12928000
   0.50000000  0.83333000  0.19391000
   0.66667000  0.66667000  0.12928000
   0.83333000  0.83333000  0.19391000
   0.00000000  0.00000000  0.25855000
   0.16663033  0.16663033  0.32518185
   0.33333000  0.00000000  0.25855000
   0.50000000  0.16717340  0.32553185
   0.66667000  0.00000000  0.25855000
   0.83336967  0.16663033  0.32518185
   0.00000000  0.33333000  0.25855000
   0.16717340  0.50000000  0.32553185
   0.33333000  0.33333000  0.25855000
   0.50000000  0.50000000  0.32129593
   0.66667000  0.33333000  0.25855000
   0.83282660  0.50000000  0.32553185
   0.00000000  0.66667000  0.25855000
   0.16663033  0.83336967  0.32518185
   0.33333000  0.66667000  0.25855000
   0.50000000  0.83282660  0.32553185
   0.66667000  0.66667000  0.25855000
   0.83336967  0.83336967  0.32518185
   0.50000000  0.50000000  0.42282213
Direct configuration=     7
   0.00000000  0.00000000  0.00000000
  -0.00000000  0.00000000  0.38165071
   0.16667000  0.16667000  0.06464000
   0.33333000  0.00000000  0.00000000
   0.33030833  0.00000000  0.37990000
   0.50000000  0.16667000  0.06464000
   0.66667000  0.00000000  0.00000000
   0.66969167  0.00000000  0.37990000
   0.83333000  0.16667000  0.06464000
   0.00000000  0.33333000  0.00000000
  -0.00000000  0.33030833  0.37990000
   0.16667000  0.50000000  0.06464000
   0.33333000  0.33333000  0.00000000
   0.35204471  0.35204471  0.38783944
   0.50000000  0.50000000  0.06464000
   0.66667000  0.33333000  0.00000000
   0.64795529  0.35204471  0.38783944
   0.83333000  0.50000000  0.06464000
   0.00000000  0.66667000  0.00000000
  -0.00000000  0.66969167  0.37990000
   0.16667000  0.83333000  0.06464000
   0.33333000  0.66667000  0.00000000
   0.35204471  0.64795529  0.38783944
   0.50000000  0.83333000  0.06464000
   0.66667000  0.66667000  0.00000000
   0.64795529  0.64795529  0.38783944
   0.83333000  0.83333000  0.06464000
   0.00000000  0.00000000  0.12928000
   0.16667000  0.16667000  0.19391000
   0.33333000  0.00000000  0.12928000
   0.50000000  0.16667000  0.19391000
   0.66667000  0.00000000  0.12928000
   0.83333000  0.16667000  0.19391000
   0.00000000  0.33333000  0.12928000
   0.16667000  0.50000000  0.19391000
   0.33333000  0.33333000  0.12928000
   0.50000000  0.50000000  0.19391000
   0.66667000  0.33333000  0.12928000
   0.83333000  0.50000000  0.19391000
   0.00000000  0.66667000  0.12928000
   0.16667000  0.83333000  0.19391000
   0.33333000  0.66667000  0.12928000
   0.50000000  0.83333000  0.19391000
   0.66667000  0.66667000  0.12928000
   0.83333000  0.83333000  0.19391000
   0.00000000  0.00000000  0.25855000
   0.16617488  0.16617488  0.32477644
   0.33333000  0.00000000  0.25855000
   0.50000000  0.16676241  0.32492361
   0.66667000  0.00000000  0.25855000
   0.83382512  0.16617488  0.32477644
   0.00000000  0.33333000  0.25855000
   0.16676241  0.50000000  0.32492361
   0.33333000  0.33333000  0.25855000
   0.50000000  0.50000000  0.32144973
   0.66667000  0.33333000  0.25855000
   0.83323759  0.50000000  0.32492361
   0.00000000  0.66667000  0.25855000
   0.16617488  0.83382512  0.32477644
   0.33333000  0.66667000  0.25855000
   0.50000000  0.83323759  0.32492361
   0.66667000  0.66667000  0.25855000
   0.83382512  0.83382512  0.32477644
   0.50000000  0.50000000  0.42474913
Direct configuration=     8
   0.00000000  0.00000000  0.00000000
  -0.00000000  0.00000000  0.38109354
   0.16667000  0.16667000  0.06464000
   0.33333000  0.00000000  0.00000000
   0.33017147  0.00000000  0.38030212
   0.50000000  0.16667000  0.06464000
   0.66667000  0.00000000  0.00000000
   0.66982853  0.00000000  0.38030212
   0.83333000  0.16667000  0.06464000
   0.00000000  0.33333000  0.00000000
  -0.00000000  0.33017147  0.38030212
   0.16667000  0.50000000  0.06464000
   0.33333000  0.33333000  0.00000000
   0.35233257  0.35233257  0.38583387
   0.50000000  0.50000000  0.06464000
   0.66667000  0.33333000  0.00000000
   0.64766743  0.35233257  0.38583387
   0.83333000  0.50000000  0.06464000
   0.00000000  0.66667000  0.00000000
  -0.00000000  0.66982853  0.38030212
   0.16667000  0.83333000  0.06464000
   0.33333000  0.66667000  0.00000000
   0.35233257  0.64766743  0.38583387
   0.50000000  0.83333000  0.06464000
   0.66667000  0.66667000  0.00000000
   0.64766743  0.64766743  0.38583387
   0.83333000  0.83333000  0.06464000
   0.00000000  0.00000000  0.12928000
   0.16667000  0.16667000  0.19391000
   0.33333000  0.00000000  0.12928000
   0.50000000  0.16667000  0.19391000
   0.66667000  0.00000000  0.12928000
   0.83333000  0.16667000  0.19391000
   0.00000000  0.33333000  0.12928000
   0.16667000  0.50000000  0.19391000
   0.33333000  0.33333000  0.12928000
   0.50000000  0.50000000  0.19391000
   0.66667000  0.33333000  0.12928000
   0.83333000  0.50000000  0.19391000
   0.00000000  0.66667000  0.12928000
   0.16667000  0.83333000  0.19391000
   0.33333000  0.66667000  0.12928000
   0.50000000  0.83333000  0.19391000
   0.66667000  0.66667000  0.12928000
   0.83333000  0.83333000  0.19391000
   0.00000000  0.00000000  0.25855000
   0.16698134  0.16698134  0.32520137
   0.33333000  0.00000000  0.25855000
   0.50000000  0.16655246  0.32546900
   0.66667000  0.00000000  0.25855000
   0.83301866  0.16698134  0.32520137
   0.00000000  0.33333000  0.25855000
   0.16655246  0.50000000  0.32546900
   0.33333000  0.33333000  0.25855000
   0.50000000  0.50000000  0.31873239
   0.66667000  0.33333000  0.25855000
   0.83344754  0.50000000  0.32546900
   0.00000000  0.66667000  0.25855000
   0.16698134  0.83301866  0.32520137
   0.33333000  0.66667000  0.25855000
   0.50000000  0.83344754  0.32546900
   0.66667000  0.66667000  0.25855000
   0.83301866  0.83301866  0.32520137
   0.50000000  0.50000000  0.42616408
Direct configuration=     9
   0.00000000  0.00000000  0.00000000
  -0.00000000  0.00000000  0.38091840
   0.16667000  0.16667000  0.06464000
   0.33333000  0.00000000  0.00000000
   0.33012845  0.00000000  0.38042853
   0.50000000  0.16667000  0.06464000
   0.66667000  0.00000000  0.00000000
   0.66987155  0.00000000  0.38042853
   0.83333000  0.16667000  0.06464000
   0.00000000  0.33333000  0.00000000
  -0.00000000  0.33012845  0.38042853
   0.16667000  0.50000000  0.06464000
   0.33333000  0.33333000  0.00000000
   0.35242306  0.35242306  0.38520342
   0.50000000  0.50000000  0.06464000
   0.66667000  0.33333000  0.00000000
   0.64757694  0.35242306  0.38520342
   0.83333000  0.50000000  0.06464000
   0.00000000  0.66667000  0.00000000
  -0.00000000  0.66987155  0.38042853
   0.16667000  0.83333000  0.06464000
   0.33333000  0.66667000  0.00000000
   0.35242306  0.64757694  0.38520342
   0.50000000  0.83333000  0.06464000
   0.66667000  0.66667000  0.00000000
   0.64757694  0.64757694  0.38520342
   0.83333000  0.83333000  0.06464000
   0.00000000  0.00000000  0.12928000
   0.16667000  0.16667000  0.19391000
   0.33333000  0.00000000  0.12928000
   0.50000000  0.16667000  0.19391000
   0.66667000  0.00000000  0.12928000
   0.83333000  0.16667000  0.19391000
   0.00000000  0.33333000  0.12928000
   0.16667000  0.50000000  0.19391000
   0.33333000  0.33333000  0.12928000
   0.50000000  0.50000000  0.19391000
   0.66667000  0.33333000  0.12928000
   0.83333000  0.50000000  0.19391000
   0.00000000  0.66667000  0.12928000
   0.16667000  0.83333000  0.19391000
   0.33333000  0.66667000  0.12928000
   0.50000000  0.83333000  0.19391000
   0.66667000  0.66667000  0.12928000
   0.83333000  0.83333000  0.19391000
   0.00000000  0.00000000  0.25855000
   0.16723485  0.16723485  0.32533494
   0.33333000  0.00000000  0.25855000
   0.50000000  0.16648646  0.32564044
   0.66667000  0.00000000  0.25855000
   0.83276515  0.16723485  0.32533494
   0.00000000  0.33333000  0.25855000
   0.16648646  0.50000000  0.32564044
   0.33333000  0.33333000  0.25855000
   0.50000000  0.50000000  0.31787820
   0.66667000  0.33333000  0.25855000
   0.83351354  0.50000000  0.32564044
   0.00000000  0.66667000  0.25855000
   0.16723485  0.83276515  0.32533494
   0.33333000  0.66667000  0.25855000
   0.50000000  0.83351354  0.32564044
   0.66667000  0.66667000  0.25855000
   0.83276515  0.83276515  0.32533494
   0.50000000  0.50000000  0.42660886
Direct configuration=    10
   0.00000000  0.00000000  0.00000000
  -0.00000000  0.00000000  0.38104910
   0.16667000  0.16667000  0.06464000
   0.33333000  0.00000000  0.00000000
   0.32984908  0.00000000  0.38093421
   0.50000000  0.16667000  0.06464000
   0.66667000  0.00000000  0.00000000
   0.67015092  0.00000000  0.38093421
   0.83333000  0.16667000  0.06464000
   0.00000000  0.33333000  0.00000000
  -0.00000000  0.32984908  0.38093421
   0.16667000  0.50000000  0.06464000
   0.33333000  0.33333000  0.00000000
   0.35343871  0.35343871  0.38476190
   0.50000000  0.50000000  0.06464000
   0.66667000  0.33333000  0.00000000
   0.64656129  0.35343871  0.38476190
   0.83333000  0.50000000  0.06464000
   0.00000000  0.66667000  0.00000000
  -0.00000000  0.67015092  0.38093421
   0.16667000  0.83333000  0.06464000
   0.33333000  0.66667000  0.00000000
   0.35343871  0.64656129  0.38476190
   0.50000000  0.83333000  0.06464000
   0.66667000  0.66667000  0.00000000
   0.64656129  0.64656129  0.38476190
   0.83333000  0.83333000  0.06464000
   0.00000000  0.00000000  0.12928000
   0.16667000  0.16667000  0.19391000
   0.33333000  0.00000000  0.12928000
   0.50000000  0.16667000  0.19391000
   0.66667000  0.00000000  0.12928000
   0.83333000  0.16667000  0.19391000
   0.00000000  0.33333000  0.12928000
   0.16667000  0.50000000  0.19391000
   0.33333000  0.33333000  0.12928000
   0.50000000  0.50000000  0.19391000
   0.66667000  0.33333000  0.12928000
   0.83333000  0.50000000  0.19391000
   0.00000000  0.66667000  0.12928000
   0.16667000  0.83333000  0.19391000
   0.33333000  0.66667000  0.12928000
   0.50000000  0.83333000  0.19391000
   0.66667000  0.66667000  0.12928000
   0.83333000  0.83333000  0.19391000
   0.00000000  0.00000000  0.25855000
   0.16698384  0.16698384  0.32511106
   0.33333000  0.00000000  0.25855000
   0.50000000  0.16536967  0.32499252
   0.66667000  0.00000000  0.25855000
   0.83301616  0.16698384  0.32511106
   0.00000000  0.33333000  0.25855000
   0.16536967  0.50000000  0.32499252
   0.33333000  0.33333000  0.25855000
   0.50000000  0.50000000  0.31657778
   0.66667000  0.33333000  0.25855000
   0.83463033  0.50000000  0.32499252
   0.00000000  0.66667000  0.25855000
   0.16698384  0.83301616  0.32511106
   0.33333000  0.66667000  0.25855000
   0.50000000  0.83463033  0.32499252
   0.66667000  0.66667000  0.25855000
   0.83301616  0.83301616  0.32511106
   0.50000000  0.50000000  0.42657372
Direct configuration=    11
   0.00000000  0.00000000  0.00000000
  -0.00000000  0.00000000  0.38107146
   0.16667000  0.16667000  0.06464000
   0.33333000  0.00000000  0.00000000
   0.32980130  0.00000000  0.38102070
   0.50000000  0.16667000  0.06464000
   0.66667000  0.00000000  0.00000000
   0.67019870  0.00000000  0.38102070
   0.83333000  0.16667000  0.06464000
   0.00000000  0.33333000  0.00000000
  -0.00000000  0.32980130  0.38102070
   0.16667000  0.50000000  0.06464000
   0.33333000  0.33333000  0.00000000
   0.35361243  0.35361243  0.38468638
   0.50000000  0.50000000  0.06464000
   0.66667000  0.33333000  0.00000000
   0.64638757  0.35361243  0.38468638
   0.83333000  0.50000000  0.06464000
   0.00000000  0.66667000  0.00000000
  -0.00000000  0.67019870  0.38102070
   0.16667000  0.83333000  0.06464000
   0.33333000  0.66667000  0.00000000
   0.35361243  0.64638757  0.38468638
   0.50000000  0.83333000  0.06464000
   0.66667000  0.66667000  0.00000000
   0.64638757  0.64638757  0.38468638
   0.83333000  0.83333000  0.06464000
   0.00000000  0.00000000  0.12928000
   0.16667000  0.16667000  0.19391000
   0.33333000  0.00000000  0.12928000
   0.50000000  0.16667000  0.19391000
   0.66667000  0.00000000  0.12928000
   0.83333000  0.16667000  0.19391000
   0.00000000  0.33333000  0.12928000
   0.16667000  0.50000000  0.19391000
   0.33333000  0.33333000  0.12928000
   0.50000000  0.50000000  0.19391000
   0.66667000  0.33333000  0.12928000
   0.83333000  0.50000000  0.19391000
   0.00000000  0.66667000  0.12928000
   0.16667000  0.83333000  0.19391000
   0.33333000  0.66667000  0.12928000
   0.50000000  0.83333000  0.19391000
   0.66667000  0.66667000  0.12928000
   0.83333000  0.83333000  0.19391000
   0.00000000  0.00000000  0.25855000
   0.16694090  0.16694090  0.32507277
   0.33333000  0.00000000  0.25855000
   0.50000000  0.16517865  0.32488170
   0.66667000  0.00000000  0.25855000
   0.83305910  0.16694090  0.32507277
   0.00000000  0.33333000  0.25855000
   0.16517865  0.50000000  0.32488170
   0.33333000  0.33333000  0.25855000
   0.50000000  0.50000000  0.31635535
   0.66667000  0.33333000  0.25855000
   0.83482135  0.50000000  0.32488170
   0.00000000  0.66667000  0.25855000
   0.16694090  0.83305910  0.32507277
   0.33333000  0.66667000  0.25855000
   0.50000000  0.83482135  0.32488170
   0.66667000  0.66667000  0.25855000
   0.83305910  0.83305910  0.32507277
   0.50000000  0.50000000  0.42656771
Direct configuration=    12
   0.00000000  0.00000000  0.00000000
  -0.00000000  0.00000000  0.38128686
   0.16667000  0.16667000  0.06464000
   0.33333000  0.00000000  0.00000000
   0.32963933  0.00000000  0.38077400
   0.50000000  0.16667000  0.06464000
   0.66667000  0.00000000  0.00000000
   0.67036067  0.00000000  0.38077400
   0.83333000  0.16667000  0.06464000
   0.00000000  0.33333000  0.00000000
  -0.00000000  0.32963933  0.38077400
   0.16667000  0.50000000  0.06464000
   0.33333000  0.33333000  0.00000000
   0.35453612  0.35453612  0.38458549
   0.50000000  0.50000000  0.06464000
   0.66667000  0.33333000  0.00000000
   0.64546388  0.35453612  0.38458549
   0.83333000  0.50000000  0.06464000
   0.00000000  0.66667000  0.00000000
  -0.00000000  0.67036067  0.38077400
   0.16667000  0.83333000  0.06464000
   0.33333000  0.66667000  0.00000000
   0.35453612  0.64546388  0.38458549
   0.50000000  0.83333000  0.06464000
   0.66667000  0.66667000  0.00000000
   0.64546388  0.64546388  0.38458549
   0.83333000  0.83333000  0.06464000
   0.00000000  0.00000000  0.12928000
   0.16667000  0.16667000  0.19391000
   0.33333000  0.00000000  0.12928000
   0.50000000  0.16667000  0.19391000
   0.66667000  0.00000000  0.12928000
   0.83333000  0.16667000  0.19391000
   0.00000000  0.33333000  0.12928000
   0.16667000  0.50000000  0.19391000
   0.33333000  0.33333000  0.12928000
   0.50000000  0.50000000  0.19391000
   0.66667000  0.33333000  0.12928000
   0.83333000  0.50000000  0.19391000
   0.00000000  0.66667000  0.12928000
   0.16667000  0.83333000  0.19391000
   0.33333000  0.66667000  0.12928000
   0.50000000  0.83333000  0.19391000
   0.66667000  0.66667000  0.12928000
   0.83333000  0.83333000  0.19391000
   0.00000000  0.00000000  0.25855000
   0.16667258  0.16667258  0.32521261
   0.33333000  0.00000000  0.25855000
   0.50000000  0.16488936  0.32476345
   0.66667000  0.00000000  0.25855000
   0.83332742  0.16667258  0.32521261
   0.00000000  0.33333000  0.25855000
   0.16488936  0.50000000  0.32476345
   0.33333000  0.33333000  0.25855000
   0.50000000  0.50000000  0.31626123
   0.66667000  0.33333000  0.25855000
   0.83511064  0.50000000  0.32476345
   0.00000000  0.66667000  0.25855000
   0.16667258  0.83332742  0.32521261
   0.33333000  0.66667000  0.25855000
   0.50000000  0.83511064  0.32476345
   0.66667000  0.66667000  0.25855000
   0.83332742  0.83332742  0.32521261
   0.50000000  0.50000000  0.42631002
Direct configuration=    13
   0.00000000  0.00000000  0.00000000
  -0.00000000  0.00000000  0.38126824
   0.16667000  0.16667000  0.06464000
   0.33333000  0.00000000  0.00000000
   0.32965333  0.00000000  0.38079534
   0.50000000  0.16667000  0.06464000
   0.66667000  0.00000000  0.00000000
   0.67034667  0.00000000  0.38079534
   0.83333000  0.16667000  0.06464000
   0.00000000  0.33333000  0.00000000
  -0.00000000  0.32965333  0.38079534
   0.16667000  0.50000000  0.06464000
   0.33333000  0.33333000  0.00000000
   0.35445625  0.35445625  0.38459421
   0.50000000  0.50000000  0.06464000
   0.66667000  0.33333000  0.00000000
   0.64554375  0.35445625  0.38459421
   0.83333000  0.50000000  0.06464000
   0.00000000  0.66667000  0.00000000
  -0.00000000  0.67034667  0.38079534
   0.16667000  0.83333000  0.06464000
   0.33333000  0.66667000  0.00000000
   0.35445625  0.64554375  0.38459421
   0.50000000  0.83333000  0.06464000
   0.66667000  0.66667000  0.00000000
   0.64554375  0.64554375  0.38459421
   0.83333000  0.83333000  0.06464000
   0.00000000  0.00000000  0.12928000
   0.16667000  0.16667000  0.19391000
   0.33333000  0.00000000  0.12928000
   0.50000000  0.16667000  0.19391000
   0.66667000  0.00000000  0.12928000
   0.83333000  0.16667000  0.19391000
   0.00000000  0.33333000  0.12928000
   0.16667000  0.50000000  0.19391000
   0.33333000  0.33333000  0.12928000
   0.50000000  0.50000000  0.19391000
   0.66667000  0.33333000  0.12928000
   0.83333000  0.50000000  0.19391000
   0.00000000  0.66667000  0.12928000
   0.16667000  0.83333000  0.19391000
   0.33333000  0.66667000  0.12928000
   0.50000000  0.83333000  0.19391000
   0.66667000  0.66667000  0.12928000
   0.83333000  0.83333000  0.19391000
   0.00000000  0.00000000  0.25855000
   0.16669578  0.16669578  0.32520052
   0.33333000  0.00000000  0.25855000
   0.50000000  0.16491437  0.32477368
   0.66667000  0.00000000  0.25855000
   0.83330422  0.16669578  0.32520052
   0.00000000  0.33333000  0.25855000
   0.16491437  0.50000000  0.32477368
   0.33333000  0.33333000  0.25855000
   0.50000000  0.50000000  0.31626937
   0.66667000  0.33333000  0.25855000
   0.83508563  0.50000000  0.32477368
   0.00000000  0.66667000  0.25855000
   0.16669578  0.83330422  0.32520052
   0.33333000  0.66667000  0.25855000
   0.50000000  0.83508563  0.32477368
   0.66667000  0.66667000  0.25855000
   0.83330422  0.83330422  0.32520052
   0.50000000  0.50000000  0.42633230
Direct configuration=    14
   0.00000000  0.00000000  0.00000000
  -0.00000000  0.00000000  0.38145813
   0.16667000  0.16667000  0.06464000
   0.33333000  0.00000000  0.00000000
   0.32972473  0.00000000  0.38065030
   0.50000000  0.16667000  0.06464000
   0.66667000  0.00000000  0.00000000
   0.67027527  0.00000000  0.38065030
   0.83333000  0.16667000  0.06464000
   0.00000000  0.33333000  0.00000000
  -0.00000000  0.32972473  0.38065030
   0.16667000  0.50000000  0.06464000
   0.33333000  0.33333000  0.00000000
   0.35454358  0.35454358  0.38462574
   0.50000000  0.50000000  0.06464000
   0.66667000  0.33333000  0.00000000
   0.64545642  0.35454358  0.38462574
   0.83333000  0.50000000  0.06464000
   0.00000000  0.66667000  0.00000000
  -0.00000000  0.67027527  0.38065030
   0.16667000  0.83333000  0.06464000
   0.33333000  0.66667000  0.00000000
   0.35454358  0.64545642  0.38462574
   0.50000000  0.83333000  0.06464000
   0.66667000  0.66667000  0.00000000
   0.64545642  0.64545642  0.38462574
   0.83333000  0.83333000  0.06464000
   0.00000000  0.00000000  0.12928000
   0.16667000  0.16667000  0.19391000
   0.33333000  0.00000000  0.12928000
   0.50000000  0.16667000  0.19391000
   0.66667000  0.00000000  0.12928000
   0.83333000  0.16667000  0.19391000
   0.00000000  0.33333000  0.12928000
   0.16667000  0.50000000  0.19391000
   0.33333000  0.33333000  0.12928000
   0.50000000  0.50000000  0.19391000
   0.66667000  0.33333000  0.12928000
   0.83333000  0.50000000  0.19391000
   0.00000000  0.66667000  0.12928000
   0.16667000  0.83333000  0.19391000
   0.33333000  0.66667000  0.12928000
   0.50000000  0.83333000  0.19391000
   0.66667000  0.66667000  0.12928000
   0.83333000  0.83333000  0.19391000
   0.00000000  0.00000000  0.25855000
   0.16667379  0.16667379  0.32524079
   0.33333000  0.00000000  0.25855000
   0.50000000  0.16505345  0.32473827
   0.66667000  0.00000000  0.25855000
   0.83332621  0.16667379  0.32524079
   0.00000000  0.33333000  0.25855000
   0.16505345  0.50000000  0.32473827
   0.33333000  0.33333000  0.25855000
   0.50000000  0.50000000  0.31593077
   0.66667000  0.33333000  0.25855000
   0.83494655  0.50000000  0.32473827
   0.00000000  0.66667000  0.25855000
   0.16667379  0.83332621  0.32524079
   0.33333000  0.66667000  0.25855000
   0.50000000  0.83494655  0.32473827
   0.66667000  0.66667000  0.25855000
   0.83332621  0.83332621  0.32524079
   0.50000000  0.50000000  0.42645937
Direct configuration=    15
   0.00000000  0.00000000  0.00000000
  -0.00000000  0.00000000  0.38144926
   0.16667000  0.16667000  0.06464000
   0.33333000  0.00000000  0.00000000
   0.32972139  0.00000000  0.38065707
   0.50000000  0.16667000  0.06464000
   0.66667000  0.00000000  0.00000000
   0.67027861  0.00000000  0.38065707
   0.83333000  0.16667000  0.06464000
   0.00000000  0.33333000  0.00000000
  -0.00000000  0.32972139  0.38065707
   0.16667000  0.50000000  0.06464000
   0.33333000  0.33333000  0.00000000
   0.35453950  0.35453950  0.38462427
   0.50000000  0.50000000  0.06464000
   0.66667000  0.33333000  0.00000000
   0.64546050  0.35453950  0.38462427
   0.83333000  0.50000000  0.06464000
   0.00000000  0.66667000  0.00000000
  -0.00000000  0.67027861  0.38065707
   0.16667000  0.83333000  0.06464000
   0.33333000  0.66667000  0.00000000
   0.35453950  0.64546050  0.38462427
   0.50000000  0.83333000  0.06464000
   0.66667000  0.66667000  0.00000000
   0.64546050  0.64546050  0.38462427
   0.83333000  0.83333000  0.06464000
   0.00000000  0.00000000  0.12928000
   0.16667000  0.16667000  0.19391000
   0.33333000  0.00000000  0.12928000
   0.50000000  0.16667000  0.19391000
   0.66667000  0.00000000  0.12928000
   0.83333000  0.16667000  0.19391000
   0.00000000  0.33333000  0.12928000
   0.16667000  0.50000000  0.19391000
   0.33333000  0.33333000  0.12928000
   0.50000000  0.50000000  0.19391000
   0.66667000  0.33333000  0.12928000
   0.83333000  0.50000000  0.19391000
   0.00000000  0.66667000  0.12928000
   0.16667000  0.83333000  0.19391000
   0.33333000  0.66667000  0.12928000
   0.50000000  0.83333000  0.19391000
   0.66667000  0.66667000  0.12928000
   0.83333000  0.83333000  0.19391000
   0.00000000  0.00000000  0.25855000
   0.16667481  0.16667481  0.32523891
   0.33333000  0.00000000  0.25855000
   0.50000000  0.16504696  0.32473992
   0.66667000  0.00000000  0.25855000
   0.83332519  0.16667481  0.32523891
   0.00000000  0.33333000  0.25855000
   0.16504696  0.50000000  0.32473992
   0.33333000  0.33333000  0.25855000
   0.50000000  0.50000000  0.31594658
   0.66667000  0.33333000  0.25855000
   0.83495304  0.50000000  0.32473992
   0.00000000  0.66667000  0.25855000
   0.16667481  0.83332519  0.32523891
   0.33333000  0.66667000  0.25855000
   0.50000000  0.83495304  0.32473992
   0.66667000  0.66667000  0.25855000
   0.83332519  0.83332519  0.32523891
   0.50000000  0.50000000  0.42645344
Direct configuration=    16
   0.00000000  0.00000000  0.00000000
  -0.00000000  0.00000000  0.38152702
   0.16667000  0.16667000  0.06464000
   0.33333000  0.00000000  0.00000000
   0.32986796  0.00000000  0.38064319
   0.50000000  0.16667000  0.06464000
   0.66667000  0.00000000  0.00000000
   0.67013204  0.00000000  0.38064319
   0.83333000  0.16667000  0.06464000
   0.00000000  0.33333000  0.00000000
  -0.00000000  0.32986796  0.38064319
   0.16667000  0.50000000  0.06464000
   0.33333000  0.33333000  0.00000000
   0.35464551  0.35464551  0.38463558
   0.50000000  0.50000000  0.06464000
   0.66667000  0.33333000  0.00000000
   0.64535449  0.35464551  0.38463558
   0.83333000  0.50000000  0.06464000
   0.00000000  0.66667000  0.00000000
  -0.00000000  0.67013204  0.38064319
   0.16667000  0.83333000  0.06464000
   0.33333000  0.66667000  0.00000000
   0.35464551  0.64535449  0.38463558
   0.50000000  0.83333000  0.06464000
   0.66667000  0.66667000  0.00000000
   0.64535449  0.64535449  0.38463558
   0.83333000  0.83333000  0.06464000
   0.00000000  0.00000000  0.12928000
   0.16667000  0.16667000  0.19391000
   0.33333000  0.00000000  0.12928000
   0.50000000  0.16667000  0.19391000
   0.66667000  0.00000000  0.12928000
   0.83333000  0.16667000  0.19391000
   0.00000000  0.33333000  0.12928000
   0.16667000  0.50000000  0.19391000
   0.33333000  0.33333000  0.12928000
   0.50000000  0.50000000  0.19391000
   0.66667000  0.33333000  0.12928000
   0.83333000  0.50000000  0.19391000
   0.00000000  0.66667000  0.12928000
   0.16667000  0.83333000  0.19391000
   0.33333000  0.66667000  0.12928000
   0.50000000  0.83333000  0.19391000
   0.66667000  0.66667000  0.12928000
   0.83333000  0.83333000  0.19391000
   0.00000000  0.00000000  0.25855000
   0.16668017  0.16668017  0.32522472
   0.33333000  0.00000000  0.25855000
   0.50000000  0.16521452  0.32469421
   0.66667000  0.00000000  0.25855000
   0.83331983  0.16668017  0.32522472
   0.00000000  0.33333000  0.25855000
   0.16521452  0.50000000  0.32469421
   0.33333000  0.33333000  0.25855000
   0.50000000  0.50000000  0.31595619
   0.66667000  0.33333000  0.25855000
   0.83478548  0.50000000  0.32469421
   0.00000000  0.66667000  0.25855000
   0.16668017  0.83331983  0.32522472
   0.33333000  0.66667000  0.25855000
   0.50000000  0.83478548  0.32469421
   0.66667000  0.66667000  0.25855000
   0.83331983  0.83331983  0.32522472
   0.50000000  0.50000000  0.42660519
Direct configuration=    17
   0.00000000  0.00000000  0.00000000
  -0.00000000  0.00000000  0.38155281
   0.16667000  0.16667000  0.06464000
   0.33333000  0.00000000  0.00000000
   0.32991657  0.00000000  0.38063859
   0.50000000  0.16667000  0.06464000
   0.66667000  0.00000000  0.00000000
   0.67008343  0.00000000  0.38063859
   0.83333000  0.16667000  0.06464000
   0.00000000  0.33333000  0.00000000
  -0.00000000  0.32991657  0.38063859
   0.16667000  0.50000000  0.06464000
   0.33333000  0.33333000  0.00000000
   0.35468067  0.35468067  0.38463933
   0.50000000  0.50000000  0.06464000
   0.66667000  0.33333000  0.00000000
   0.64531933  0.35468067  0.38463933
   0.83333000  0.50000000  0.06464000
   0.00000000  0.66667000  0.00000000
  -0.00000000  0.67008343  0.38063859
   0.16667000  0.83333000  0.06464000
   0.33333000  0.66667000  0.00000000
   0.35468067  0.64531933  0.38463933
   0.50000000  0.83333000  0.06464000
   0.66667000  0.66667000  0.00000000
   0.64531933  0.64531933  0.38463933
   0.83333000  0.83333000  0.06464000
   0.00000000  0.00000000  0.12928000
   0.16667000  0.16667000  0.19391000
   0.33333000  0.00000000  0.12928000
   0.50000000  0.16667000  0.19391000
   0.66667000  0.00000000  0.12928000
   0.83333000  0.16667000  0.19391000
   0.00000000  0.33333000  0.12928000
   0.16667000  0.50000000  0.19391000
   0.33333000  0.33333000  0.12928000
   0.50000000  0.50000000  0.19391000
   0.66667000  0.33333000  0.12928000
   0.83333000  0.50000000  0.19391000
   0.00000000  0.66667000  0.12928000
   0.16667000  0.83333000  0.19391000
   0.33333000  0.66667000  0.12928000
   0.50000000  0.83333000  0.19391000
   0.66667000  0.66667000  0.12928000
   0.83333000  0.83333000  0.19391000
   0.00000000  0.00000000  0.25855000
   0.16668194  0.16668194  0.32522001
   0.33333000  0.00000000  0.25855000
   0.50000000  0.16527010  0.32467905
   0.66667000  0.00000000  0.25855000
   0.83331806  0.16668194  0.32522001
   0.00000000  0.33333000  0.25855000
   0.16527010  0.50000000  0.32467905
   0.33333000  0.33333000  0.25855000
   0.50000000  0.50000000  0.31595938
   0.66667000  0.33333000  0.25855000
   0.83472990  0.50000000  0.32467905
   0.00000000  0.66667000  0.25855000
   0.16668194  0.83331806  0.32522001
   0.33333000  0.66667000  0.25855000
   0.50000000  0.83472990  0.32467905
   0.66667000  0.66667000  0.25855000
   0.83331806  0.83331806  0.32522001
   0.50000000  0.50000000  0.42665553
Direct configuration=    18
   0.00000000  0.00000000  0.00000000
  -0.00000000  0.00000000  0.38156369
   0.16667000  0.16667000  0.06464000
   0.33333000  0.00000000  0.00000000
   0.32993708  0.00000000  0.38063665
   0.50000000  0.16667000  0.06464000
   0.66667000  0.00000000  0.00000000
   0.67006292  0.00000000  0.38063665
   0.83333000  0.16667000  0.06464000
   0.00000000  0.33333000  0.00000000
  -0.00000000  0.32993708  0.38063665
   0.16667000  0.50000000  0.06464000
   0.33333000  0.33333000  0.00000000
   0.35469550  0.35469550  0.38464091
   0.50000000  0.50000000  0.06464000
   0.66667000  0.33333000  0.00000000
   0.64530450  0.35469550  0.38464091
   0.83333000  0.50000000  0.06464000
   0.00000000  0.66667000  0.00000000
  -0.00000000  0.67006292  0.38063665
   0.16667000  0.83333000  0.06464000
   0.33333000  0.66667000  0.00000000
   0.35469550  0.64530450  0.38464091
   0.50000000  0.83333000  0.06464000
   0.66667000  0.66667000  0.00000000
   0.64530450  0.64530450  0.38464091
   0.83333000  0.83333000  0.06464000
   0.00000000  0.00000000  0.12928000
   0.16667000  0.16667000  0.19391000
   0.33333000  0.00000000  0.12928000
   0.50000000  0.16667000  0.19391000
   0.66667000  0.00000000  0.12928000
   0.83333000  0.16667000  0.19391000
   0.00000000  0.33333000  0.12928000
   0.16667000  0.50000000  0.19391000
   0.33333000  0.33333000  0.12928000
   0.50000000  0.50000000  0.19391000
   0.66667000  0.33333000  0.12928000
   0.83333000  0.50000000  0.19391000
   0.00000000  0.66667000  0.12928000
   0.16667000  0.83333000  0.19391000
   0.33333000  0.66667000  0.12928000
   0.50000000  0.83333000  0.19391000
   0.66667000  0.66667000  0.12928000
   0.83333000  0.83333000  0.19391000
   0.00000000  0.00000000  0.25855000
   0.16668269  0.16668269  0.32521803
   0.33333000  0.00000000  0.25855000
   0.50000000  0.16529355  0.32467266
   0.66667000  0.00000000  0.25855000
   0.83331731  0.16668269  0.32521803
   0.00000000  0.33333000  0.25855000
   0.16529355  0.50000000  0.32467266
   0.33333000  0.33333000  0.25855000
   0.50000000  0.50000000  0.31596072
   0.66667000  0.33333000  0.25855000
   0.83470645  0.50000000  0.32467266
   0.00000000  0.66667000  0.25855000
   0.16668269  0.83331731  0.32521803
   0.33333000  0.66667000  0.25855000
   0.50000000  0.83470645  0.32467266
   0.66667000  0.66667000  0.25855000
   0.83331731  0.83331731  0.32521803
   0.50000000  0.50000000  0.42667676
Direct configuration=    19
   0.00000000  0.00000000  0.00000000
  -0.00000000  0.00000000  0.38151822
   0.16667000  0.16667000  0.06464000
   0.33333000  0.00000000  0.00000000
   0.33008974  0.00000000  0.38062069
   0.50000000  0.16667000  0.06464000
   0.66667000  0.00000000  0.00000000
   0.66991026  0.00000000  0.38062069
   0.83333000  0.16667000  0.06464000
   0.00000000  0.33333000  0.00000000
  -0.00000000  0.33008974  0.38062069
   0.16667000  0.50000000  0.06464000
   0.33333000  0.33333000  0.00000000
   0.35476364  0.35476364  0.38468863
   0.50000000  0.50000000  0.06464000
   0.66667000  0.33333000  0.00000000
   0.64523636  0.35476364  0.38468863
   0.83333000  0.50000000  0.06464000
   0.00000000  0.66667000  0.00000000
  -0.00000000  0.66991026  0.38062069
   0.16667000  0.83333000  0.06464000
   0.33333000  0.66667000  0.00000000
   0.35476364  0.64523636  0.38468863
   0.50000000  0.83333000  0.06464000
   0.66667000  0.66667000  0.00000000
   0.64523636  0.64523636  0.38468863
   0.83333000  0.83333000  0.06464000
   0.00000000  0.00000000  0.12928000
   0.16667000  0.16667000  0.19391000
   0.33333000  0.00000000  0.12928000
   0.50000000  0.16667000  0.19391000
   0.66667000  0.00000000  0.12928000
   0.83333000  0.16667000  0.19391000
   0.00000000  0.33333000  0.12928000
   0.16667000  0.50000000  0.19391000
   0.33333000  0.33333000  0.12928000
   0.50000000  0.50000000  0.19391000
   0.66667000  0.33333000  0.12928000
   0.83333000  0.50000000  0.19391000
   0.00000000  0.66667000  0.12928000
   0.16667000  0.83333000  0.19391000
   0.33333000  0.66667000  0.12928000
   0.50000000  0.83333000  0.19391000
   0.66667000  0.66667000  0.12928000
   0.83333000  0.83333000  0.19391000
   0.00000000  0.00000000  0.25855000
   0.16664683  0.16664683  0.32524402
   0.33333000  0.00000000  0.25855000
   0.50000000  0.16527449  0.32464757
   0.66667000  0.00000000  0.25855000
   0.83335317  0.16664683  0.32524402
   0.00000000  0.33333000  0.25855000
   0.16527449  0.50000000  0.32464757
   0.33333000  0.33333000  0.25855000
   0.50000000  0.50000000  0.31596357
   0.66667000  0.33333000  0.25855000
   0.83472551  0.50000000  0.32464757
   0.00000000  0.66667000  0.25855000
   0.16664683  0.83335317  0.32524402
   0.33333000  0.66667000  0.25855000
   0.50000000  0.83472551  0.32464757
   0.66667000  0.66667000  0.25855000
   0.83335317  0.83335317  0.32524402
   0.50000000  0.50000000  0.42684714
Direct configuration=    20
   0.00000000  0.00000000  0.00000000
  -0.00000000  0.00000000  0.38149928
   0.16667000  0.16667000  0.06464000
   0.33333000  0.00000000  0.00000000
   0.33015335  0.00000000  0.38061404
   0.50000000  0.16667000  0.06464000
   0.66667000  0.00000000  0.00000000
   0.66984665  0.00000000  0.38061404
   0.83333000  0.16667000  0.06464000
   0.00000000  0.33333000  0.00000000
  -0.00000000  0.33015335  0.38061404
   0.16667000  0.50000000  0.06464000
   0.33333000  0.33333000  0.00000000
   0.35479203  0.35479203  0.38470851
   0.50000000  0.50000000  0.06464000
   0.66667000  0.33333000  0.00000000
   0.64520797  0.35479203  0.38470851
   0.83333000  0.50000000  0.06464000
   0.00000000  0.66667000  0.00000000
  -0.00000000  0.66984665  0.38061404
   0.16667000  0.83333000  0.06464000
   0.33333000  0.66667000  0.00000000
   0.35479203  0.64520797  0.38470851
   0.50000000  0.83333000  0.06464000
   0.66667000  0.66667000  0.00000000
   0.64520797  0.64520797  0.38470851
   0.83333000  0.83333000  0.06464000
   0.00000000  0.00000000  0.12928000
   0.16667000  0.16667000  0.19391000
   0.33333000  0.00000000  0.12928000
   0.50000000  0.16667000  0.19391000
   0.66667000  0.00000000  0.12928000
   0.83333000  0.16667000  0.19391000
   0.00000000  0.33333000  0.12928000
   0.16667000  0.50000000  0.19391000
   0.33333000  0.33333000  0.12928000
   0.50000000  0.50000000  0.19391000
   0.66667000  0.33333000  0.12928000
   0.83333000  0.50000000  0.19391000
   0.00000000  0.66667000  0.12928000
   0.16667000  0.83333000  0.19391000
   0.33333000  0.66667000  0.12928000
   0.50000000  0.83333000  0.19391000
   0.66667000  0.66667000  0.12928000
   0.83333000  0.83333000  0.19391000
   0.00000000  0.00000000  0.25855000
   0.16663190  0.16663190  0.32525485
   0.33333000  0.00000000  0.25855000
   0.50000000  0.16526655  0.32463712
   0.66667000  0.00000000  0.25855000
   0.83336810  0.16663190  0.32525485
   0.00000000  0.33333000  0.25855000
   0.16526655  0.50000000  0.32463712
   0.33333000  0.33333000  0.25855000
   0.50000000  0.50000000  0.31596476
   0.66667000  0.33333000  0.25855000
   0.83473345  0.50000000  0.32463712
   0.00000000  0.66667000  0.25855000
   0.16663190  0.83336810  0.32525485
   0.33333000  0.66667000  0.25855000
   0.50000000  0.83473345  0.32463712
   0.66667000  0.66667000  0.25855000
   0.83336810  0.83336810  0.32525485
   0.50000000  0.50000000  0.42691812
Direct configuration=    21
   0.00000000  0.00000000  0.00000000
  -0.00000000  0.00000000  0.38146139
   0.16667000  0.16667000  0.06464000
   0.33333000  0.00000000  0.00000000
   0.33028055  0.00000000  0.38060074
   0.50000000  0.16667000  0.06464000
   0.66667000  0.00000000  0.00000000
   0.66971945  0.00000000  0.38060074
   0.83333000  0.16667000  0.06464000
   0.00000000  0.33333000  0.00000000
  -0.00000000  0.33028055  0.38060074
   0.16667000  0.50000000  0.06464000
   0.33333000  0.33333000  0.00000000
   0.35484880  0.35484880  0.38474828
   0.50000000  0.50000000  0.06464000
   0.66667000  0.33333000  0.00000000
   0.64515120  0.35484880  0.38474828
   0.83333000  0.50000000  0.06464000
   0.00000000  0.66667000  0.00000000
  -0.00000000  0.66971945  0.38060074
   0.16667000  0.83333000  0.06464000
   0.33333000  0.66667000  0.00000000
   0.35484880  0.64515120  0.38474828
   0.50000000  0.83333000  0.06464000
   0.66667000  0.66667000  0.00000000
   0.64515120  0.64515120  0.38474828
   0.83333000  0.83333000  0.06464000
   0.00000000  0.00000000  0.12928000
   0.16667000  0.16667000  0.19391000
   0.33333000  0.00000000  0.12928000
   0.50000000  0.16667000  0.19391000
   0.66667000  0.00000000  0.12928000
   0.83333000  0.16667000  0.19391000
   0.00000000  0.33333000  0.12928000
   0.16667000  0.50000000  0.19391000
   0.33333000  0.33333000  0.12928000
   0.50000000  0.50000000  0.19391000
   0.66667000  0.33333000  0.12928000
   0.83333000  0.50000000  0.19391000
   0.00000000  0.66667000  0.12928000
   0.16667000  0.83333000  0.19391000
   0.33333000  0.66667000  0.12928000
   0.50000000  0.83333000  0.19391000
   0.66667000  0.66667000  0.12928000
   0.83333000  0.83333000  0.19391000
   0.00000000  0.00000000  0.25855000
   0.16660202  0.16660202  0.32527651
   0.33333000  0.00000000  0.25855000
   0.50000000  0.16525067  0.32461621
   0.66667000  0.00000000  0.25855000
   0.83339798  0.16660202  0.32527651
   0.00000000  0.33333000  0.25855000
   0.16525067  0.50000000  0.32461621
   0.33333000  0.33333000  0.25855000
   0.50000000  0.50000000  0.31596713
   0.66667000  0.33333000  0.25855000
   0.83474933  0.50000000  0.32461621
   0.00000000  0.66667000  0.25855000
   0.16660202  0.83339798  0.32527651
   0.33333000  0.66667000  0.25855000
   0.50000000  0.83474933  0.32461621
   0.66667000  0.66667000  0.25855000
   0.83339798  0.83339798  0.32527651
   0.50000000  0.50000000  0.42706009
Direct configuration=    22
   0.00000000  0.00000000  0.00000000
  -0.00000000  0.00000000  0.38148157
   0.16667000  0.16667000  0.06464000
   0.33333000  0.00000000  0.00000000
   0.33021280  0.00000000  0.38060782
   0.50000000  0.16667000  0.06464000
   0.66667000  0.00000000  0.00000000
   0.66978720  0.00000000  0.38060782
   0.83333000  0.16667000  0.06464000
   0.00000000  0.33333000  0.00000000
  -0.00000000  0.33021280  0.38060782
   0.16667000  0.50000000  0.06464000
   0.33333000  0.33333000  0.00000000
   0.35481856  0.35481856  0.38472710
   0.50000000  0.50000000  0.06464000
   0.66667000  0.33333000  0.00000000
   0.64518144  0.35481856  0.38472710
   0.83333000  0.50000000  0.06464000
   0.00000000  0.66667000  0.00000000
  -0.00000000  0.66978720  0.38060782
   0.16667000  0.83333000  0.06464000
   0.33333000  0.66667000  0.00000000
   0.35481856  0.64518144  0.38472710
   0.50000000  0.83333000  0.06464000
   0.66667000  0.66667000  0.00000000
   0.64518144  0.64518144  0.38472710
   0.83333000  0.83333000  0.06464000
   0.00000000  0.00000000  0.12928000
   0.16667000  0.16667000  0.19391000
   0.33333000  0.00000000  0.12928000
   0.50000000  0.16667000  0.19391000
   0.66667000  0.00000000  0.12928000
   0.83333000  0.16667000  0.19391000
   0.00000000  0.33333000  0.12928000
   0.16667000  0.50000000  0.19391000
   0.33333000  0.33333000  0.12928000
   0.50000000  0.50000000  0.19391000
   0.66667000  0.33333000  0.12928000
   0.83333000  0.50000000  0.19391000
   0.00000000  0.66667000  0.12928000
   0.16667000  0.83333000  0.19391000
   0.33333000  0.66667000  0.12928000
   0.50000000  0.83333000  0.19391000
   0.66667000  0.66667000  0.12928000
   0.83333000  0.83333000  0.19391000
   0.00000000  0.00000000  0.25855000
   0.16661793  0.16661793  0.32526497
   0.33333000  0.00000000  0.25855000
   0.50000000  0.16525913  0.32462735
   0.66667000  0.00000000  0.25855000
   0.83338207  0.16661793  0.32526497
   0.00000000  0.33333000  0.25855000
   0.16525913  0.50000000  0.32462735
   0.33333000  0.33333000  0.25855000
   0.50000000  0.50000000  0.31596587
   0.66667000  0.33333000  0.25855000
   0.83474087  0.50000000  0.32462735
   0.00000000  0.66667000  0.25855000
   0.16661793  0.83338207  0.32526497
   0.33333000  0.66667000  0.25855000
   0.50000000  0.83474087  0.32462735
   0.66667000  0.66667000  0.25855000
   0.83338207  0.83338207  0.32526497
   0.50000000  0.50000000  0.42698448
Direct configuration=    23
   0.00000000  0.00000000  0.00000000
  -0.00000000  0.00000000  0.38146186
   0.16667000  0.16667000  0.06464000
   0.33333000  0.00000000  0.00000000
   0.33034713  0.00000000  0.38061688
   0.50000000  0.16667000  0.06464000
   0.66667000  0.00000000  0.00000000
   0.66965287  0.00000000  0.38061688
   0.83333000  0.16667000  0.06464000
   0.00000000  0.33333000  0.00000000
  -0.00000000  0.33034713  0.38061688
   0.16667000  0.50000000  0.06464000
   0.33333000  0.33333000  0.00000000
   0.35490354  0.35490354  0.38478675
   0.50000000  0.50000000  0.06464000
   0.66667000  0.33333000  0.00000000
   0.64509646  0.35490354  0.38478675
   0.83333000  0.50000000  0.06464000
   0.00000000  0.66667000  0.00000000
  -0.00000000  0.66965287  0.38061688
   0.16667000  0.83333000  0.06464000
   0.33333000  0.66667000  0.00000000
   0.35490354  0.64509646  0.38478675
   0.50000000  0.83333000  0.06464000
   0.66667000  0.66667000  0.00000000
   0.64509646  0.64509646  0.38478675
   0.83333000  0.83333000  0.06464000
   0.00000000  0.00000000  0.12928000
   0.16667000  0.16667000  0.19391000
   0.33333000  0.00000000  0.12928000
   0.50000000  0.16667000  0.19391000
   0.66667000  0.00000000  0.12928000
   0.83333000  0.16667000  0.19391000
   0.00000000  0.33333000  0.12928000
   0.16667000  0.50000000  0.19391000
   0.33333000  0.33333000  0.12928000
   0.50000000  0.50000000  0.19391000
   0.66667000  0.33333000  0.12928000
   0.83333000  0.50000000  0.19391000
   0.00000000  0.66667000  0.12928000
   0.16667000  0.83333000  0.19391000
   0.33333000  0.66667000  0.12928000
   0.50000000  0.83333000  0.19391000
   0.66667000  0.66667000  0.12928000
   0.83333000  0.83333000  0.19391000
   0.00000000  0.00000000  0.25855000
   0.16666216  0.16666216  0.32527315
   0.33333000  0.00000000  0.25855000
   0.50000000  0.16524170  0.32465823
   0.66667000  0.00000000  0.25855000
   0.83333784  0.16666216  0.32527315
   0.00000000  0.33333000  0.25855000
   0.16524170  0.50000000  0.32465823
   0.33333000  0.33333000  0.25855000
   0.50000000  0.50000000  0.31594352
   0.66667000  0.33333000  0.25855000
   0.83475830  0.50000000  0.32465823
   0.00000000  0.66667000  0.25855000
   0.16666216  0.83333784  0.32527315
   0.33333000  0.66667000  0.25855000
   0.50000000  0.83475830  0.32465823
   0.66667000  0.66667000  0.25855000
   0.83333784  0.83333784  0.32527315
   0.50000000  0.50000000  0.42703552
